!BIOSYM archive 3
PBC=ON
Materials Studio Generated CAR File
!DATE Sun Jan 01 14:40:49 2017
PBC   48.0000   22.2750   27.9870   90.0000   90.0000   90.0000 (P1)
O556    43.505823867   16.367616294   15.751711997 XXXX 1      o*      O  -0.820
H1111   42.846919992   15.629337761   15.580182387 XXXX 1      h*      H   0.410
H1112   44.295382660   16.264715837   15.130885772 XXXX 1      h*      H   0.410
end
O556    38.774407171   13.488674741   15.357646474 XXXX 1      o*      O  -0.820
H1111   39.115587033   14.116195350   14.694050207 XXXX 1      h*      H   0.410
H1112   39.625714115   13.316944110   15.749986970 XXXX 1      h*      H   0.410
end
O556    35.316836641   13.453536830    0.949416310 XXXX 1      o*      O  -0.820
H1111   34.414185108   13.191350476    1.094425463 XXXX 1      h*      H   0.410
H1112   35.742382972   12.670897115    0.568455394 XXXX 1      h*      H   0.410
end
O556    24.764147831   16.834778576   13.912840103 XXXX 1      o*      O  -0.820
H1111   24.114654058   17.228456310   14.517569647 XXXX 1      h*      H   0.410
H1112   25.265914306   16.306951567   14.534492665 XXXX 1      h*      H   0.410
end
O556    21.818284307   20.972106906   24.189459463 XXXX 1      o*      O  -0.820
H1111   22.601903282   20.792208990   24.752134136 XXXX 1      h*      H   0.410
H1112   21.360281029   20.133536996   24.216821723 XXXX 1      h*      H   0.410
end
O556    44.096106195    2.915724166   18.393765095 XXXX 1      o*      O  -0.820
H1111   43.724894028    3.559533077   19.022021717 XXXX 1      h*      H   0.410
H1112   44.056569544    2.056693966   18.936141895 XXXX 1      h*      H   0.410
end
O556    43.923229443    0.562471957   26.793205188 XXXX 1      o*      O  -0.820
H1111   43.106368605    0.316554839   27.358816596 XXXX 1      h*      H   0.410
H1112   44.476143876   -0.136379062   27.094638287 XXXX 1      h*      H   0.410
end
O556    39.773081976    8.069102983    2.718749602 XXXX 1      o*      O  -0.820
H1111   40.114510348    8.575116173    3.506261899 XXXX 1      h*      H   0.410
H1112   39.078817355    8.680278848    2.452022695 XXXX 1      h*      H   0.410
end
O556     4.888241801    3.074942454    2.532506444 XXXX 1      o*      O  -0.820
H1111    5.490724979    2.401215972    2.107777723 XXXX 1      h*      H   0.410
H1112    5.461700772    3.427958148    3.160367883 XXXX 1      h*      H   0.410
end
O556    14.761777009    9.570982687    1.842267181 XXXX 1      o*      O  -0.820
H1111   14.165334941   10.330279565    1.833335026 XXXX 1      h*      H   0.410
H1112   14.579610141    9.150202061    0.999990080 XXXX 1      h*      H   0.410
end
O556    43.258302253   23.203581773   22.704619099 XXXX 1      o*      O  -0.820
H1111   43.326986139   22.210073635   22.801008287 XXXX 1      h*      H   0.410
H1112   42.422987998   23.271469964   22.193713817 XXXX 1      h*      H   0.410
end
O556    49.522050516   19.218562778   27.538061232 XXXX 1      o*      O  -0.820
H1111   49.087594060   19.589627176   26.730923095 XXXX 1      h*      H   0.410
H1112   50.390859015   18.973193059   27.177075979 XXXX 1      h*      H   0.410
end
O556    -0.006209834   11.710863740   13.408711558 XXXX 1      o*      O  -0.820
H1111   -0.534442584   11.104711034   13.940697991 XXXX 1      h*      H   0.410
H1112    0.530588731   11.988800539   14.173828432 XXXX 1      h*      H   0.410
end
O556     2.338846017   10.837696297   24.952537991 XXXX 1      o*      O  -0.820
H1111    2.723169926   11.274744706   25.741069381 XXXX 1      h*      H   0.410
H1112    2.014524225   10.020357271   25.460564049 XXXX 1      h*      H   0.410
end
O556    16.816672965   17.234890868   10.040535406 XXXX 1      o*      O  -0.820
H1111   16.603422840   18.092138314   10.568885658 XXXX 1      h*      H   0.410
H1112   17.105484909   17.631246570    9.227461574 XXXX 1      h*      H   0.410
end
O556    46.259284331    4.416956171    7.998483468 XXXX 1      o*      O  -0.820
H1111   46.354730229    3.559088551    8.380617746 XXXX 1      h*      H   0.410
H1112   46.905086561    4.472893169    7.289935854 XXXX 1      h*      H   0.410
end
O556    14.462989049   25.264301711   22.087294568 XXXX 1      o*      O  -0.820
H1111   14.099147372   25.510769961   22.954421544 XXXX 1      h*      H   0.410
H1112   14.106169788   24.295018743   22.110077146 XXXX 1      h*      H   0.410
end
O556    15.927370730   23.541034775   28.128601902 XXXX 1      o*      O  -0.820
H1111   16.061791004   23.796357911   27.183044322 XXXX 1      h*      H   0.410
H1112   16.849173624   23.436092302   28.479740618 XXXX 1      h*      H   0.410
end
O556    42.582720109   18.953497709   15.387201368 XXXX 1      o*      O  -0.820
H1111   43.344751471   19.524312822   15.680474675 XXXX 1      h*      H   0.410
H1112   42.955288288   18.029633377   15.480191589 XXXX 1      h*      H   0.410
end
O556    33.657877229    2.600583499   22.222976096 XXXX 1      o*      O  -0.820
H1111   33.768968715    2.137322539   21.372614820 XXXX 1      h*      H   0.410
H1112   33.231851834    3.444441960   22.056363903 XXXX 1      h*      H   0.410
end
O556    35.568982522    0.186872757   27.741484142 XXXX 1      o*      O  -0.820
H1111   35.299181135    0.372665977   28.686698338 XXXX 1      h*      H   0.410
H1112   36.499389620    0.395764857   27.741086655 XXXX 1      h*      H   0.410
end
O556    49.832702333   14.851119341   17.447221282 XXXX 1      o*      O  -0.820
H1111   50.301216621   14.390023489   18.207683653 XXXX 1      h*      H   0.410
H1112   48.919693039   14.814283841   17.688252117 XXXX 1      h*      H   0.410
end
O556    44.704397361   17.566982874   24.904289375 XXXX 1      o*      O  -0.820
H1111   44.616927662   18.353121450   24.308006314 XXXX 1      h*      H   0.410
H1112   43.815473952   17.097242917   24.779393249 XXXX 1      h*      H   0.410
end
O556    26.986883102    6.643312102   18.169223787 XXXX 1      o*      O  -0.820
H1111   26.167288401    7.177710165   18.150395732 XXXX 1      h*      H   0.410
H1112   27.146136118    6.335930775   19.084681863 XXXX 1      h*      H   0.410
end
O556    45.196075457    9.849851583   15.325208117 XXXX 1      o*      O  -0.820
H1111   45.369301357    9.063581110   14.805291793 XXXX 1      h*      H   0.410
H1112   44.365847680    9.598057165   15.792434093 XXXX 1      h*      H   0.410
end
O556    44.732878648   14.482425174   24.447448851 XXXX 1      o*      O  -0.820
H1111   43.970031343   15.016228102   24.119664570 XXXX 1      h*      H   0.410
H1112   44.478295494   14.569989230   25.433331128 XXXX 1      h*      H   0.410
end
O556    43.843631193    0.747478864   11.123507338 XXXX 1      o*      O  -0.820
H1111   43.287488195    1.363752060   11.668849912 XXXX 1      h*      H   0.410
H1112   43.041115977    0.327534331   10.618931866 XXXX 1      h*      H   0.410
end
O556    37.508574229   17.649636149    9.837528513 XXXX 1      o*      O  -0.820
H1111   36.670963446   18.007545845    9.466296036 XXXX 1      h*      H   0.410
H1112   37.835124790   18.474978594   10.261852457 XXXX 1      h*      H   0.410
end
O556    46.379978569    7.915785424    1.037644191 XXXX 1      o*      O  -0.820
H1111   46.511541974    8.093123160    0.087956182 XXXX 1      h*      H   0.410
H1112   46.241454427    6.932960109    1.130722854 XXXX 1      h*      H   0.410
end
O556    26.014140386    5.358123432   12.242786684 XXXX 1      o*      O  -0.820
H1111   26.256526923    5.782326209   13.075520115 XXXX 1      h*      H   0.410
H1112   25.331017003    4.759691333   12.580916697 XXXX 1      h*      H   0.410
end
O556    28.902553757   13.101314691   16.651951600 XXXX 1      o*      O  -0.820
H1111   29.736107083   12.653286593   16.432016379 XXXX 1      h*      H   0.410
H1112   29.200461194   13.936019480   17.049147272 XXXX 1      h*      H   0.410
end
O556    48.635681120   19.182012181    8.630013002 XXXX 1      o*      O  -0.820
H1111   47.938126156   19.939085645    8.568265223 XXXX 1      h*      H   0.410
H1112   48.284465602   18.726754323    7.804095650 XXXX 1      h*      H   0.410
end
O556    22.651907337    4.260116369    4.709372089 XXXX 1      o*      O  -0.820
H1111   22.612912592    5.236892838    4.874772622 XXXX 1      h*      H   0.410
H1112   22.684548196    3.926219156    5.622513616 XXXX 1      h*      H   0.410
end
O556     3.846710498   15.671283335   10.233473808 XXXX 1      o*      O  -0.820
H1111    3.090418407   16.049668223   10.752454907 XXXX 1      h*      H   0.410
H1112    4.426684663   16.457696179   10.151498804 XXXX 1      h*      H   0.410
end
O556    17.677668997   20.785125449   18.677707208 XXXX 1      o*      O  -0.820
H1111   17.989374248   20.688634315   19.589054011 XXXX 1      h*      H   0.410
H1112   16.739233711   20.991658353   18.795748857 XXXX 1      h*      H   0.410
end
O556    16.933351675   23.037369126   22.204340069 XXXX 1      o*      O  -0.820
H1111   17.772351533   23.566091660   21.831602800 XXXX 1      h*      H   0.410
H1112   16.225134783   23.214742593   21.539316177 XXXX 1      h*      H   0.410
end
O556    22.325641968   14.294572667   21.055211244 XXXX 1      o*      O  -0.820
H1111   22.370086646   15.053199485   20.477670163 XXXX 1      h*      H   0.410
H1112   21.633113312   14.575040226   21.703216163 XXXX 1      h*      H   0.410
end
O556    19.552208470   17.957937469   25.843928361 XXXX 1      o*      O  -0.820
H1111   19.494020048   17.961816617   24.885598517 XXXX 1      h*      H   0.410
H1112   20.374826937   18.439256030   26.018470653 XXXX 1      h*      H   0.410
end
O556    -0.565667861   17.104157400   10.213934655 XXXX 1      o*      O  -0.820
H1111   -0.103593692   17.862181509    9.789120269 XXXX 1      h*      H   0.410
H1112   -0.254527404   16.392412910    9.588346464 XXXX 1      h*      H   0.410
end
O556    42.970744138    7.915881210   22.927025234 XXXX 1      o*      O  -0.820
H1111   41.981769341    8.089940289   23.057291961 XXXX 1      h*      H   0.410
H1112   42.852050157    6.960218640   22.977930967 XXXX 1      h*      H   0.410
end
O556    42.909685140    6.636047569   26.422415072 XXXX 1      o*      O  -0.820
H1111   42.061241111    6.825408324   25.950484244 XXXX 1      h*      H   0.410
H1112   43.120018950    7.580113739   26.645164725 XXXX 1      h*      H   0.410
end
O556    34.333676356   12.949072121   14.772943697 XXXX 1      o*      O  -0.820
H1111   34.589038133   13.069142353   13.848106822 XXXX 1      h*      H   0.410
H1112   34.564027831   12.002355432   15.000397632 XXXX 1      h*      H   0.410
end
O556    27.140725473    0.110470459    5.429507148 XXXX 1      o*      O  -0.820
H1111   27.997018281   -0.205636569    5.095691505 XXXX 1      h*      H   0.410
H1112   27.262018121    1.066454452    5.316297850 XXXX 1      h*      H   0.410
end
O556     2.139421446    9.018064978    3.205340649 XXXX 1      o*      O  -0.820
H1111    1.327876829    8.499162896    3.193673568 XXXX 1      h*      H   0.410
H1112    2.647100259    8.289136830    3.624607623 XXXX 1      h*      H   0.410
end
O556    11.833904409    6.884135527   19.049458837 XXXX 1      o*      O  -0.820
H1111   10.921332552    6.674179003   18.988975179 XXXX 1      h*      H   0.410
H1112   12.259723509    6.048921312   19.427285666 XXXX 1      h*      H   0.410
end
O556    13.446743164    3.895337611   24.576297136 XXXX 1      o*      O  -0.820
H1111   13.797437339    4.785179848   24.235414857 XXXX 1      h*      H   0.410
H1112   13.888881107    3.793818182   25.485017183 XXXX 1      h*      H   0.410
end
O556    20.415087581    0.010184626   -0.797973401 XXXX 1      o*      O  -0.820
H1111   20.856813026    0.731429496   -1.185274788 XXXX 1      h*      H   0.410
H1112   19.802526986    0.404954879   -0.132162189 XXXX 1      h*      H   0.410
end
O556    11.910421176   10.013765038    7.400304853 XXXX 1      o*      O  -0.820
H1111   12.438697472   10.457903576    8.128188957 XXXX 1      h*      H   0.410
H1112   10.978265211   10.082197757    7.695910290 XXXX 1      h*      H   0.410
end
O556     7.686420710    7.893145540   12.404403494 XXXX 1      o*      O  -0.820
H1111    8.119932695    7.147361103   12.847383389 XXXX 1      h*      H   0.410
H1112    6.918005464    7.554572632   11.978207470 XXXX 1      h*      H   0.410
end
O556    41.150736816   19.891281612    9.400070425 XXXX 1      o*      O  -0.820
H1111   41.321913972   19.401017215   10.272704201 XXXX 1      h*      H   0.410
H1112   41.072150984   20.773923576    9.768953968 XXXX 1      h*      H   0.410
end
O556     2.884348676    6.810066188    5.922416318 XXXX 1      o*      O  -0.820
H1111    3.038946800    6.198329608    5.142808389 XXXX 1      h*      H   0.410
H1112    3.564483154    6.372870512    6.529557094 XXXX 1      h*      H   0.410
end
O556    14.012083485   19.180931037   18.325163552 XXXX 1      o*      O  -0.820
H1111   13.979735272   19.704629580   19.193220498 XXXX 1      h*      H   0.410
H1112   14.461351900   18.388263074   18.664170268 XXXX 1      h*      H   0.410
end
O556    15.765885276   20.423875561   23.862189766 XXXX 1      o*      O  -0.820
H1111   15.940004080   19.421962181   24.019358980 XXXX 1      h*      H   0.410
H1112   16.631480744   20.661282300   23.461229396 XXXX 1      h*      H   0.410
end
O556    42.975421334   -1.833751943    5.788835470 XXXX 1      o*      O  -0.820
H1111   43.826515594   -2.228707803    6.162841325 XXXX 1      h*      H   0.410
H1112   43.285050483   -1.602693639    4.925872521 XXXX 1      h*      H   0.410
end
O556    12.441950021    7.746823180   16.498452937 XXXX 1      o*      O  -0.820
H1111   12.238313847    7.169383324   17.286012393 XXXX 1      h*      H   0.410
H1112   11.594859125    7.564352972   15.965483463 XXXX 1      h*      H   0.410
end
O556    20.145277527   22.475599334    7.739149199 XXXX 1      o*      O  -0.820
H1111   21.048385002   22.323960460    8.035855188 XXXX 1      h*      H   0.410
H1112   20.221745272   22.659710326    6.794830407 XXXX 1      h*      H   0.410
end
O556     8.060857262   15.420442378    1.704897541 XXXX 1      o*      O  -0.820
H1111    8.925473820   15.930195788    1.812656465 XXXX 1      h*      H   0.410
H1112    7.657952699   15.855337400    0.976180952 XXXX 1      h*      H   0.410
end
O556     8.886763266   17.943070375   15.732095032 XXXX 1      o*      O  -0.820
H1111    8.037411972   17.482640550   15.750401928 XXXX 1      h*      H   0.410
H1112    8.530210405   18.819110784   15.559346906 XXXX 1      h*      H   0.410
end
O556    25.204218395    9.394444414   20.825139897 XXXX 1      o*      O  -0.820
H1111   24.657479410    8.705207884   20.380370374 XXXX 1      h*      H   0.410
H1112   25.371041751    9.157356483   21.715888393 XXXX 1      h*      H   0.410
end
O556    28.338062893   12.444422488   22.029570657 XXXX 1      o*      O  -0.820
H1111   28.976595575   11.671958677   22.212236130 XXXX 1      h*      H   0.410
H1112   27.539727893   11.950115336   22.253323758 XXXX 1      h*      H   0.410
end
O556    12.253124956   18.491153455   11.417684047 XXXX 1      o*      O  -0.820
H1111   11.968836114   17.508719980   11.565469653 XXXX 1      h*      H   0.410
H1112   12.947475015   18.633814382   12.146422030 XXXX 1      h*      H   0.410
end
O556    38.531382016   10.679433056   12.919859856 XXXX 1      o*      O  -0.820
H1111   37.618922824   10.424644411   13.236980577 XXXX 1      h*      H   0.410
H1112   38.364459165   11.495601902   12.406615593 XXXX 1      h*      H   0.410
end
O556     7.608551335   21.331918336    8.664584664 XXXX 1      o*      O  -0.820
H1111    7.712508886   20.968526558    7.770478836 XXXX 1      h*      H   0.410
H1112    7.278817715   22.231963850    8.441469937 XXXX 1      h*      H   0.410
end
O556    30.175846542   18.748705107    4.167388466 XXXX 1      o*      O  -0.820
H1111   30.210287365   19.432540843    4.927647560 XXXX 1      h*      H   0.410
H1112   29.989138770   19.343421372    3.412153567 XXXX 1      h*      H   0.410
end
O556     3.679014627    0.004393437   19.716686438 XXXX 1      o*      O  -0.820
H1111    3.375602754    0.882629135   19.525887336 XXXX 1      h*      H   0.410
H1112    4.667656654    0.138349830   19.833760371 XXXX 1      h*      H   0.410
end
O556     6.867943775    1.683942059   23.629575200 XXXX 1      o*      O  -0.820
H1111    6.039149333    2.216068967   23.823226970 XXXX 1      h*      H   0.410
H1112    7.385903388    2.397500288   23.178917164 XXXX 1      h*      H   0.410
end
O556     4.343701433   15.681828208   17.087132490 XXXX 1      o*      O  -0.820
H1111    4.881071605   14.849073385   17.348626621 XXXX 1      h*      H   0.410
H1112    3.414374615   15.300988426   17.340663415 XXXX 1      h*      H   0.410
end
O556     7.082788224   17.619757508   21.558483380 XXXX 1      o*      O  -0.820
H1111    6.776590550   17.708344927   22.492604346 XXXX 1      h*      H   0.410
H1112    7.001094370   16.617402699   21.510308015 XXXX 1      h*      H   0.410
end
O556     6.190126176   17.869457592   18.832383970 XXXX 1      o*      O  -0.820
H1111    6.441872355   18.118145201   19.761111133 XXXX 1      h*      H   0.410
H1112    7.022131936   18.000690932   18.413722061 XXXX 1      h*      H   0.410
end
O556     4.398855560   21.479762363   25.714192671 XXXX 1      o*      O  -0.820
H1111    4.342548101   21.657714463   24.739528997 XXXX 1      h*      H   0.410
H1112    5.221894013   22.008473096   25.936078945 XXXX 1      h*      H   0.410
end
O556    41.292280178    5.333164516   23.718857925 XXXX 1      o*      O  -0.820
H1111   41.675102336    4.517235565   24.067489580 XXXX 1      h*      H   0.410
H1112   40.390505226    4.999773033   23.926229415 XXXX 1      h*      H   0.410
end
O556    39.203193757    6.056945122   26.675393439 XXXX 1      o*      O  -0.820
H1111   38.473812035    5.780808902   26.098819810 XXXX 1      h*      H   0.410
H1112   38.729905957    6.076663498   27.558233429 XXXX 1      h*      H   0.410
end
O556    45.724205454    9.159217344   21.373749264 XXXX 1      o*      O  -0.820
H1111   46.125351295    8.770091240   22.229978197 XXXX 1      h*      H   0.410
H1112   44.808807729    9.256663005   21.616287175 XXXX 1      h*      H   0.410
end
O556    43.139445116    3.797148602   28.058703792 XXXX 1      o*      O  -0.820
H1111   42.478405998    3.681899793   27.281758518 XXXX 1      h*      H   0.410
H1112   42.661564854    3.175829758   28.552750184 XXXX 1      h*      H   0.410
end
O556    28.832689859   10.110249382   15.113787911 XXXX 1      o*      O  -0.820
H1111   29.707059826   10.529719667   15.052040268 XXXX 1      h*      H   0.410
H1112   28.279826057   10.884233974   15.058518136 XXXX 1      h*      H   0.410
end
O556    31.128467849   10.617156797    7.760390757 XXXX 1      o*      O  -0.820
H1111   30.306184478   10.169258168    8.011677599 XXXX 1      h*      H   0.410
H1112   31.782210054   10.319055093    8.444225381 XXXX 1      h*      H   0.410
end
O556    42.468355709   16.761977582   18.767198091 XXXX 1      o*      O  -0.820
H1111   43.158158389   16.554120918   19.461168328 XXXX 1      h*      H   0.410
H1112   43.066013584   17.266625591   18.171921218 XXXX 1      h*      H   0.410
end
O556    42.205729523   15.814562070   24.936156859 XXXX 1      o*      O  -0.820
H1111   41.906095527   14.894266106   24.799224963 XXXX 1      h*      H   0.410
H1112   41.431389162   16.238887777   24.440651293 XXXX 1      h*      H   0.410
end
O556    40.529720825   22.274036107   21.854438610 XXXX 1      o*      O  -0.820
H1111   40.586468388   21.325821841   22.048537358 XXXX 1      h*      H   0.410
H1112   39.696510109   22.367353985   22.337955775 XXXX 1      h*      H   0.410
end
O556    45.846618332   20.855020030   30.248621529 XXXX 1      o*      O  -0.820
H1111   46.189458922   19.910853051   30.385434983 XXXX 1      h*      H   0.410
H1112   46.720490071   21.340360904   30.210596096 XXXX 1      h*      H   0.410
end
O556    44.918544302   18.203807884   18.080777975 XXXX 1      o*      O  -0.820
H1111   45.781333569   18.044248329   18.516020431 XXXX 1      h*      H   0.410
H1112   45.022706450   18.684424608   17.233532227 XXXX 1      h*      H   0.410
end
O556    33.797031438   16.888891949   17.746242303 XXXX 1      o*      O  -0.820
H1111   33.843886726   17.488880226   16.953640673 XXXX 1      h*      H   0.410
H1112   33.407660264   16.087090680   17.290508372 XXXX 1      h*      H   0.410
end
O556    32.080348216   12.967160467   23.360836260 XXXX 1      o*      O  -0.820
H1111   31.334109408   12.572444316   22.887284406 XXXX 1      h*      H   0.410
H1112   32.498832251   13.355065056   22.616069561 XXXX 1      h*      H   0.410
end
O556     8.678144183   14.637242218   12.246395657 XXXX 1      o*      O  -0.820
H1111    8.344348800   15.567412246   12.037016648 XXXX 1      h*      H   0.410
H1112    8.413358748   14.598782287   13.193303715 XXXX 1      h*      H   0.410
end
O556    44.111265382    8.641361912   18.235648594 XXXX 1      o*      O  -0.820
H1111   43.308599521    8.114827693   18.499680969 XXXX 1      h*      H   0.410
H1112   43.603648654    9.356964345   17.771214148 XXXX 1      h*      H   0.410
end
O556    15.424227372    2.006323861   13.520606654 XXXX 1      o*      O  -0.820
H1111   15.454964849    1.150313015   13.051344713 XXXX 1      h*      H   0.410
H1112   14.710493978    2.441597630   13.004770463 XXXX 1      h*      H   0.410
end
O556    23.211010192   15.903540427    9.075545185 XXXX 1      o*      O  -0.820
H1111   23.979755040   16.546456924    9.216715191 XXXX 1      h*      H   0.410
H1112   22.416943203   16.478674310    9.335586310 XXXX 1      h*      H   0.410
end
O556     1.320796912   -2.254727459   11.198664944 XXXX 1      o*      O  -0.820
H1111    0.679368155   -1.541156188   11.347567689 XXXX 1      h*      H   0.410
H1112    1.105845212   -2.472318463   10.259941005 XXXX 1      h*      H   0.410
end
O556    12.657647071   18.690958465    5.589911094 XXXX 1      o*      O  -0.820
H1111   12.459138055   19.341789748    4.863902632 XXXX 1      h*      H   0.410
H1112   12.613800436   19.196601606    6.440989980 XXXX 1      h*      H   0.410
end
O556     8.376177887   17.488022985   12.474328797 XXXX 1      o*      O  -0.820
H1111    8.599908240   18.020640504   13.268514627 XXXX 1      h*      H   0.410
H1112    8.552028336   18.245327304   11.845544278 XXXX 1      h*      H   0.410
end
O556    29.259682753   21.070884609   19.047955462 XXXX 1      o*      O  -0.820
H1111   28.308902634   21.351786165   18.925615343 XXXX 1      h*      H   0.410
H1112   29.416710997   21.523215352   19.969094635 XXXX 1      h*      H   0.410
end
O556    31.813509543   19.673181045   25.278327187 XXXX 1      o*      O  -0.820
H1111   32.727250943   20.066205757   25.121682749 XXXX 1      h*      H   0.410
H1112   31.802991601   19.021721668   24.535312033 XXXX 1      h*      H   0.410
end
O556     2.753111720   19.691307424    2.295638550 XXXX 1      o*      O  -0.820
H1111    2.295341058   19.470343227    1.491125100 XXXX 1      h*      H   0.410
H1112    3.275150841   18.893750093    2.443729893 XXXX 1      h*      H   0.410
end
O556     2.475491321    4.914619383    9.104865258 XXXX 1      o*      O  -0.820
H1111    1.979228206    4.765889051    9.946321486 XXXX 1      h*      H   0.410
H1112    2.572416862    5.919345547    9.005844654 XXXX 1      h*      H   0.410
end
O556     2.637633867    1.786305451    4.748092580 XXXX 1      o*      O  -0.820
H1111    3.095341490    1.154766785    4.125789274 XXXX 1      h*      H   0.410
H1112    1.936689880    1.091104574    4.937727582 XXXX 1      h*      H   0.410
end
O556    24.480539030    4.122461294    0.385541644 XXXX 1      o*      O  -0.820
H1111   24.432129011    4.477784687    1.314168347 XXXX 1      h*      H   0.410
H1112   25.361003010    3.622167773    0.478999471 XXXX 1      h*      H   0.410
end
O556    26.038150430   19.640096618   19.959483951 XXXX 1      o*      O  -0.820
H1111   25.630911987   19.483651091   20.862188223 XXXX 1      h*      H   0.410
H1112   25.345623802   20.106375116   19.475573251 XXXX 1      h*      H   0.410
end
O556    29.661036096   19.345339256   27.894957887 XXXX 1      o*      O  -0.820
H1111   30.357209604   19.363111367   27.198180454 XXXX 1      h*      H   0.410
H1112   28.925502545   19.378440409   27.305114093 XXXX 1      h*      H   0.410
end
O556    30.092668518   20.950243809   11.410489222 XXXX 1      o*      O  -0.820
H1111   29.231848399   21.120264949   11.766140425 XXXX 1      h*      H   0.410
H1112   29.904565256   21.194210432   10.492000099 XXXX 1      h*      H   0.410
end
O556    42.579422434    6.341412160   16.328430428 XXXX 1      o*      O  -0.820
H1111   42.505947824    6.694245130   17.261885329 XXXX 1      h*      H   0.410
H1112   43.527363071    6.125402643   16.455184040 XXXX 1      h*      H   0.410
end
O556    40.305651734    6.413541802   21.477934569 XXXX 1      o*      O  -0.820
H1111   40.249357725    7.072017285   22.172449448 XXXX 1      h*      H   0.410
H1112   39.937813545    5.635491396   21.889598047 XXXX 1      h*      H   0.410
end
O556    31.824625238    3.752491870   16.181845055 XXXX 1      o*      O  -0.820
H1111   32.116512480    4.233077511   15.377510821 XXXX 1      h*      H   0.410
H1112   31.014999503    4.183165099   16.426760212 XXXX 1      h*      H   0.410
end
O556    27.554248761    8.762965223   -0.735281615 XXXX 1      o*      O  -0.820
H1111   26.751793819    8.981067168   -0.192248114 XXXX 1      h*      H   0.410
H1112   27.878757071    7.970282618   -0.294044862 XXXX 1      h*      H   0.410
end
O556     1.145419091    3.270179205   20.655190053 XXXX 1      o*      O  -0.820
H1111    0.326943568    3.636865664   20.936432810 XXXX 1      h*      H   0.410
H1112    0.943564341    2.931381117   19.781675336 XXXX 1      h*      H   0.410
end
O556     3.612293236    3.916654930   23.291780826 XXXX 1      o*      O  -0.820
H1111    4.008405902    4.406451736   24.051044556 XXXX 1      h*      H   0.410
H1112    3.170996591    3.239199417   23.842411204 XXXX 1      h*      H   0.410
end
O556     3.073330276    4.590974643   13.734042999 XXXX 1      o*      O  -0.820
H1111    2.736164695    5.478151812   14.040755648 XXXX 1      h*      H   0.410
H1112    2.199794175    4.198450637   13.611515440 XXXX 1      h*      H   0.410
end
O556    33.413492183    4.530363814   13.819158718 XXXX 1      o*      O  -0.820
H1111   32.486962097    4.507574159   13.511886279 XXXX 1      h*      H   0.410
H1112   33.723067045    5.079005403   13.046660848 XXXX 1      h*      H   0.410
end
O556    15.325719222   11.395076833    4.455885593 XXXX 1      o*      O  -0.820
H1111   14.453103388   11.819432223    4.446735883 XXXX 1      h*      H   0.410
H1112   15.623078778   11.556183898    3.539351143 XXXX 1      h*      H   0.410
end
O556    34.519554040   12.645620035    8.713790822 XXXX 1      o*      O  -0.820
H1111   34.477540989   11.927706540    8.021451247 XXXX 1      h*      H   0.410
H1112   34.858653631   13.414333494    8.223777003 XXXX 1      h*      H   0.410
end
O556     1.732616980   21.928496579    7.319903104 XXXX 1      o*      O  -0.820
H1111    1.188861705   22.437279350    7.953492158 XXXX 1      h*      H   0.410
H1112    1.050186623   21.723726676    6.656911174 XXXX 1      h*      H   0.410
end
O556    -0.628360184   21.599750699   21.612307667 XXXX 1      o*      O  -0.820
H1111   -0.878238942   22.511374834   21.942704634 XXXX 1      h*      H   0.410
H1112    0.356815261   21.726704307   21.751943674 XXXX 1      h*      H   0.410
end
O556     2.137091987   17.674881399   25.112843947 XXXX 1      o*      O  -0.820
H1111    1.424813991   17.927975312   24.438374186 XXXX 1      h*      H   0.410
H1112    3.022805754   17.836501701   24.640638612 XXXX 1      h*      H   0.410
end
O556     4.327694211   13.953353447   19.863423064 XXXX 1      o*      O  -0.820
H1111    4.251889347   13.016706697   19.509633454 XXXX 1      h*      H   0.410
H1112    3.450660797   14.007333854   20.296047454 XXXX 1      h*      H   0.410
end
O556     4.223548849   12.403775971   26.711871321 XXXX 1      o*      O  -0.820
H1111    3.511003460   12.617786203   27.329162287 XXXX 1      h*      H   0.410
H1112    4.758627466   13.147718203   27.004539768 XXXX 1      h*      H   0.410
end
O556    27.872978342   15.467157462   14.354409945 XXXX 1      o*      O  -0.820
H1111   27.211523221   15.293780717   15.049846492 XXXX 1      h*      H   0.410
H1112   28.672385863   15.527248744   14.949813520 XXXX 1      h*      H   0.410
end
O556    48.541450969   10.941269265   -0.258065572 XXXX 1      o*      O  -0.820
H1111   48.988629571   10.116498012   -0.133948446 XXXX 1      h*      H   0.410
H1112   49.199127446   11.657496615   -0.311462534 XXXX 1      h*      H   0.410
end
O556    28.812651990    9.164193212    7.807645692 XXXX 1      o*      O  -0.820
H1111   27.848215339    9.117048488    8.051355382 XXXX 1      h*      H   0.410
H1112   28.808354628    8.473770579    7.127910853 XXXX 1      h*      H   0.410
end
O556    16.389843217   12.464209845   16.449928437 XXXX 1      o*      O  -0.820
H1111   15.705299837   12.336154708   15.715163576 XXXX 1      h*      H   0.410
H1112   17.249569915   12.588878214   15.893684558 XXXX 1      h*      H   0.410
end
O556    16.372349969    1.635617829    3.601021315 XXXX 1      o*      O  -0.820
H1111   16.690955394    2.242904067    2.921114654 XXXX 1      h*      H   0.410
H1112   16.872839982    2.156720864    4.316812903 XXXX 1      h*      H   0.410
end
O556    11.551841476   15.468490739    7.729711059 XXXX 1      o*      O  -0.820
H1111   11.640601059   15.418295508    8.735051956 XXXX 1      h*      H   0.410
H1112   11.076548320   16.348547762    7.635170296 XXXX 1      h*      H   0.410
end
O556    37.361341935   17.627947487    5.073625411 XXXX 1      o*      O  -0.820
H1111   36.418836554   17.595771402    4.933235399 XXXX 1      h*      H   0.410
H1112   37.446556383   18.224509237    5.865664583 XXXX 1      h*      H   0.410
end
O556    20.371266987   18.452438523   18.685188745 XXXX 1      o*      O  -0.820
H1111   20.481529926   17.488590318   18.792843387 XXXX 1      h*      H   0.410
H1112   20.345316571   18.393620143   17.672923019 XXXX 1      h*      H   0.410
end
O556    45.319646885    6.457725965   19.994900498 XXXX 1      o*      O  -0.820
H1111   44.973120127    7.374086372   19.846604801 XXXX 1      h*      H   0.410
H1112   45.774956425    6.415980440   19.163940497 XXXX 1      h*      H   0.410
end
O556    40.893158617    3.775994994   26.370795206 XXXX 1      o*      O  -0.820
H1111   40.116874890    3.319655953   26.070442692 XXXX 1      h*      H   0.410
H1112   40.504203876    4.513195922   26.913984054 XXXX 1      h*      H   0.410
end
O556    14.258750713   18.306518547   15.444487689 XXXX 1      o*      O  -0.820
H1111   14.673259551   17.743509270   16.065725434 XXXX 1      h*      H   0.410
H1112   13.606533477   18.750052913   16.036403583 XXXX 1      h*      H   0.410
end
O556     6.884408869   14.647662742    8.742049031 XXXX 1      o*      O  -0.820
H1111    6.240646600   13.965918146    9.085715660 XXXX 1      h*      H   0.410
H1112    6.791930559   14.562318795    7.761647649 XXXX 1      h*      H   0.410
end
O556    43.804166174   19.208818709    1.327773763 XXXX 1      o*      O  -0.820
H1111   43.975519344   19.292710220    0.341886335 XXXX 1      h*      H   0.410
H1112   44.302383587   20.046097240    1.581988045 XXXX 1      h*      H   0.410
end
O556    42.683365300   10.109264635    2.338720127 XXXX 1      o*      O  -0.820
H1111   42.076575002    9.601818750    1.804781751 XXXX 1      h*      H   0.410
H1112   42.613277105   11.074352002    2.021612960 XXXX 1      h*      H   0.410
end
O556    46.354276265   19.889339459   16.468768997 XXXX 1      o*      O  -0.820
H1111   46.716159185   19.512116108   15.637800711 XXXX 1      h*      H   0.410
H1112   47.174933891   19.869406747   17.003140770 XXXX 1      h*      H   0.410
end
O556    37.195548100    6.217071119   19.364767625 XXXX 1      o*      O  -0.820
H1111   37.148213227    6.358579681   20.303064682 XXXX 1      h*      H   0.410
H1112   36.469577032    6.835838882   19.002006200 XXXX 1      h*      H   0.410
end
O556    31.462590002   11.155884101   25.965791074 XXXX 1      o*      O  -0.820
H1111   31.925521386   10.420707883   26.421872385 XXXX 1      h*      H   0.410
H1112   31.097860970   10.678327718   25.187382509 XXXX 1      h*      H   0.410
end
O556    29.552071059    4.881206505   17.272721347 XXXX 1      o*      O  -0.820
H1111   29.190988223    4.038599857   16.823540080 XXXX 1      h*      H   0.410
H1112   28.648446412    5.233413671   17.671387049 XXXX 1      h*      H   0.410
end
O556    24.173755664    0.855645659   21.429018757 XXXX 1      o*      O  -0.820
H1111   25.133638564    1.064018914   21.605296705 XXXX 1      h*      H   0.410
H1112   24.205729872   -0.013037753   20.994363006 XXXX 1      h*      H   0.410
end
O556    30.379366788    6.125716626   -1.624740821 XXXX 1      o*      O  -0.820
H1111   30.999526925    5.448108880   -1.230594852 XXXX 1      h*      H   0.410
H1112   29.484181208    5.719689716   -1.489273944 XXXX 1      h*      H   0.410
end
O556    27.685028613   13.671141246    4.808924983 XXXX 1      o*      O  -0.820
H1111   27.017279545   14.372091116    4.756402736 XXXX 1      h*      H   0.410
H1112   27.902905518   13.437263210    3.905287149 XXXX 1      h*      H   0.410
end
O556    18.738809782    2.788137755    8.196933287 XXXX 1      o*      O  -0.820
H1111   19.211690937    1.967382100    8.198422696 XXXX 1      h*      H   0.410
H1112   19.326929554    3.319745740    8.726695823 XXXX 1      h*      H   0.410
end
O556    29.428386458   10.886147240   11.724617571 XXXX 1      o*      O  -0.820
H1111   30.322408012   11.290469404   11.724173251 XXXX 1      h*      H   0.410
H1112   28.924172277   11.449422166   11.050219151 XXXX 1      h*      H   0.410
end
O556    40.941367417   11.558767665   25.563018282 XXXX 1      o*      O  -0.820
H1111   40.898101961   10.810386762   26.187937115 XXXX 1      h*      H   0.410
H1112   40.080306846   11.979212524   25.576003232 XXXX 1      h*      H   0.410
end
O556    40.162047148    9.468155036   27.299345056 XXXX 1      o*      O  -0.820
H1111   39.273670440    8.978214692   27.282414660 XXXX 1      h*      H   0.410
H1112   39.655080069   10.216394530   27.621382184 XXXX 1      h*      H   0.410
end
O556    40.301322806    3.942515143    7.165961496 XXXX 1      o*      O  -0.820
H1111   39.968919458    3.140177962    7.658247882 XXXX 1      h*      H   0.410
H1112   39.566681527    4.545418763    7.062777647 XXXX 1      h*      H   0.410
end
O556     6.425594538   17.224384809    0.375515961 XXXX 1      o*      O  -0.820
H1111    5.809243882   17.668372896   -0.216390393 XXXX 1      h*      H   0.410
H1112    6.487805447   18.074362047    0.979291027 XXXX 1      h*      H   0.410
end
O556     6.471115262   22.654853233   18.850271955 XXXX 1      o*      O  -0.820
H1111    6.875514035   23.452709787   18.460157237 XXXX 1      h*      H   0.410
H1112    7.055624262   22.461417406   19.594130482 XXXX 1      h*      H   0.410
end
O556     4.694596676   22.155563436   22.848301063 XXXX 1      o*      O  -0.820
H1111    5.614771304   21.951604818   22.693534613 XXXX 1      h*      H   0.410
H1112    4.599738875   22.912548130   22.234021727 XXXX 1      h*      H   0.410
end
O556    14.949120210    6.422343707   12.020951840 XXXX 1      o*      O  -0.820
H1111   14.929787370    7.177822070   11.369858016 XXXX 1      h*      H   0.410
H1112   14.357126984    6.857156006   12.683413575 XXXX 1      h*      H   0.410
end
O556    28.835119710    2.942105845    4.688819764 XXXX 1      o*      O  -0.820
H1111   29.168030561    1.983196081    4.617373553 XXXX 1      h*      H   0.410
H1112   29.687337494    3.439954459    4.636483318 XXXX 1      h*      H   0.410
end
O556    23.093182588   17.272450953   16.026992459 XXXX 1      o*      O  -0.820
H1111   22.325236191   17.863576428   15.856935419 XXXX 1      h*      H   0.410
H1112   22.761979944   16.694409181   16.805898339 XXXX 1      h*      H   0.410
end
O556    27.258963845   12.010358636    9.341908776 XXXX 1      o*      O  -0.820
H1111   26.672619800   12.525920305    8.777460673 XXXX 1      h*      H   0.410
H1112   27.438671662   11.294170614    8.704703308 XXXX 1      h*      H   0.410
end
O556    25.911719287    0.150274949    8.833968003 XXXX 1      o*      O  -0.820
H1111   25.543377383   -0.594156965    8.375326615 XXXX 1      h*      H   0.410
H1112   26.901262759   -0.029927415    8.826243040 XXXX 1      h*      H   0.410
end
O556    43.581308228    9.801265130    6.936073363 XXXX 1      o*      O  -0.820
H1111   43.758849951   10.236641869    6.089515401 XXXX 1      h*      H   0.410
H1112   44.218244880    8.982913277    6.931318010 XXXX 1      h*      H   0.410
end
O556    32.910748752   12.037886607    5.322279799 XXXX 1      o*      O  -0.820
H1111   32.292756126   12.571285249    5.815954405 XXXX 1      h*      H   0.410
H1112   33.303344467   11.569881207    6.136827839 XXXX 1      h*      H   0.410
end
O556    30.922717473    4.800253009    4.366473673 XXXX 1      o*      O  -0.820
H1111   31.313394618    5.383901953    5.112246310 XXXX 1      h*      H   0.410
H1112   30.721738898    5.578608328    3.811366695 XXXX 1      h*      H   0.410
end
O556    30.927160020    8.521264368   -0.052814376 XXXX 1      o*      O  -0.820
H1111   31.682914335    7.938588561    0.074049662 XXXX 1      h*      H   0.410
H1112   30.436945484    7.915577321   -0.628891612 XXXX 1      h*      H   0.410
end
O556     9.165690030    7.248425594    3.506370597 XXXX 1      o*      O  -0.820
H1111    9.621794786    8.071598996    3.848670238 XXXX 1      h*      H   0.410
H1112    8.773740797    7.510224219    2.627861741 XXXX 1      h*      H   0.410
end
O556    38.194825226    0.697201160   11.750602890 XXXX 1      o*      O  -0.820
H1111   37.361109893    0.982502607   11.279862957 XXXX 1      h*      H   0.410
H1112   38.278953943    1.518809986   12.251206068 XXXX 1      h*      H   0.410
end
O556    21.503274830   14.169136026    7.451544625 XXXX 1      o*      O  -0.820
H1111   22.113252808   14.396962272    6.728882336 XXXX 1      h*      H   0.410
H1112   22.038179734   14.511484233    8.225279800 XXXX 1      h*      H   0.410
end
O556    25.958050241   23.421476332   15.372539135 XXXX 1      o*      O  -0.820
H1111   25.042403910   23.699425942   15.518129669 XXXX 1      h*      H   0.410
H1112   25.916879190   23.497771063   14.413492402 XXXX 1      h*      H   0.410
end
O556    11.355814621    2.129529464    1.872291840 XXXX 1      o*      O  -0.820
H1111   11.234944717    2.265170976    2.810350201 XXXX 1      h*      H   0.410
H1112   12.112009412    2.730268871    1.675678809 XXXX 1      h*      H   0.410
end
O556    31.369529415    9.741838050    4.748325082 XXXX 1      o*      O  -0.820
H1111   31.814569584   10.584523817    4.893683547 XXXX 1      h*      H   0.410
H1112   30.953080835    9.624183906    5.649042444 XXXX 1      h*      H   0.410
end
O556    24.570512349    7.018043477    9.602078631 XXXX 1      o*      O  -0.820
H1111   25.072868427    6.885070604   10.387035450 XXXX 1      h*      H   0.410
H1112   23.639864733    7.244311659    9.988960005 XXXX 1      h*      H   0.410
end
O556    21.532971501    5.142070831   21.900004455 XXXX 1      o*      O  -0.820
H1111   20.648610577    5.075506859   22.304669304 XXXX 1      h*      H   0.410
H1112   21.821066381    4.218345627   21.785037155 XXXX 1      h*      H   0.410
end
O556    18.925617569    6.485678343   24.061460425 XXXX 1      o*      O  -0.820
H1111   18.403035070    7.344172026   24.273530562 XXXX 1      h*      H   0.410
H1112   18.195928862    6.040073494   23.630055028 XXXX 1      h*      H   0.410
end
O556    29.799631930    4.114682175    1.192646349 XXXX 1      o*      O  -0.820
H1111   30.399880030    4.228598180    1.950390935 XXXX 1      h*      H   0.410
H1112   28.935556690    3.891331192    1.660540724 XXXX 1      h*      H   0.410
end
O556    26.961295810    4.855854258    4.914069234 XXXX 1      o*      O  -0.820
H1111   26.441135219    4.451070743    5.613320861 XXXX 1      h*      H   0.410
H1112   27.670292823    4.144134153    4.922794387 XXXX 1      h*      H   0.410
end
O556     6.232521078   15.060141913   21.472051883 XXXX 1      o*      O  -0.820
H1111    6.541949066   14.251398123   21.969386302 XXXX 1      h*      H   0.410
H1112    5.732532702   14.686895354   20.763991894 XXXX 1      h*      H   0.410
end
O556     7.304939448   14.222047795   26.076737786 XXXX 1      o*      O  -0.820
H1111    7.133182186   14.326395282   27.032174845 XXXX 1      h*      H   0.410
H1112    7.892917017   14.987651159   25.988320065 XXXX 1      h*      H   0.410
end
O556     5.207503545    6.401406784   11.983053013 XXXX 1      o*      O  -0.820
H1111    4.367944420    6.043121905   12.403711888 XXXX 1      h*      H   0.410
H1112    5.372549624    5.703697043   11.313195872 XXXX 1      h*      H   0.410
end
O556    34.174138991   10.144708223   16.018030437 XXXX 1      o*      O  -0.820
H1111   35.019039461   10.509933062   16.243084033 XXXX 1      h*      H   0.410
H1112   33.874851014    9.889651031   16.906034840 XXXX 1      h*      H   0.410
end
O556    22.918147498   21.013263313    7.738956162 XXXX 1      o*      O  -0.820
H1111   22.639126829   20.215871605    8.208720515 XXXX 1      h*      H   0.410
H1112   23.287821062   20.627702330    6.938352235 XXXX 1      h*      H   0.410
end
O556     9.137292356   22.758086115   16.365333426 XXXX 1      o*      O  -0.820
H1111    8.543594995   23.545724174   16.499265548 XXXX 1      h*      H   0.410
H1112    8.510419655   22.189056963   15.849219003 XXXX 1      h*      H   0.410
end
O556    11.597849214   19.497790141   26.564522025 XXXX 1      o*      O  -0.820
H1111   11.762590593   19.650387528   27.513054704 XXXX 1      h*      H   0.410
H1112   11.365070440   20.439350410   26.294782701 XXXX 1      h*      H   0.410
end
O556    48.653177961   22.034588728    4.645869656 XXXX 1      o*      O  -0.820
H1111   48.384678277   22.059532592    3.689217284 XXXX 1      h*      H   0.410
H1112   48.854988358   21.040976233    4.665790205 XXXX 1      h*      H   0.410
end
O556    11.003764254   18.239951787    9.021806148 XXXX 1      o*      O  -0.820
H1111   10.045250405   18.010741846    9.072121661 XXXX 1      h*      H   0.410
H1112   11.314407247   18.229272148    9.904478336 XXXX 1      h*      H   0.410
end
O556     4.891659998    5.475973058    7.288846961 XXXX 1      o*      O  -0.820
H1111    4.378390342    5.058659456    7.972339872 XXXX 1      h*      H   0.410
H1112    5.192546812    4.610688133    6.909966656 XXXX 1      h*      H   0.410
end
O556    10.981560529   14.904235553   19.036313327 XXXX 1      o*      O  -0.820
H1111   11.233664137   15.835772149   18.863956273 XXXX 1      h*      H   0.410
H1112   11.677354238   14.629960441   18.425612064 XXXX 1      h*      H   0.410
end
O556     7.976684931    8.701639635   25.485135514 XXXX 1      o*      O  -0.820
H1111    7.897684422    9.455535244   26.082899718 XXXX 1      h*      H   0.410
H1112    7.425582843    9.073865458   24.749400846 XXXX 1      h*      H   0.410
end
O556     8.256310283    1.224434544   20.928156007 XXXX 1      o*      O  -0.820
H1111    7.782460746    2.110631250   21.033798210 XXXX 1      h*      H   0.410
H1112    8.000070204    0.692393219   21.687370492 XXXX 1      h*      H   0.410
end
O556    20.969554146    7.052094412   19.122665429 XXXX 1      o*      O  -0.820
H1111   21.782649152    6.503158124   18.955856762 XXXX 1      h*      H   0.410
H1112   20.498891752    6.359760630   19.654035446 XXXX 1      h*      H   0.410
end
O556    21.976140609    9.778472375   27.094010470 XXXX 1      o*      O  -0.820
H1111   21.479524409    9.834021734   27.960590170 XXXX 1      h*      H   0.410
H1112   21.607179895    8.903382710   26.805145636 XXXX 1      h*      H   0.410
end
O556    23.243687419    4.563632085   18.521766382 XXXX 1      o*      O  -0.820
H1111   23.609450605    3.989516198   17.789989055 XXXX 1      h*      H   0.410
H1112   23.636263425    3.980468803   19.189274608 XXXX 1      h*      H   0.410
end
O556    21.783548666    6.953720523   25.381456530 XXXX 1      o*      O  -0.820
H1111   21.208693857    6.316473211   24.868450615 XXXX 1      h*      H   0.410
H1112   21.660715286    7.869059776   24.935528020 XXXX 1      h*      H   0.410
end
O556    14.139257904    4.922325551   15.672908229 XXXX 1      o*      O  -0.820
H1111   14.589089317    5.616418612   15.215340462 XXXX 1      h*      H   0.410
H1112   14.867518524    4.667180883   16.208003952 XXXX 1      h*      H   0.410
end
O556     3.472122604   18.484168185    7.837366510 XXXX 1      o*      O  -0.820
H1111    2.949294870   17.712484520    8.070552301 XXXX 1      h*      H   0.410
H1112    2.780878196   19.235868993    7.846489222 XXXX 1      h*      H   0.410
end
O556    20.515631209   11.934260303   20.632380333 XXXX 1      o*      O  -0.820
H1111   21.383350463   12.339493545   20.254111809 XXXX 1      h*      H   0.410
H1112   21.032802898   11.118266127   20.999186813 XXXX 1      h*      H   0.410
end
O556    18.541502470   14.065209003   28.265961272 XXXX 1      o*      O  -0.820
H1111   19.226268119   14.788506194   28.277360733 XXXX 1      h*      H   0.410
H1112   18.959982708   13.457692802   27.618273965 XXXX 1      h*      H   0.410
end
O556    36.941442593   10.033240400    2.246448500 XXXX 1      o*      O  -0.820
H1111   36.277734952   10.457185983    2.843803901 XXXX 1      h*      H   0.410
H1112   37.696090784   10.693786919    2.326370137 XXXX 1      h*      H   0.410
end
O556    46.458171761   15.221165598   12.311238928 XXXX 1      o*      O  -0.820
H1111   46.840938350   15.504282218   11.424905663 XXXX 1      h*      H   0.410
H1112   47.294207004   14.893891999   12.650162285 XXXX 1      h*      H   0.410
end
O556     3.818488900   16.587852525    3.431096773 XXXX 1      o*      O  -0.820
H1111    4.555161527   15.950127223    3.464355618 XXXX 1      h*      H   0.410
H1112    3.296139286   16.048847351    2.764830041 XXXX 1      h*      H   0.410
end
O556     3.905964368    1.846893104   12.953442350 XXXX 1      o*      O  -0.820
H1111    3.763697214    2.817859113   12.762631233 XXXX 1      h*      H   0.410
H1112    3.822801955    1.487575631   11.999191509 XXXX 1      h*      H   0.410
end
O556    16.901314026    5.644440194   15.286688427 XXXX 1      o*      O  -0.820
H1111   17.544051710    5.963041440   15.911798084 XXXX 1      h*      H   0.410
H1112   17.403249629    5.884663073   14.480641127 XXXX 1      h*      H   0.410
end
O556    25.173671789   20.924188755    3.915276169 XXXX 1      o*      O  -0.820
H1111   25.736749313   20.499312221    3.255657395 XXXX 1      h*      H   0.410
H1112   25.670164756   21.675391283    4.340985684 XXXX 1      h*      H   0.410
end
O556    23.096087075    8.632889624    3.073741233 XXXX 1      o*      O  -0.820
H1111   22.738297941    7.752078189    2.779335135 XXXX 1      h*      H   0.410
H1112   23.991907894    8.391074576    3.286804757 XXXX 1      h*      H   0.410
end
O556    31.932984313   23.956389849   18.330257353 XXXX 1      o*      O  -0.820
H1111   31.389426702   23.238756242   18.042881324 XXXX 1      h*      H   0.410
H1112   31.907803090   24.593865997   17.591366178 XXXX 1      h*      H   0.410
end
O556    24.614811663   19.916146366   22.729066309 XXXX 1      o*      O  -0.820
H1111   25.146259455   19.298446221   23.359595165 XXXX 1      h*      H   0.410
H1112   23.764323169   19.825240093   23.114105522 XXXX 1      h*      H   0.410
end
O556    32.184773986   14.683826219   16.376204961 XXXX 1      o*      O  -0.820
H1111   31.504930359   15.130589309   15.821522266 XXXX 1      h*      H   0.410
H1112   32.709210943   14.134425436   15.776568846 XXXX 1      h*      H   0.410
end
O556    29.269548772   15.096262919   22.703985227 XXXX 1      o*      O  -0.820
H1111   30.257138489   15.153900873   22.853827158 XXXX 1      h*      H   0.410
H1112   29.183164565   14.117604090   22.445584603 XXXX 1      h*      H   0.410
end
O556    33.181651526    4.499325092    9.540956206 XXXX 1      o*      O  -0.820
H1111   32.925414576    4.449768358   10.473521945 XXXX 1      h*      H   0.410
H1112   33.506877226    3.575129653    9.339257889 XXXX 1      h*      H   0.410
end
O556    10.038728694   13.396878236    2.527350058 XXXX 1      o*      O  -0.820
H1111    9.931817017   12.448900211    2.344111123 XXXX 1      h*      H   0.410
H1112    9.178663725   13.683445658    2.185924493 XXXX 1      h*      H   0.410
end
O556    28.751183044    1.376534176   16.592236434 XXXX 1      o*      O  -0.820
H1111   27.913914941    1.918623702   16.708619779 XXXX 1      h*      H   0.410
H1112   28.552669970    1.128805902   15.644157250 XXXX 1      h*      H   0.410
end
O556    36.582290283   14.979457601   -2.215942084 XXXX 1      o*      O  -0.820
H1111   36.092336772   15.673899735   -2.686764722 XXXX 1      h*      H   0.410
H1112   36.073099876   14.999437009   -1.389690036 XXXX 1      h*      H   0.410
end
O556    30.770443548   20.177853442    6.606403451 XXXX 1      o*      O  -0.820
H1111   31.355541295   20.950196293    6.491151161 XXXX 1      h*      H   0.410
H1112   31.385119419   19.705539611    7.138902650 XXXX 1      h*      H   0.410
end
O556    40.293541746   11.033376355   21.397963192 XXXX 1      o*      O  -0.820
H1111   39.870510227   10.162564072   21.537580913 XXXX 1      h*      H   0.410
H1112   39.637012059   11.742657315   21.535331406 XXXX 1      h*      H   0.410
end
O556    37.496680617    8.090770286   24.877890476 XXXX 1      o*      O  -0.820
H1111   37.685076537    8.030299056   25.877193174 XXXX 1      h*      H   0.410
H1112   37.395398180    9.108219890   24.787465011 XXXX 1      h*      H   0.410
end
O556    29.603651249   18.179664357    9.506755573 XXXX 1      o*      O  -0.820
H1111   28.670010827   18.229677126    9.817526044 XXXX 1      h*      H   0.410
H1112   30.034079936   18.532269528   10.277593717 XXXX 1      h*      H   0.410
end
O556    12.456741073   12.284735714   -0.371246845 XXXX 1      o*      O  -0.820
H1111   13.248531238   12.810661688   -0.040818712 XXXX 1      h*      H   0.410
H1112   12.059679719   11.893327723    0.463417295 XXXX 1      h*      H   0.410
end
O556    18.860998299   15.174158946   14.349390572 XXXX 1      o*      O  -0.820
H1111   19.633997202   14.684332299   14.059694644 XXXX 1      h*      H   0.410
H1112   18.212280563   14.673487181   13.755008185 XXXX 1      h*      H   0.410
end
O556    21.327515625   11.099746247    9.775920492 XXXX 1      o*      O  -0.820
H1111   22.037058906   11.051515011    9.082052248 XXXX 1      h*      H   0.410
H1112   21.558208176   11.947122834   10.193687629 XXXX 1      h*      H   0.410
end
O556     7.291774417    8.406148493   21.863240099 XXXX 1      o*      O  -0.820
H1111    7.915250644    9.144349503   22.003278730 XXXX 1      h*      H   0.410
H1112    6.430639861    8.793513826   22.112273798 XXXX 1      h*      H   0.410
end
O556     9.924957268    8.554223149   29.021423985 XXXX 1      o*      O  -0.820
H1111   10.620425771    8.011237215   29.411453421 XXXX 1      h*      H   0.410
H1112    9.855326458    7.875792147   28.291119445 XXXX 1      h*      H   0.410
end
O556    31.202114439    5.207328913   23.135543087 XXXX 1      o*      O  -0.820
H1111   30.810813779    4.726408244   23.909447435 XXXX 1      h*      H   0.410
H1112   31.333499027    4.445540713   22.514185952 XXXX 1      h*      H   0.410
end
O556    35.958610629    2.145428514   24.067543878 XXXX 1      o*      O  -0.820
H1111   35.287632179    2.771041909   23.792747038 XXXX 1      h*      H   0.410
H1112   36.496631572    1.942079505   23.255026029 XXXX 1      h*      H   0.410
end
O556    43.803989492   21.074984850   16.781372211 XXXX 1      o*      O  -0.820
H1111   44.764928066   21.059353838   16.654061058 XXXX 1      h*      H   0.410
H1112   43.690963547   20.893059388   17.759998594 XXXX 1      h*      H   0.410
end
O556    29.976988488   22.676818096    4.163648559 XXXX 1      o*      O  -0.820
H1111   30.207241048   22.479540416    3.260743981 XXXX 1      h*      H   0.410
H1112   30.827449748   22.578806448    4.664162812 XXXX 1      h*      H   0.410
end
O556     8.120601551   10.769008543   16.136089681 XXXX 1      o*      O  -0.820
H1111    8.581859931   11.612993258   16.468832443 XXXX 1      h*      H   0.410
H1112    8.362023860   10.108480565   16.835362013 XXXX 1      h*      H   0.410
end
O556     9.133950520    6.324353749   25.734552483 XXXX 1      o*      O  -0.820
H1111    9.972598286    6.860625288   25.696599274 XXXX 1      h*      H   0.410
H1112    8.528870595    7.074413829   25.614395802 XXXX 1      h*      H   0.410
end
O556    21.123205487   10.863152304    6.252248266 XXXX 1      o*      O  -0.820
H1111   20.352426242   10.412684421    5.845231636 XXXX 1      h*      H   0.410
H1112   20.753264320   11.727159941    6.337433031 XXXX 1      h*      H   0.410
end
O556    12.232157962   20.374163551    3.488912164 XXXX 1      o*      O  -0.820
H1111   12.921713923   20.461181541    2.786485150 XXXX 1      h*      H   0.410
H1112   11.421937177   20.789022550    3.027521527 XXXX 1      h*      H   0.410
end
O556    13.389939709    2.865071260   -0.142040248 XXXX 1      o*      O  -0.820
H1111   13.608546920    3.830983607    0.013098962 XXXX 1      h*      H   0.410
H1112   14.163249040    2.437472139    0.231192748 XXXX 1      h*      H   0.410
end
O556    39.576121470    5.352499402    3.565546210 XXXX 1      o*      O  -0.820
H1111   40.326791736    5.282734710    4.138598492 XXXX 1      h*      H   0.410
H1112   39.826708152    6.114564456    2.976342626 XXXX 1      h*      H   0.410
end
O556    25.712075354   12.169824572    6.456387061 XXXX 1      o*      O  -0.820
H1111   25.440528174   11.767610723    5.608436567 XXXX 1      h*      H   0.410
H1112   26.607052135   12.446928463    6.229122462 XXXX 1      h*      H   0.410
end
O556    29.493150847   10.930748658    0.635972124 XXXX 1      o*      O  -0.820
H1111   29.974325711   10.107762697    0.306380392 XXXX 1      h*      H   0.410
H1112   28.756096321   10.566587675    1.206566716 XXXX 1      h*      H   0.410
end
O556    16.409599731    8.422371770    8.028703114 XXXX 1      o*      O  -0.820
H1111   16.275084446    9.327273824    7.629449769 XXXX 1      h*      H   0.410
H1112   16.054184487    8.657297896    8.924997026 XXXX 1      h*      H   0.410
end
O556     9.042677231   17.846217832   19.313232321 XXXX 1      o*      O  -0.820
H1111    9.166224885   18.755931727   19.019932479 XXXX 1      h*      H   0.410
H1112    8.575117245   18.039899264   20.135833208 XXXX 1      h*      H   0.410
end
O556     5.556069934   18.533413745   23.919199347 XXXX 1      o*      O  -0.820
H1111    5.395545263   17.958819332   24.724918764 XXXX 1      h*      H   0.410
H1112    4.896798680   19.249950406   24.023788914 XXXX 1      h*      H   0.410
end
O556    39.862586973   19.744656195   19.264073363 XXXX 1      o*      O  -0.820
H1111   39.748324007   18.852848811   19.730062704 XXXX 1      h*      H   0.410
H1112   39.438627891   20.323720991   19.943995663 XXXX 1      h*      H   0.410
end
O556    37.304453689   23.822950936    6.628171793 XXXX 1      o*      O  -0.820
H1111   37.627762243   24.132167676    5.782599862 XXXX 1      h*      H   0.410
H1112   38.146893761   23.798235299    7.082247304 XXXX 1      h*      H   0.410
end
O556    34.306617970    1.042519852   19.448913178 XXXX 1      o*      O  -0.820
H1111   33.358649772    1.142085325   19.107393631 XXXX 1      h*      H   0.410
H1112   34.782932144    0.505492917   18.737995753 XXXX 1      h*      H   0.410
end
O556    32.059886580    1.201439230   29.011125042 XXXX 1      o*      O  -0.820
H1111   32.231423258    1.888280430   29.730580011 XXXX 1      h*      H   0.410
H1112   31.926724604    1.803031141   28.267395977 XXXX 1      h*      H   0.410
end
O556    37.600704701   19.780911533   11.754021564 XXXX 1      o*      O  -0.820
H1111   37.634261208   20.653998620   12.266755098 XXXX 1      h*      H   0.410
H1112   36.690158980   19.441000412   11.972659670 XXXX 1      h*      H   0.410
end
O556    18.963434224    0.684130418   20.150504187 XXXX 1      o*      O  -0.820
H1111   19.611854258    0.430349645   19.445889685 XXXX 1      h*      H   0.410
H1112   18.325834737    1.131054512   19.557261604 XXXX 1      h*      H   0.410
end
O556    21.016114214    3.152499456   24.970982802 XXXX 1      o*      O  -0.820
H1111   20.705803330    2.270419161   24.744614179 XXXX 1      h*      H   0.410
H1112   21.820184148    3.189239300   24.387966093 XXXX 1      h*      H   0.410
end
O556    48.461179200    3.422862647   14.041088110 XXXX 1      o*      O  -0.820
H1111   47.581741756    3.762748132   14.279288599 XXXX 1      h*      H   0.410
H1112   48.489239146    2.675042412   14.667307565 XXXX 1      h*      H   0.410
end
O556     3.099520422    9.607702339   12.759683801 XXXX 1      o*      O  -0.820
H1111    3.078721592   10.634314684   12.843753199 XXXX 1      h*      H   0.410
H1112    3.255826222    9.524483184   11.768390124 XXXX 1      h*      H   0.410
end
O556    41.170916820   18.573385080   11.804353109 XXXX 1      o*      O  -0.820
H1111   40.679650734   18.523824733   12.637253287 XXXX 1      h*      H   0.410
H1112   41.970387386   18.160096221   12.075748021 XXXX 1      h*      H   0.410
end
O556    -2.914473759    5.670463202   24.762847560 XXXX 1      o*      O  -0.820
H1111   -3.406867669    4.923863356   24.323921856 XXXX 1      h*      H   0.410
H1112   -3.663038539    6.052500167   25.304193404 XXXX 1      h*      H   0.410
end
O556     1.617904307    6.176052570   25.767797077 XXXX 1      o*      O  -0.820
H1111    1.829397534    6.372735760   24.808646275 XXXX 1      h*      H   0.410
H1112    1.556671558    5.182799964   25.806557793 XXXX 1      h*      H   0.410
end
O556    18.516895847    9.952466492    5.524730849 XXXX 1      o*      O  -0.820
H1111   17.595749610    9.464454050    5.416616722 XXXX 1      h*      H   0.410
H1112   18.231962020   10.802395967    5.070412619 XXXX 1      h*      H   0.410
end
O556    35.888858521   10.081110446   13.245152973 XXXX 1      o*      O  -0.820
H1111   35.319379035    9.369619283   13.520908849 XXXX 1      h*      H   0.410
H1112   35.474838394   10.336652944   12.425541916 XXXX 1      h*      H   0.410
end
O556     5.256876225   13.082131178    6.645443641 XXXX 1      o*      O  -0.820
H1111    5.211946900   13.829247196    6.034849396 XXXX 1      h*      H   0.410
H1112    4.407243804   12.570535772    6.408668968 XXXX 1      h*      H   0.410
end
O556     9.623593164   20.186528982   20.631087143 XXXX 1      o*      O  -0.820
H1111   10.316550825   19.956834744   21.246261768 XXXX 1      h*      H   0.410
H1112   10.044445958   20.754246724   19.916578198 XXXX 1      h*      H   0.410
end
O556    15.676762141   14.448958363    6.119615635 XXXX 1      o*      O  -0.820
H1111   16.112457382   13.891891480    5.458004565 XXXX 1      h*      H   0.410
H1112   15.223065042   15.056649326    5.473348441 XXXX 1      h*      H   0.410
end
O556    45.397325409    3.010290062   11.412101832 XXXX 1      o*      O  -0.820
H1111   45.581883294    2.824764348   10.465325942 XXXX 1      h*      H   0.410
H1112   44.923953167    2.168975530   11.652212878 XXXX 1      h*      H   0.410
end
O556    40.777204859   17.933942243    3.212340682 XXXX 1      o*      O  -0.820
H1111   41.347500461   18.454531021    3.810783006 XXXX 1      h*      H   0.410
H1112   40.828453353   18.530721289    2.411750998 XXXX 1      h*      H   0.410
end
O556    37.393758448    6.684776743   22.482593215 XXXX 1      o*      O  -0.820
H1111   37.166123475    5.762667384   22.823095703 XXXX 1      h*      H   0.410
H1112   37.755647570    7.136557280   23.306114422 XXXX 1      h*      H   0.410
end
O556    34.883223238   10.276630797   24.223503151 XXXX 1      o*      O  -0.820
H1111   35.421193519    9.817882956   23.534559329 XXXX 1      h*      H   0.410
H1112   34.033480176   10.451387770   23.795494718 XXXX 1      h*      H   0.410
end
O556    27.944565114   17.549550477   22.573369234 XXXX 1      o*      O  -0.820
H1111   28.566056879   16.848249925   22.841677752 XXXX 1      h*      H   0.410
H1112   28.410251421   17.811824923   21.718364048 XXXX 1      h*      H   0.410
end
O556    27.631551355   20.921293505   22.183327467 XXXX 1      o*      O  -0.820
H1111   27.937625924   20.337748199   22.963147757 XXXX 1      h*      H   0.410
H1112   27.438467207   20.221478980   21.538326809 XXXX 1      h*      H   0.410
end
O556    21.554656519    9.303920739   20.653262874 XXXX 1      o*      O  -0.820
H1111   21.409301924    8.511887964   20.057382018 XXXX 1      h*      H   0.410
H1112   22.342215166    9.680342184   20.082778646 XXXX 1      h*      H   0.410
end
O556    25.226098999    9.416238750   25.534873260 XXXX 1      o*      O  -0.820
H1111   24.640903492    9.170816552   26.326430607 XXXX 1      h*      H   0.410
H1112   26.079164540    8.989323534   25.820633630 XXXX 1      h*      H   0.410
end
O556    43.036256981    8.058056901   10.376361397 XXXX 1      o*      O  -0.820
H1111   42.664786546    8.753124652    9.772471033 XXXX 1      h*      H   0.410
H1112   42.704767564    8.372045835   11.262731969 XXXX 1      h*      H   0.410
end
O556    33.135008903    4.981813071    6.552297360 XXXX 1      o*      O  -0.820
H1111   33.332638876    5.867327520    6.283760489 XXXX 1      h*      H   0.410
H1112   33.205673815    5.113865402    7.579630863 XXXX 1      h*      H   0.410
end
O556     6.554939096    7.590706738   15.788065109 XXXX 1      o*      O  -0.820
H1111    6.751901758    8.562873217   15.690607667 XXXX 1      h*      H   0.410
H1112    5.556826905    7.583886742   15.676833384 XXXX 1      h*      H   0.410
end
O556     9.496618060    4.832180249   17.761003334 XXXX 1      o*      O  -0.820
H1111    9.645971352    5.446811199   16.976278150 XXXX 1      h*      H   0.410
H1112    9.073139374    5.402547260   18.425244138 XXXX 1      h*      H   0.410
end
O556    23.963673551   21.453503604   18.983929310 XXXX 1      o*      O  -0.820
H1111   23.673626369   22.336157690   18.944807636 XXXX 1      h*      H   0.410
H1112   23.321282358   21.022917608   19.641639391 XXXX 1      h*      H   0.410
end
O556    24.225479447   24.650434001   24.255851559 XXXX 1      o*      O  -0.820
H1111   24.680109631   24.138942408   23.519702333 XXXX 1      h*      H   0.410
H1112   24.227855515   23.945629543   24.954381023 XXXX 1      h*      H   0.410
end
O556    38.327496205   11.206991154   18.355537162 XXXX 1      o*      O  -0.820
H1111   37.682283513   10.725367688   18.951407916 XXXX 1      h*      H   0.410
H1112   39.220787061   10.885397755   18.693812488 XXXX 1      h*      H   0.410
end
O556    24.175099276   13.950212859   18.348831511 XXXX 1      o*      O  -0.820
H1111   23.505520671   14.659396553   18.475252369 XXXX 1      h*      H   0.410
H1112   24.577541117   14.001540244   19.248230682 XXXX 1      h*      H   0.410
end
O556    21.322960259   17.920896437   23.306603669 XXXX 1      o*      O  -0.820
H1111   21.699444934   17.763999348   22.444687867 XXXX 1      h*      H   0.410
H1112   21.656984844   17.084613484   23.734009589 XXXX 1      h*      H   0.410
end
O556    33.990891223    4.852570271   17.629505303 XXXX 1      o*      O  -0.820
H1111   33.360889367    4.227040628   17.212071410 XXXX 1      h*      H   0.410
H1112   34.795715086    4.889828222   17.054932711 XXXX 1      h*      H   0.410
end
O556    36.384912962   18.851287206    7.411137871 XXXX 1      o*      O  -0.820
H1111   36.843885445   19.709129219    7.631414337 XXXX 1      h*      H   0.410
H1112   35.566044773   19.001271906    7.947827143 XXXX 1      h*      H   0.410
end
O556    29.607474195    2.789150413   12.049056830 XXXX 1      o*      O  -0.820
H1111   29.401857621    2.022478843   11.502812505 XXXX 1      h*      H   0.410
H1112   30.236420365    2.364573927   12.683783672 XXXX 1      h*      H   0.410
end
O556    12.046628620   21.824006806    6.351383025 XXXX 1      o*      O  -0.820
H1111   12.756733599   22.498044714    6.602315397 XXXX 1      h*      H   0.410
H1112   12.341107115   21.603787764    5.429198466 XXXX 1      h*      H   0.410
end
O556    47.037559261   14.373237949   17.436101462 XXXX 1      o*      O  -0.820
H1111   46.659178517   14.881460887   16.726607524 XXXX 1      h*      H   0.410
H1112   46.408475588   14.607735792   18.185515708 XXXX 1      h*      H   0.410
end
O556    46.779490321   11.318166075   23.987693433 XXXX 1      o*      O  -0.820
H1111   46.852975596   10.328770133   24.056993594 XXXX 1      h*      H   0.410
H1112   45.801498224   11.388175445   23.957758828 XXXX 1      h*      H   0.410
end
O556    10.246989529   20.784311702    1.684535614 XXXX 1      o*      O  -0.820
H1111   10.713656550   21.398781931    1.108232297 XXXX 1      h*      H   0.410
H1112    9.272911585   20.987818019    1.473384900 XXXX 1      h*      H   0.410
end
O556    18.090580990    1.318814679   11.046594325 XXXX 1      o*      O  -0.820
H1111   17.644788292    0.742050744   10.334626444 XXXX 1      h*      H   0.410
H1112   17.524016486    2.143960812   11.015861410 XXXX 1      h*      H   0.410
end
O556    45.985959237    6.360340365   10.922045674 XXXX 1      o*      O  -0.820
H1111   45.413014183    6.824343666   10.287246222 XXXX 1      h*      H   0.410
H1112   45.994158765    5.484814380   10.501225727 XXXX 1      h*      H   0.410
end
O556     8.513249107    8.884650169   18.253078977 XXXX 1      o*      O  -0.820
H1111    7.598015539    8.619271415   18.212296116 XXXX 1      h*      H   0.410
H1112    8.698537703    8.542052953   19.152560762 XXXX 1      h*      H   0.410
end
O556     6.212308548    7.678675546   29.545869546 XXXX 1      o*      O  -0.820
H1111    6.116357063    7.922024396   28.594943832 XXXX 1      h*      H   0.410
H1112    5.876162388    8.544429151   29.915695493 XXXX 1      h*      H   0.410
end
O556     4.250997345   12.319382803   23.398081783 XXXX 1      o*      O  -0.820
H1111    3.573498125   11.745054053   23.766921207 XXXX 1      h*      H   0.410
H1112    3.950765070   13.176498142   23.784449048 XXXX 1      h*      H   0.410
end
O556     5.184869981    9.242482476   24.467176527 XXXX 1      o*      O  -0.820
H1111    4.691690142    8.402370114   24.580303645 XXXX 1      h*      H   0.410
H1112    4.714256352    9.598649681   23.715743634 XXXX 1      h*      H   0.410
end
O556    19.206119037    8.231170596    1.939914269 XXXX 1      o*      O  -0.820
H1111   19.732315239    7.449870134    2.338501242 XXXX 1      h*      H   0.410
H1112   18.717501732    7.719246560    1.260888601 XXXX 1      h*      H   0.410
end
O556     7.815680830   13.947322760   14.785144314 XXXX 1      o*      O  -0.820
H1111    8.377521166   14.240600419   15.539509705 XXXX 1      h*      H   0.410
H1112    7.018915395   13.606364798   15.353463208 XXXX 1      h*      H   0.410
end
O556     4.187594870   15.238031205   23.392631297 XXXX 1      o*      O  -0.820
H1111    5.011924499   15.467712817   22.830653068 XXXX 1      h*      H   0.410
H1112    3.511685574   15.525189365   22.755976296 XXXX 1      h*      H   0.410
end
O556    36.662647851   11.451464428   16.089317801 XXXX 1      o*      O  -0.820
H1111   37.198858728   11.396433253   16.905692574 XXXX 1      h*      H   0.410
H1112   37.161537864   11.995264714   15.440912497 XXXX 1      h*      H   0.410
end
O556    21.946667917   12.077070882   24.769270803 XXXX 1      o*      O  -0.820
H1111   21.971448512   11.171797222   25.122358244 XXXX 1      h*      H   0.410
H1112   22.546762958   12.140545036   24.043875674 XXXX 1      h*      H   0.410
end
O556    25.949348281   12.567303762   26.864673498 XXXX 1      o*      O  -0.820
H1111   25.600157953   12.095081667   26.106895236 XXXX 1      h*      H   0.410
H1112   25.617720053   12.014285755   27.632575879 XXXX 1      h*      H   0.410
end
O556    36.681542683   13.353546854    6.180016515 XXXX 1      o*      O  -0.820
H1111   37.419373435   13.858663760    5.736690786 XXXX 1      h*      H   0.410
H1112   36.503740609   13.965532605    6.960872367 XXXX 1      h*      H   0.410
end
O556    37.615663090   20.808435710    8.683615934 XXXX 1      o*      O  -0.820
H1111   38.316598518   21.376422880    8.258234196 XXXX 1      h*      H   0.410
H1112   38.003416082   20.788305631    9.568528958 XXXX 1      h*      H   0.410
end
O556    46.713412581    3.426286057   16.794752523 XXXX 1      o*      O  -0.820
H1111   45.755088484    3.154727654   16.907655504 XXXX 1      h*      H   0.410
H1112   47.224967359    2.542133452   16.736127467 XXXX 1      h*      H   0.410
end
O556    32.020400307    2.307987861    3.628880718 XXXX 1      o*      O  -0.820
H1111   31.976512221    3.333085963    3.800962618 XXXX 1      h*      H   0.410
H1112   32.215086289    1.843324291    4.467298510 XXXX 1      h*      H   0.410
end
O556    38.161071609   14.322475324   19.206104000 XXXX 1      o*      O  -0.820
H1111   38.108076896   13.338378335   19.042616332 XXXX 1      h*      H   0.410
H1112   37.238015263   14.539700468   19.225245851 XXXX 1      h*      H   0.410
end
O556    35.323712627   15.662342172   22.601166373 XXXX 1      o*      O  -0.820
H1111   35.630227597   16.635098037   22.422723729 XXXX 1      h*      H   0.410
H1112   34.810482058   15.601684391   21.748909103 XXXX 1      h*      H   0.410
end
O556    22.475187921    1.106506930    1.393031379 XXXX 1      o*      O  -0.820
H1111   22.312578350    0.214483375    1.958282119 XXXX 1      h*      H   0.410
H1112   21.724624017    1.656402537    1.727226611 XXXX 1      h*      H   0.410
end
O556    36.307252007    3.175234295   19.337968323 XXXX 1      o*      O  -0.820
H1111   35.588222506    2.466814009   19.411789043 XXXX 1      h*      H   0.410
H1112   35.758767677    3.898752366   19.005160341 XXXX 1      h*      H   0.410
end
O556    37.118021914   21.229485253   20.092586318 XXXX 1      o*      O  -0.820
H1111   36.485535170   20.554242948   20.403348175 XXXX 1      h*      H   0.410
H1112   36.886758265   21.196484161   19.111237264 XXXX 1      h*      H   0.410
end
O556    38.353752638   19.549333821   29.925089202 XXXX 1      o*      O  -0.820
H1111   37.498997640   19.204037869   29.505548919 XXXX 1      h*      H   0.410
H1112   38.925694316   19.106934828   29.211403816 XXXX 1      h*      H   0.410
end
O556     7.753947619   22.384238510    3.013671735 XXXX 1      o*      O  -0.820
H1111    8.303257382   22.586346288    2.192219404 XXXX 1      h*      H   0.410
H1112    7.447146277   23.309091600    3.203932411 XXXX 1      h*      H   0.410
end
O556    18.875655881    5.219833653   20.509690988 XXXX 1      o*      O  -0.820
H1111   17.976389130    5.566600236   20.463221844 XXXX 1      h*      H   0.410
H1112   18.855635131    4.553648066   21.252338692 XXXX 1      h*      H   0.410
end
O556    33.195111450   18.507593682    2.272329654 XXXX 1      o*      O  -0.820
H1111   33.504162506   19.142441238    1.561409177 XXXX 1      h*      H   0.410
H1112   32.359053432   18.899329924    2.618986394 XXXX 1      h*      H   0.410
end
O556    28.702400343   10.559038481   18.505276103 XXXX 1      o*      O  -0.820
H1111   28.205910091   11.343672536   18.729614783 XXXX 1      h*      H   0.410
H1112   28.655456570   10.585668523   17.542831786 XXXX 1      h*      H   0.410
end
O556    25.355380908   11.854844945   24.029232640 XXXX 1      o*      O  -0.820
H1111   24.817200107   11.295585552   24.616357564 XXXX 1      h*      H   0.410
H1112   26.165527909   11.254827457   24.103398426 XXXX 1      h*      H   0.410
end
O556     1.906074873    0.457838599   21.883568374 XXXX 1      o*      O  -0.820
H1111    2.429547653    0.144908893   21.120937053 XXXX 1      h*      H   0.410
H1112    1.744210252    1.369954244   21.532034561 XXXX 1      h*      H   0.410
end
O556     7.788791228   -0.913781236   27.696267590 XXXX 1      o*      O  -0.820
H1111    8.320308996   -0.333226066   27.131416353 XXXX 1      h*      H   0.410
H1112    7.636157685   -1.687641778   27.085811886 XXXX 1      h*      H   0.410
end
O556     7.910157714   12.213176602   19.647015683 XXXX 1      o*      O  -0.820
H1111    8.027715515   11.321959619   20.032355643 XXXX 1      h*      H   0.410
H1112    8.748776774   12.631617087   19.741011369 XXXX 1      h*      H   0.410
end
O556     8.806490878   11.000792771   29.431612872 XXXX 1      o*      O  -0.820
H1111    8.573589827   11.060514104   28.491472962 XXXX 1      h*      H   0.410
H1112    9.321973225   10.130534229   29.325290290 XXXX 1      h*      H   0.410
end
O556     0.502228248   11.933039163    5.587417231 XXXX 1      o*      O  -0.820
H1111   -0.427925832   12.240182884    5.629304618 XXXX 1      h*      H   0.410
H1112    0.385527607   10.972815667    5.876641815 XXXX 1      h*      H   0.410
end
O556    30.785098799   13.938518416   10.287797837 XXXX 1      o*      O  -0.820
H1111   30.212705303   14.420057955   10.874239247 XXXX 1      h*      H   0.410
H1112   30.442969315   14.199293824    9.421403206 XXXX 1      h*      H   0.410
end
O556    12.821773442    9.294338756   20.125261943 XXXX 1      o*      O  -0.820
H1111   12.629421520    8.466230997   19.562204684 XXXX 1      h*      H   0.410
H1112   12.082225332    9.152637649   20.751936264 XXXX 1      h*      H   0.410
end
O556    13.805636698   10.131898005   26.728977215 XXXX 1      o*      O  -0.820
H1111   13.791438701   10.371423290   25.740657014 XXXX 1      h*      H   0.410
H1112   13.116713367   10.770560728   26.942563781 XXXX 1      h*      H   0.410
end
O556    30.903034257    5.077452925   12.751302378 XXXX 1      o*      O  -0.820
H1111   30.258776674    4.390426333   12.403829971 XXXX 1      h*      H   0.410
H1112   30.490724943    5.934561637   12.465987514 XXXX 1      h*      H   0.410
end
O556    26.439343768   12.612896750   14.721076619 XXXX 1      o*      O  -0.820
H1111   27.144251404   13.240766405   14.825610195 XXXX 1      h*      H   0.410
H1112   26.487749692   12.372046865   13.782552239 XXXX 1      h*      H   0.410
end
O556    26.320057854   14.672202140   24.753748291 XXXX 1      o*      O  -0.820
H1111   27.228231586   14.967675766   25.115124546 XXXX 1      h*      H   0.410
H1112   26.350232345   13.737739202   24.858733234 XXXX 1      h*      H   0.410
end
O556    30.023875860    4.980842866    8.904872852 XXXX 1      o*      O  -0.820
H1111   29.450242758    5.429657559    9.587332250 XXXX 1      h*      H   0.410
H1112   30.834986783    4.826040755    9.358038203 XXXX 1      h*      H   0.410
end
O556    40.179222111   16.733426090   17.229826951 XXXX 1      o*      O  -0.820
H1111   40.007495862   15.815854328   17.056122322 XXXX 1      h*      H   0.410
H1112   41.157794741   16.697604111   17.423704688 XXXX 1      h*      H   0.410
end
O556    24.215011418    7.563292387   18.544512280 XXXX 1      o*      O  -0.820
H1111   23.972116693    6.632330584   18.325323726 XXXX 1      h*      H   0.410
H1112   24.078846063    8.076292489   17.714512048 XXXX 1      h*      H   0.410
end
O556    27.776936515    4.997509903   26.878835641 XXXX 1      o*      O  -0.820
H1111   26.890707305    5.218193399   26.505037718 XXXX 1      h*      H   0.410
H1112   27.802729365    4.038107982   26.774137286 XXXX 1      h*      H   0.410
end
O556    42.733242017   20.082421368   19.179086740 XXXX 1      o*      O  -0.820
H1111   43.150361448   19.255471715   18.907285936 XXXX 1      h*      H   0.410
H1112   41.891739519   20.144127988   18.726548486 XXXX 1      h*      H   0.410
end
O556    42.423115446   20.033032812   25.062166099 XXXX 1      o*      O  -0.820
H1111   41.474900985   19.949844504   25.146788647 XXXX 1      h*      H   0.410
H1112   42.667118614   20.013603604   24.109119636 XXXX 1      h*      H   0.410
end
O556    15.634728538   14.230624890   18.378661415 XXXX 1      o*      O  -0.820
H1111   16.007503259   13.527041343   17.751223414 XXXX 1      h*      H   0.410
H1112   16.230367535   14.030331381   19.159145254 XXXX 1      h*      H   0.410
end
O556    15.924593838   11.971746204   22.669393443 XXXX 1      o*      O  -0.820
H1111   15.502000269   12.194142532   23.485483186 XXXX 1      h*      H   0.410
H1112   15.975272986   11.005993753   22.678678259 XXXX 1      h*      H   0.410
end
O556     8.747616565   19.879665420   10.891396446 XXXX 1      o*      O  -0.820
H1111    8.066497716   20.568318006   11.155009587 XXXX 1      h*      H   0.410
H1112    8.604206783   20.034610358    9.844405337 XXXX 1      h*      H   0.410
end
O556    43.290094241    5.481369261   11.844563938 XXXX 1      o*      O  -0.820
H1111   43.226945077    6.358707095   11.553176657 XXXX 1      h*      H   0.410
H1112   44.267247286    5.391958666   11.810913775 XXXX 1      h*      H   0.410
end
O556    48.226822600   11.607476506   17.912823937 XXXX 1      o*      O  -0.820
H1111   47.962855634   12.470817798   17.608217684 XXXX 1      h*      H   0.410
H1112   47.323839444   11.234681481   18.152530259 XXXX 1      h*      H   0.410
end
O556     9.010946896    4.671884883    4.684697323 XXXX 1      o*      O  -0.820
H1111    9.112492057    5.342475663    3.992469567 XXXX 1      h*      H   0.410
H1112    9.682375624    3.956861741    4.429070477 XXXX 1      h*      H   0.410
end
O556    31.630848910    1.534873143   13.256927195 XXXX 1      o*      O  -0.820
H1111   32.209092061    0.942018813   12.754580037 XXXX 1      h*      H   0.410
H1112   32.202484734    1.689863543   14.013287840 XXXX 1      h*      H   0.410
end
O556    35.656054513   11.328254188    4.533846257 XXXX 1      o*      O  -0.820
H1111   34.952590180   11.054886149    5.191845021 XXXX 1      h*      H   0.410
H1112   35.947326533   12.130634333    5.015303259 XXXX 1      h*      H   0.410
end
O556    41.766393662   23.021020266   18.985964771 XXXX 1      o*      O  -0.820
H1111   40.890785551   22.528454335   18.813039709 XXXX 1      h*      H   0.410
H1112   42.344235944   22.339104393   19.464034462 XXXX 1      h*      H   0.410
end
O556    34.821665658   20.630954376   25.904786230 XXXX 1      o*      O  -0.820
H1111   34.669501796   21.136913163   26.720756534 XXXX 1      h*      H   0.410
H1112   35.676738918   21.062007204   25.665076746 XXXX 1      h*      H   0.410
end
O556    47.873083706   19.245132496   13.918318826 XXXX 1      o*      O  -0.820
H1111   47.973463581   18.640099564   13.154418514 XXXX 1      h*      H   0.410
H1112   48.672288419   19.804000550   13.784644400 XXXX 1      h*      H   0.410
end
O556    30.728170050   13.730668338   13.867087116 XXXX 1      o*      O  -0.820
H1111   30.062304430   13.607667730   13.201785093 XXXX 1      h*      H   0.410
H1112   31.079438995   14.599997211   13.382346286 XXXX 1      h*      H   0.410
end
O556    39.345821880    7.167974181    9.092643354 XXXX 1      o*      O  -0.820
H1111   40.085539792    7.783374710    9.325911931 XXXX 1      h*      H   0.410
H1112   39.467016245    6.455633854    9.741007259 XXXX 1      h*      H   0.410
end
O556     0.796736753   11.367421651   10.795706561 XXXX 1      o*      O  -0.820
H1111    0.799876108   10.456797058   11.033407736 XXXX 1      h*      H   0.410
H1112    0.586593646   11.767527549   11.661107810 XXXX 1      h*      H   0.410
end
O556    27.681010588   19.154257432   -2.176252740 XXXX 1      o*      O  -0.820
H1111   26.766194498   19.296044472   -1.909310090 XXXX 1      h*      H   0.410
H1112   27.617158178   18.196122499   -2.234126915 XXXX 1      h*      H   0.410
end
O556    36.462500053    8.517091383    6.551352262 XXXX 1      o*      O  -0.820
H1111   36.790848502    7.909251164    5.840570279 XXXX 1      h*      H   0.410
H1112   37.240249351    8.491657241    7.142063137 XXXX 1      h*      H   0.410
end
O556    20.997921993    2.891918339    2.954919261 XXXX 1      o*      O  -0.820
H1111   21.253299992    3.730781584    3.389585035 XXXX 1      h*      H   0.410
H1112   20.374895015    3.269620351    2.353005889 XXXX 1      h*      H   0.410
end
O556    17.448723801   19.012257506   16.313451201 XXXX 1      o*      O  -0.820
H1111   17.530965408   19.429696550   17.176080177 XXXX 1      h*      H   0.410
H1112   17.100066430   18.121243843   16.554077652 XXXX 1      h*      H   0.410
end
O556    18.426782456   18.855261953   20.662488595 XXXX 1      o*      O  -0.820
H1111   18.943588705   18.639102291   19.830255106 XXXX 1      h*      H   0.410
H1112   17.529980428   18.513759234   20.374731073 XXXX 1      h*      H   0.410
end
O556    14.765004202   14.621375950   25.260240995 XXXX 1      o*      O  -0.820
H1111   14.662074663   15.302378964   25.981426068 XXXX 1      h*      H   0.410
H1112   15.226825156   13.970259241   25.885020503 XXXX 1      h*      H   0.410
end
O556    17.845845949    3.771888382    2.190574508 XXXX 1      o*      O  -0.820
H1111   18.677320801    4.294190090    2.516269498 XXXX 1      h*      H   0.410
H1112   17.192790226    4.315345876    2.708331456 XXXX 1      h*      H   0.410
end
O556    34.247227520   10.262684034    6.955096641 XXXX 1      o*      O  -0.820
H1111   34.961133716    9.661550496    6.527584601 XXXX 1      h*      H   0.410
H1112   33.711421831    9.560829373    7.343605511 XXXX 1      h*      H   0.410
end
O556    18.889558116   12.540821839   23.199924915 XXXX 1      o*      O  -0.820
H1111   18.052376789   12.244691018   22.839470642 XXXX 1      h*      H   0.410
H1112   19.498577143   12.249887689   22.463752807 XXXX 1      h*      H   0.410
end
O556    15.923778057    8.337639903   24.415306485 XXXX 1      o*      O  -0.820
H1111   15.636581444    8.737444419   23.541716842 XXXX 1      h*      H   0.410
H1112   16.775021971    8.853120986   24.607907207 XXXX 1      h*      H   0.410
end
O556    23.602283764    5.729015470    7.137928491 XXXX 1      o*      O  -0.820
H1111   23.345939801    6.274056602    7.885067496 XXXX 1      h*      H   0.410
H1112   23.565480852    4.925104795    7.573514810 XXXX 1      h*      H   0.410
end
O556    10.434321025   17.322499361    4.162479684 XXXX 1      o*      O  -0.820
H1111    9.641140535   17.894314005    4.447926957 XXXX 1      h*      H   0.410
H1112   11.108664475   17.829592154    4.565151368 XXXX 1      h*      H   0.410
end
O556    32.973177122   20.642153643    9.435400168 XXXX 1      o*      O  -0.820
H1111   33.133068839   20.053118324    8.622811584 XXXX 1      h*      H   0.410
H1112   33.505753398   21.447334141    9.163074414 XXXX 1      h*      H   0.410
end
O556     3.038583687    6.497949618    1.073585564 XXXX 1      o*      O  -0.820
H1111    2.525425713    7.340021584    1.018352810 XXXX 1      h*      H   0.410
H1112    2.427257525    5.794466747    0.911863534 XXXX 1      h*      H   0.410
end
O556    40.180602225   18.605068742   14.320548636 XXXX 1      o*      O  -0.820
H1111   39.601091253   19.208676485   14.833893206 XXXX 1      h*      H   0.410
H1112   41.075014276   18.753038752   14.669776068 XXXX 1      h*      H   0.410
end
O556     8.365249648   11.799460132   12.497940269 XXXX 1      o*      O  -0.820
H1111    7.983840911   12.738978025   12.621724942 XXXX 1      h*      H   0.410
H1112    7.684415409   11.303311182   11.981427376 XXXX 1      h*      H   0.410
end
O556     4.937928501    4.255839671   10.368941305 XXXX 1      o*      O  -0.820
H1111    4.207994636    4.407194167    9.723515918 XXXX 1      h*      H   0.410
H1112    5.030452148    3.282775710   10.238400458 XXXX 1      h*      H   0.410
end
O556    15.263837909   22.325272253   19.675374350 XXXX 1      o*      O  -0.820
H1111   14.757752412   21.955574140   20.389009181 XXXX 1      h*      H   0.410
H1112   14.425484595   22.603511943   19.224502783 XXXX 1      h*      H   0.410
end
O556    15.919775623   19.755343158   27.042024543 XXXX 1      o*      O  -0.820
H1111   16.555438629   19.895113010   27.836233875 XXXX 1      h*      H   0.410
H1112   16.318876845   20.393104763   26.343341537 XXXX 1      h*      H   0.410
end
O556    18.795173352   11.634312284   14.937168045 XXXX 1      o*      O  -0.820
H1111   18.290650670   10.774145976   14.860809480 XXXX 1      h*      H   0.410
H1112   19.409027544   11.454089629   14.221019097 XXXX 1      h*      H   0.410
end
O556    18.465432060    9.642434019   24.732135672 XXXX 1      o*      O  -0.820
H1111   18.998746010    9.629157478   23.853715882 XXXX 1      h*      H   0.410
H1112   18.829297860   10.487364983   25.062147402 XXXX 1      h*      H   0.410
end
O556    33.617265016   10.665524783    2.435811448 XXXX 1      o*      O  -0.820
H1111   33.962478266   11.093446931    3.275267568 XXXX 1      h*      H   0.410
H1112   32.735447731   10.431911990    2.834875301 XXXX 1      h*      H   0.410
end
O556    40.500971841   10.173325263    7.138162648 XXXX 1      o*      O  -0.820
H1111   41.175621666   10.855822913    6.884869545 XXXX 1      h*      H   0.410
H1112   39.707577963   10.389640151    6.630012312 XXXX 1      h*      H   0.410
end
O556    36.190925639    5.163985428   11.842658598 XXXX 1      o*      O  -0.820
H1111   36.095009996    5.641524857   11.040354233 XXXX 1      h*      H   0.410
H1112   36.417812733    5.869295836   12.452611633 XXXX 1      h*      H   0.410
end
O556    11.105266791   22.997819317    9.484880763 XXXX 1      o*      O  -0.820
H1111   11.623672908   22.143586214    9.437591911 XXXX 1      h*      H   0.410
H1112   11.775311707   23.690692668    9.342553416 XXXX 1      h*      H   0.410
end
O556     5.347890425    0.411882287    0.873024813 XXXX 1      o*      O  -0.820
H1111    6.256944287    0.010407798    0.999101727 XXXX 1      h*      H   0.410
H1112    5.534425530    1.027173690    0.137142867 XXXX 1      h*      H   0.410
end
O556    35.616153108   10.233710807   10.251375452 XXXX 1      o*      O  -0.820
H1111   35.589826108   11.095147905    9.849613978 XXXX 1      h*      H   0.410
H1112   36.550240236   10.066196306    9.936178342 XXXX 1      h*      H   0.410
end
O556    38.520378351   25.189918223    4.331894600 XXXX 1      o*      O  -0.820
H1111   38.861035308   24.766475454    3.525727157 XXXX 1      h*      H   0.410
H1112   38.693734763   26.106583873    3.991993353 XXXX 1      h*      H   0.410
end
O556    18.437233244    6.972467694   17.687858060 XXXX 1      o*      O  -0.820
H1111   18.973217007    7.665915116   18.129197780 XXXX 1      h*      H   0.410
H1112   17.546428845    7.290583890   17.718883862 XXXX 1      h*      H   0.410
end
O556     4.234288999   -1.194159291   11.320078310 XXXX 1      o*      O  -0.820
H1111    3.517950796   -0.960328075   11.919117224 XXXX 1      h*      H   0.410
H1112    4.316627438   -2.111718880   11.558381934 XXXX 1      h*      H   0.410
end
O556     4.792468850    9.734161620   -0.315023141 XXXX 1      o*      O  -0.820
H1111    4.514235090   10.487988268   -0.908194357 XXXX 1      h*      H   0.410
H1112    4.783051655   10.081795802    0.664734808 XXXX 1      h*      H   0.410
end
O556     2.623209907   11.740659425   19.104734514 XXXX 1      o*      O  -0.820
H1111    3.234341691   11.135278673   18.691451907 XXXX 1      h*      H   0.410
H1112    1.780204777   11.500124720   18.702157097 XXXX 1      h*      H   0.410
end
O556     9.510754325    7.132778835   15.802165074 XXXX 1      o*      O  -0.820
H1111    9.685715152    8.031327740   15.407874098 XXXX 1      h*      H   0.410
H1112    8.551225082    7.217678237   16.020691053 XXXX 1      h*      H   0.410
end
O556    11.382754069    4.555534905   21.037547347 XXXX 1      o*      O  -0.820
H1111   10.942148926    3.747616588   20.617767752 XXXX 1      h*      H   0.410
H1112   11.484011004    4.152506995   21.946161979 XXXX 1      h*      H   0.410
end
O556    22.186233285   22.892074508   12.872320328 XXXX 1      o*      O  -0.820
H1111   22.022214194   23.353927124   13.727096707 XXXX 1      h*      H   0.410
H1112   21.361091592   22.331766757   12.851047671 XXXX 1      h*      H   0.410
end
O556    18.149120600    3.102111949    5.374349932 XXXX 1      o*      O  -0.820
H1111   18.051592690    3.236188238    6.304959138 XXXX 1      h*      H   0.410
H1112   18.920517583    3.667849747    5.157671405 XXXX 1      h*      H   0.410
end
O556    27.165786109    8.681295858   11.244506961 XXXX 1      o*      O  -0.820
H1111   27.918222041    9.023628915   11.718481505 XXXX 1      h*      H   0.410
H1112   27.220833415    9.126862575   10.396309747 XXXX 1      h*      H   0.410
end
O556    33.048491486    7.292875010    4.493219114 XXXX 1      o*      O  -0.820
H1111   32.849169687    8.134321948    4.794298721 XXXX 1      h*      H   0.410
H1112   33.181800675    7.451562978    3.576266292 XXXX 1      h*      H   0.410
end
O556    36.313192067   16.570734633   19.139137346 XXXX 1      o*      O  -0.820
H1111   36.760825128   16.644783719   18.234814652 XXXX 1      h*      H   0.410
H1112   35.451925976   16.240564704   18.856684330 XXXX 1      h*      H   0.410
end
O556    38.684200251   13.075649145   26.133188439 XXXX 1      o*      O  -0.820
H1111   37.723252072   12.881033545   26.183560463 XXXX 1      h*      H   0.410
H1112   38.472400337   13.997951970   25.783594849 XXXX 1      h*      H   0.410
end
O556    46.967234907    2.816281689    4.850814706 XXXX 1      o*      O  -0.820
H1111   47.086548102    3.191692635    3.941947950 XXXX 1      h*      H   0.410
H1112   47.832074320    2.717193760    5.232088950 XXXX 1      h*      H   0.410
end
O556    36.926695335    6.188988373    3.934479229 XXXX 1      o*      O  -0.820
H1111   37.212345866    6.121104864    3.016167677 XXXX 1      h*      H   0.410
H1112   37.742621958    6.064796774    4.458341618 XXXX 1      h*      H   0.410
end
O556    11.200724791    6.851919343    7.155688161 XXXX 1      o*      O  -0.820
H1111   10.265720020    7.060666511    6.894386822 XXXX 1      h*      H   0.410
H1112   11.619652673    7.300146745    6.383911681 XXXX 1      h*      H   0.410
end
O556     7.862144211    2.267867522    0.923575826 XXXX 1      o*      O  -0.820
H1111    7.817416802    3.212985065    1.099469523 XXXX 1      h*      H   0.410
H1112    8.073202030    2.153257887   -0.038219882 XXXX 1      h*      H   0.410
end
O556    34.747920664    7.709309427   18.678362041 XXXX 1      o*      O  -0.820
H1111   34.226305741    7.571674120   17.878107005 XXXX 1      h*      H   0.410
H1112   34.751941088    8.673063120   18.800802830 XXXX 1      h*      H   0.410
end
O556    31.356527099    8.522884040   24.222646172 XXXX 1      o*      O  -0.820
H1111   31.860660518    8.223177287   23.364814898 XXXX 1      h*      H   0.410
H1112   31.580304670    7.812060052   24.854748606 XXXX 1      h*      H   0.410
end
O556     6.196626934    6.431428314    4.017680065 XXXX 1      o*      O  -0.820
H1111    6.106462555    6.805763566    3.158235140 XXXX 1      h*      H   0.410
H1112    7.149647684    6.533786005    4.230898437 XXXX 1      h*      H   0.410
end
O556    20.234387208   19.928872738    5.922160773 XXXX 1      o*      O  -0.820
H1111   20.660637828   19.067084707    5.868629644 XXXX 1      h*      H   0.410
H1112   20.813224525   20.305815643    6.609100669 XXXX 1      h*      H   0.410
end
O556    21.924702561    3.495798935    7.558792709 XXXX 1      o*      O  -0.820
H1111   22.155717084    2.777097640    8.210329152 XXXX 1      h*      H   0.410
H1112   21.558432025    4.205535302    8.087744991 XXXX 1      h*      H   0.410
end
O556    12.388738158    7.402484065    2.777683728 XXXX 1      o*      O  -0.820
H1111   13.312394150    7.689743759    2.536274193 XXXX 1      h*      H   0.410
H1112   12.133411114    8.160664526    3.330797095 XXXX 1      h*      H   0.410
end
O556    18.743017448   15.967144736   18.484976597 XXXX 1      o*      O  -0.820
H1111   18.501921648   15.039114976   18.774170661 XXXX 1      h*      H   0.410
H1112   18.402167878   15.847772989   17.573718072 XXXX 1      h*      H   0.410
end
O556    19.260379929   15.042613758   25.222778645 XXXX 1      o*      O  -0.820
H1111   19.392549117   16.014776880   25.323894983 XXXX 1      h*      H   0.410
H1112   18.600265512   15.023675788   24.482903665 XXXX 1      h*      H   0.410
end
O556    22.317027969   -0.444540992    3.731437038 XXXX 1      o*      O  -0.820
H1111   22.011683931    0.200099351    4.384371516 XXXX 1      h*      H   0.410
H1112   23.339490233   -0.532477820    3.867431963 XXXX 1      h*      H   0.410
end
O556    37.022878343    7.411035028   12.833999113 XXXX 1      o*      O  -0.820
H1111   37.461996964    7.999397742   12.254889531 XXXX 1      h*      H   0.410
H1112   36.842182348    7.944865827   13.656675248 XXXX 1      h*      H   0.410
end
O556    35.865717371    1.660531426    3.009750868 XXXX 1      o*      O  -0.820
H1111   35.713102798    2.262965269    3.719136136 XXXX 1      h*      H   0.410
H1112   36.420943163    2.233601324    2.502638259 XXXX 1      h*      H   0.410
end
O556    19.212027582    9.062521038   22.119362101 XXXX 1      o*      O  -0.820
H1111   19.849042561    9.166964532   21.350250041 XXXX 1      h*      H   0.410
H1112   19.344169404    8.083332674   22.319171217 XXXX 1      h*      H   0.410
end
O556    24.061951944    7.110532107   27.349709548 XXXX 1      o*      O  -0.820
H1111   23.630421266    7.096712084   26.490168311 XXXX 1      h*      H   0.410
H1112   24.232248195    6.130370785   27.310953007 XXXX 1      h*      H   0.410
end
O556    31.079982102    7.175837540   15.556485979 XXXX 1      o*      O  -0.820
H1111   31.120212202    7.464466549   16.509192281 XXXX 1      h*      H   0.410
H1112   30.170510142    6.740381440   15.499150120 XXXX 1      h*      H   0.410
end
O556    13.549250353    8.930087032    5.136693852 XXXX 1      o*      O  -0.820
H1111   14.387453958    9.480296817    5.126526696 XXXX 1      h*      H   0.410
H1112   13.539172044    8.695542772    6.122930741 XXXX 1      h*      H   0.410
end
O556    32.960125517    4.654672605   20.338233844 XXXX 1      o*      O  -0.820
H1111   33.489384454    4.861439484   19.546050754 XXXX 1      h*      H   0.410
H1112   32.245410364    4.091557975   19.951322455 XXXX 1      h*      H   0.410
end
O556    30.628748278    2.875126575   21.617737855 XXXX 1      o*      O  -0.820
H1111   29.929895196    2.700793964   20.902303910 XXXX 1      h*      H   0.410
H1112   30.668441708    1.919787544   21.933132568 XXXX 1      h*      H   0.410
end
O556     3.645978442   12.973153899   12.560935869 XXXX 1      o*      O  -0.820
H1111    4.241305179   13.186144210   11.803284369 XXXX 1      h*      H   0.410
H1112    4.399743855   12.595111405   13.150254364 XXXX 1      h*      H   0.410
end
O556    44.381140749    1.457832464    5.481800929 XXXX 1      o*      O  -0.820
H1111   45.290093314    1.839383492    5.225246739 XXXX 1      h*      H   0.410
H1112   44.138496447    2.020835937    6.278315124 XXXX 1      h*      H   0.410
end
O556    21.056417225    1.536754616    5.374951696 XXXX 1      o*      O  -0.820
H1111   21.088402390    2.011264602    4.497289002 XXXX 1      h*      H   0.410
H1112   21.514440504    2.211545589    5.872825034 XXXX 1      h*      H   0.410
end
O556    30.768580594   13.874473495    6.336862699 XXXX 1      o*      O  -0.820
H1111   29.866205073   13.934023749    5.835644745 XXXX 1      h*      H   0.410
H1112   30.532264168   14.420833257    7.149654369 XXXX 1      h*      H   0.410
end
O556    10.658980199    2.478023565   19.177787774 XXXX 1      o*      O  -0.820
H1111    9.726406096    2.147044433   19.068307489 XXXX 1      h*      H   0.410
H1112   10.671328892    2.919666004   18.233970378 XXXX 1      h*      H   0.410
end
O556     4.513852160   11.645188057   15.308100450 XXXX 1      o*      O  -0.820
H1111    4.902864325   10.868767728   14.913140744 XXXX 1      h*      H   0.410
H1112    5.044484664   11.699912131   16.101338044 XXXX 1      h*      H   0.410
end
O556     6.991783387   12.958495432   23.496189545 XXXX 1      o*      O  -0.820
H1111    6.981649208   13.503352498   24.324817100 XXXX 1      h*      H   0.410
H1112    6.080867551   12.675901831   23.477153924 XXXX 1      h*      H   0.410
end
O556    40.796166214   13.938936959    7.315312067 XXXX 1      o*      O  -0.820
H1111   40.628078369   14.656042624    6.674269322 XXXX 1      h*      H   0.410
H1112   41.722001102   14.167700849    7.432996679 XXXX 1      h*      H   0.410
end
O556    20.791461431   12.336643464   16.951029555 XXXX 1      o*      O  -0.820
H1111   20.144179547   12.359528447   16.158306667 XXXX 1      h*      H   0.410
H1112   20.457570897   11.616311976   17.479383463 XXXX 1      h*      H   0.410
end
O556    22.166044484   15.218181987   24.396433032 XXXX 1      o*      O  -0.820
H1111   21.352878599   14.755984401   24.525252562 XXXX 1      h*      H   0.410
H1112   22.829199861   14.529059857   24.506417436 XXXX 1      h*      H   0.410
end
O556    13.020338566   10.529009509   16.904478535 XXXX 1      o*      O  -0.820
H1111   12.688843082   10.976313462   17.740429070 XXXX 1      h*      H   0.410
H1112   12.563578133    9.657697201   16.861378504 XXXX 1      h*      H   0.410
end
O556    14.223124440    6.495840310   23.655443747 XXXX 1      o*      O  -0.820
H1111   14.559664498    7.344834573   24.006843683 XXXX 1      h*      H   0.410
H1112   13.404920500    6.628312301   23.140116632 XXXX 1      h*      H   0.410
end
O556    36.397563056   21.178642803    4.707566464 XXXX 1      o*      O  -0.820
H1111   37.121181662   20.909685641    4.142353387 XXXX 1      h*      H   0.410
H1112   36.781083470   22.072181634    4.840268804 XXXX 1      h*      H   0.410
end
O556    10.722124322   20.379821875   17.484647412 XXXX 1      o*      O  -0.820
H1111   10.370434296   21.232745105   17.173509317 XXXX 1      h*      H   0.410
H1112   11.659741862   20.486806930   17.683962484 XXXX 1      h*      H   0.410
end
O556    13.482665103   11.564465296    9.343230169 XXXX 1      o*      O  -0.820
H1111   12.622931342   12.048688210    9.545793439 XXXX 1      h*      H   0.410
H1112   14.134147843   12.008404855    9.898470132 XXXX 1      h*      H   0.410
end
O556    31.105185571    8.006977390   10.046499671 XXXX 1      o*      O  -0.820
H1111   30.194255210    7.730420587   10.171548617 XXXX 1      h*      H   0.410
H1112   31.292999463    8.312000222   10.977757069 XXXX 1      h*      H   0.410
end
O556    30.651293283    3.281586053   24.986414635 XXXX 1      o*      O  -0.820
H1111   30.324858339    2.972089678   25.860230698 XXXX 1      h*      H   0.410
H1112   31.574994382    3.286148337   25.243873546 XXXX 1      h*      H   0.410
end
O556    33.703210870    7.223580066   27.648833525 XXXX 1      o*      O  -0.820
H1111   34.286085788    6.983794280   28.391908686 XXXX 1      h*      H   0.410
H1112   34.034415382    8.155562355   27.563092095 XXXX 1      h*      H   0.410
end
O556    17.418385098   21.784424973    5.525886815 XXXX 1      o*      O  -0.820
H1111   18.199510705   21.335762183    5.127574632 XXXX 1      h*      H   0.410
H1112   17.174650616   22.353909134    4.735094484 XXXX 1      h*      H   0.410
end
O556    26.693314927    1.279766424   22.685074909 XXXX 1      o*      O  -0.820
H1111   27.629652071    1.552960676   22.935371387 XXXX 1      h*      H   0.410
H1112   26.796495570    0.294487520   22.887023297 XXXX 1      h*      H   0.410
end
O556    25.946712589   -1.076472359   27.492481604 XXXX 1      o*      O  -0.820
H1111   25.057828656   -1.201196757   27.899433997 XXXX 1      h*      H   0.410
H1112   25.747654174   -0.335010672   26.945022347 XXXX 1      h*      H   0.410
end
O556    45.413058199   19.047566917    6.031154351 XXXX 1      o*      O  -0.820
H1111   46.428397074   18.856378639    6.164529188 XXXX 1      h*      H   0.410
H1112   45.093079189   18.118855662    6.350486814 XXXX 1      h*      H   0.410
end
O556    23.409302830   11.278065397   19.782117569 XXXX 1      o*      O  -0.820
H1111   24.124943172   10.693083912   20.034125025 XXXX 1      h*      H   0.410
H1112   23.916014545   12.055624663   19.492730439 XXXX 1      h*      H   0.410
end
O556    19.420522526   12.296176982   26.267990428 XXXX 1      o*      O  -0.820
H1111   19.275068611   13.124295393   25.755535109 XXXX 1      h*      H   0.410
H1112   20.273375103   12.128238877   25.873297490 XXXX 1      h*      H   0.410
end
O556    28.830411322   21.021298796    8.690412322 XXXX 1      o*      O  -0.820
H1111   29.458467260   20.840182055    7.976846123 XXXX 1      h*      H   0.410
H1112   28.463700202   20.176665810    8.903522167 XXXX 1      h*      H   0.410
end
O556     6.002378512   13.737988659   11.414146527 XXXX 1      o*      O  -0.820
H1111    6.148784085   12.842209718   11.114770314 XXXX 1      h*      H   0.410
H1112    6.473639149   14.298487529   10.738503198 XXXX 1      h*      H   0.410
end
O556    38.180511001   16.534733304    1.884987656 XXXX 1      o*      O  -0.820
H1111   37.900397641   16.044604880    2.718618892 XXXX 1      h*      H   0.410
H1112   38.790200474   17.210824842    2.230323538 XXXX 1      h*      H   0.410
end
O556    45.802101048    4.174364945   -1.094449638 XXXX 1      o*      O  -0.820
H1111   44.892915898    4.486554350   -0.793147767 XXXX 1      h*      H   0.410
H1112   46.052148277    4.995856564   -1.557367843 XXXX 1      h*      H   0.410
end
O556    35.305656342   13.944384422   11.518816566 XXXX 1      o*      O  -0.820
H1111   35.512371848   14.881283380   11.677064936 XXXX 1      h*      H   0.410
H1112   34.925601120   13.824163373   10.668821585 XXXX 1      h*      H   0.410
end
O556    41.911479317    6.745126984   19.156470307 XXXX 1      o*      O  -0.820
H1111   41.464690954    7.112467383   19.974038471 XXXX 1      h*      H   0.410
H1112   41.223893883    6.041200780   18.948969714 XXXX 1      h*      H   0.410
end
O556    45.139807923    3.076024470   30.077429729 XXXX 1      o*      O  -0.820
H1111   45.932706692    3.024706827   29.506700760 XXXX 1      h*      H   0.410
H1112   44.329879876    3.126699205   29.459686758 XXXX 1      h*      H   0.410
end
O556     5.638448427    1.996673030   -1.416275881 XXXX 1      o*      O  -0.820
H1111    6.335052438    2.504856476   -1.870070442 XXXX 1      h*      H   0.410
H1112    4.856822739    2.463060005   -1.639041467 XXXX 1      h*      H   0.410
end
O556    33.673521753   19.990581820    5.081554886 XXXX 1      o*      O  -0.820
H1111   34.585729427   20.406744164    5.145349715 XXXX 1      h*      H   0.410
H1112   33.412041277   20.231020202    4.177141310 XXXX 1      h*      H   0.410
end
O556    18.001376120   20.196321393    0.981171571 XXXX 1      o*      O  -0.820
H1111   17.986228625   19.917913576    1.919412934 XXXX 1      h*      H   0.410
H1112   18.330171267   19.357619799    0.582233463 XXXX 1      h*      H   0.410
end
O556    23.457264020   11.137970136    4.061910768 XXXX 1      o*      O  -0.820
H1111   24.434105462   11.027576093    3.825447413 XXXX 1      h*      H   0.410
H1112   23.204155893   10.203211943    4.089406717 XXXX 1      h*      H   0.410
end
O556    36.312741125   15.573328756    7.868643563 XXXX 1      o*      O  -0.820
H1111   36.863246414   15.986007027    8.575145902 XXXX 1      h*      H   0.410
H1112   36.011389112   16.334911846    7.373043743 XXXX 1      h*      H   0.410
end
O556     4.397452757    2.780878208   18.550811641 XXXX 1      o*      O  -0.820
H1111    3.798706325    3.444192952   18.064913369 XXXX 1      h*      H   0.410
H1112    4.419133128    2.148675092   17.834768556 XXXX 1      h*      H   0.410
end
O556     4.820234518    2.294963838   21.227105691 XXXX 1      o*      O  -0.820
H1111    4.753022785    2.563180253   20.311624678 XXXX 1      h*      H   0.410
H1112    4.282890377    3.011011423   21.640850210 XXXX 1      h*      H   0.410
end
O556    19.606012504   19.156625379   11.203895996 XXXX 1      o*      O  -0.820
H1111   18.869554417   18.501714210   11.249951127 XXXX 1      h*      H   0.410
H1112   19.111238389   19.863660625   11.594526652 XXXX 1      h*      H   0.410
end
O556     5.854005474   14.759560372    3.319020626 XXXX 1      o*      O  -0.820
H1111    6.090871278   13.857656282    2.994611153 XXXX 1      h*      H   0.410
H1112    6.790758211   15.014761338    3.499588791 XXXX 1      h*      H   0.410
end
O556    46.803805541   24.018351681   22.782314124 XXXX 1      o*      O  -0.820
H1111   46.492969775   23.773825296   23.644387955 XXXX 1      h*      H   0.410
H1112   46.485841032   24.952626229   22.757450962 XXXX 1      h*      H   0.410
end
O556    50.590759733   22.765459266   27.696972586 XXXX 1      o*      O  -0.820
H1111   51.364798069   22.349096117   28.161919359 XXXX 1      h*      H   0.410
H1112   50.521866616   22.248998582   26.872454094 XXXX 1      h*      H   0.410
end
O556    13.645896347    5.316827298    5.349149778 XXXX 1      o*      O  -0.820
H1111   14.589607374    5.371453153    5.188477930 XXXX 1      h*      H   0.410
H1112   13.301005872    6.135030304    5.011338163 XXXX 1      h*      H   0.410
end
O556    25.124392954    5.694729341    2.807822223 XXXX 1      o*      O  -0.820
H1111   24.598097806    5.043546145    3.289150207 XXXX 1      h*      H   0.410
H1112   26.008510488    5.429630907    3.048972527 XXXX 1      h*      H   0.410
end
O556    11.275725928   16.047145757   12.459277630 XXXX 1      o*      O  -0.820
H1111   10.315907183   15.870796129   12.473972247 XXXX 1      h*      H   0.410
H1112   11.358489054   16.333568052   13.397893686 XXXX 1      h*      H   0.410
end
O556    21.398510743   14.227900475   13.509297165 XXXX 1      o*      O  -0.820
H1111   22.174426210   13.905579591   13.034741061 XXXX 1      h*      H   0.410
H1112   21.810159735   14.288189281   14.385180134 XXXX 1      h*      H   0.410
end
O556    17.743871014    7.334091045   12.738896965 XXXX 1      o*      O  -0.820
H1111   17.067337515    6.760691477   12.224954367 XXXX 1      h*      H   0.410
H1112   17.313824788    8.205512683   12.872023870 XXXX 1      h*      H   0.410
end
O556     7.340835059    2.096129936    5.097318907 XXXX 1      o*      O  -0.820
H1111    8.095987356    1.665174402    5.533508444 XXXX 1      h*      H   0.410
H1112    7.627513977    3.003547196    5.153438562 XXXX 1      h*      H   0.410
end
O556    25.578401987   17.284582615   23.858313371 XXXX 1      o*      O  -0.820
H1111   25.635750010   16.330934417   24.023479072 XXXX 1      h*      H   0.410
H1112   26.394874016   17.332720634   23.317879405 XXXX 1      h*      H   0.410
end
O556    26.070745880   17.235091107   27.387005674 XXXX 1      o*      O  -0.820
H1111   25.667860713   16.377831337   27.076520427 XXXX 1      h*      H   0.410
H1112   26.671026299   16.854535040   28.092283655 XXXX 1      h*      H   0.410
end
O556     2.639022969    9.103141063   21.353477779 XXXX 1      o*      O  -0.820
H1111    2.117181512    9.895339924   21.263336575 XXXX 1      h*      H   0.410
H1112    3.510829117    9.450344586   21.499741807 XXXX 1      h*      H   0.410
end
O556     2.293945251    7.072348588   23.069578178 XXXX 1      o*      O  -0.820
H1111    2.256644363    7.655937675   22.243037872 XXXX 1      h*      H   0.410
H1112    2.540881743    6.171606590   22.597488498 XXXX 1      h*      H   0.410
end
O556    24.625385842    9.397781554   12.079145404 XXXX 1      o*      O  -0.820
H1111   25.321672497    8.934248291   11.618402671 XXXX 1      h*      H   0.410
H1112   23.932811158    8.719652193   12.094323974 XXXX 1      h*      H   0.410
end
O556    14.314512424    0.989146713    7.704009611 XXXX 1      o*      O  -0.820
H1111   14.763816494    0.349362421    8.259291452 XXXX 1      h*      H   0.410
H1112   13.867416236    1.567038045    8.292048538 XXXX 1      h*      H   0.410
end
O556    20.000244030    9.043715132   16.096408901 XXXX 1      o*      O  -0.820
H1111   20.749292747    9.625027230   15.719710520 XXXX 1      h*      H   0.410
H1112   19.847789835    8.375452880   15.414907290 XXXX 1      h*      H   0.410
end
O556    25.032169282    0.966981166   12.526290430 XXXX 1      o*      O  -0.820
H1111   24.517022581    1.790438226   12.471824913 XXXX 1      h*      H   0.410
H1112   24.323687806    0.358876778   12.624692439 XXXX 1      h*      H   0.410
end
O556     5.167821226    8.632329155    5.605130497 XXXX 1      o*      O  -0.820
H1111    5.558299984    8.096637584    4.922165060 XXXX 1      h*      H   0.410
H1112    4.597259288    8.110940091    6.209935174 XXXX 1      h*      H   0.410
end
O556    28.627593185   18.652566573   13.480366518 XXXX 1      o*      O  -0.820
H1111   28.419213952   19.338139719   14.142809595 XXXX 1      h*      H   0.410
H1112   27.796443755   18.789064715   12.936277451 XXXX 1      h*      H   0.410
end
O556    10.758933816    9.726556574    4.202826457 XXXX 1      o*      O  -0.820
H1111   11.242846509    9.836199667    5.038878585 XXXX 1      h*      H   0.410
H1112    9.957137856   10.334698072    4.466776559 XXXX 1      h*      H   0.410
end
O556    22.905772124   13.937356030    4.683608517 XXXX 1      o*      O  -0.820
H1111   23.183941161   12.975235234    4.755274497 XXXX 1      h*      H   0.410
H1112   22.081567169   13.859502663    4.149154832 XXXX 1      h*      H   0.410
end
O556    12.113256363   23.625081572   12.444198843 XXXX 1      o*      O  -0.820
H1111   12.647715140   23.853790850   11.613573532 XXXX 1      h*      H   0.410
H1112   11.731537428   22.761098005   12.168024793 XXXX 1      h*      H   0.410
end
O556    34.983175315    3.562623492    4.767276982 XXXX 1      o*      O  -0.820
H1111   35.586936160    4.350894384    4.706141797 XXXX 1      h*      H   0.410
H1112   34.449433368    3.832219834    5.512019620 XXXX 1      h*      H   0.410
end
O556    20.230824737    5.164463709   16.315274365 XXXX 1      o*      O  -0.820
H1111   20.086134698    5.935782630   16.960202985 XXXX 1      h*      H   0.410
H1112   19.990368336    4.475325012   16.936450196 XXXX 1      h*      H   0.410
end
O556    19.572887708    3.411554311   18.492703125 XXXX 1      o*      O  -0.820
H1111   19.555842303    4.076972867   19.161902613 XXXX 1      h*      H   0.410
H1112   18.606443495    3.181384419   18.458887546 XXXX 1      h*      H   0.410
end
O556     4.803447761    8.421227687    9.965497696 XXXX 1      o*      O  -0.820
H1111    4.915532868    7.656046993   10.516893384 XXXX 1      h*      H   0.410
H1112    3.828315307    8.384867076    9.967156131 XXXX 1      h*      H   0.410
end
O556    11.149241544    5.759350004   10.833366192 XXXX 1      o*      O  -0.820
H1111   11.056205229    6.627920201   11.284443125 XXXX 1      h*      H   0.410
H1112   11.559463129    5.260389702   11.615829631 XXXX 1      h*      H   0.410
end
O556    39.571697028   13.082883832    4.481000679 XXXX 1      o*      O  -0.820
H1111   39.798292917   13.106077307    3.530629913 XXXX 1      h*      H   0.410
H1112   39.801665964   14.041830513    4.680489838 XXXX 1      h*      H   0.410
end
O556    30.361076251   15.189323181   20.015806967 XXXX 1      o*      O  -0.820
H1111   30.154911688   15.722859393   19.215147696 XXXX 1      h*      H   0.410
H1112   30.092773158   15.830972586   20.696184305 XXXX 1      h*      H   0.410
end
O556    28.051005196   10.841128142   25.040162081 XXXX 1      o*      O  -0.820
H1111   28.291927720   10.146985840   25.710102949 XXXX 1      h*      H   0.410
H1112   28.329387589   10.505116525   24.213763419 XXXX 1      h*      H   0.410
end
O556    14.170129593    8.858104168   14.433344088 XXXX 1      o*      O  -0.820
H1111   13.427528598    8.615235574   15.027337429 XXXX 1      h*      H   0.410
H1112   13.619251104    9.294228961   13.753692315 XXXX 1      h*      H   0.410
end
O556    45.343723408    7.223290301    7.263829785 XXXX 1      o*      O  -0.820
H1111   44.917356028    6.467098589    7.724073072 XXXX 1      h*      H   0.410
H1112   46.232434392    6.887287694    7.057338424 XXXX 1      h*      H   0.410
end
O556    20.091081297    4.937545465    9.789284535 XXXX 1      o*      O  -0.820
H1111   20.452757474    4.388575940   10.548347267 XXXX 1      h*      H   0.410
H1112   20.115665367    5.816397883   10.257813589 XXXX 1      h*      H   0.410
end
O556    13.505660813   16.320420685    9.655528682 XXXX 1      o*      O  -0.820
H1111   13.690397348   17.105496479    9.067516307 XXXX 1      h*      H   0.410
H1112   13.827386518   15.634707210    8.998357607 XXXX 1      h*      H   0.410
end
O556    24.263530027   20.941585999   14.628671901 XXXX 1      o*      O  -0.820
H1111   23.620258045   21.553242138   14.960542351 XXXX 1      h*      H   0.410
H1112   25.082949197   21.466946857   14.738834798 XXXX 1      h*      H   0.410
end
O556    13.208386789    4.296158006    7.874069956 XXXX 1      o*      O  -0.820
H1111   13.354245812    4.604725548    6.925082939 XXXX 1      h*      H   0.410
H1112   12.314984300    4.742875376    7.982918822 XXXX 1      h*      H   0.410
end
O556     2.054106685    7.855217949   10.565996671 XXXX 1      o*      O  -0.820
H1111    1.961301131    7.172562745   11.282151304 XXXX 1      h*      H   0.410
H1112    1.229753879    8.412064742   10.708213996 XXXX 1      h*      H   0.410
end
O556     1.490572666    4.676613831   17.715543744 XXXX 1      o*      O  -0.820
H1111    0.947085131    3.980994514   17.352675353 XXXX 1      h*      H   0.410
H1112    0.998200740    5.442685303   17.395069899 XXXX 1      h*      H   0.410
end
O556     0.162461297    3.868553258   24.814886357 XXXX 1      o*      O  -0.820
H1111   -0.538590517    4.398699432   24.416814467 XXXX 1      h*      H   0.410
H1112   -0.261661991    2.978356027   24.731674182 XXXX 1      h*      H   0.410
end
O556    41.980788973    9.676309903   16.681532127 XXXX 1      o*      O  -0.820
H1111   41.656989142   10.201523168   17.518624715 XXXX 1      h*      H   0.410
H1112   41.626375068   10.182328568   15.912387591 XXXX 1      h*      H   0.410
end
O556    44.692274201    0.576633312   20.079249706 XXXX 1      o*      O  -0.820
H1111   45.307019024   -0.159837389   20.336239771 XXXX 1      h*      H   0.410
H1112   44.647802154    0.876081774   21.041901976 XXXX 1      h*      H   0.410
end
O556    46.037250951    1.638687558   25.533988090 XXXX 1      o*      O  -0.820
H1111   46.001944112    2.438571265   26.117285566 XXXX 1      h*      H   0.410
H1112   45.162091431    1.195091824   25.712689819 XXXX 1      h*      H   0.410
end
O556    10.006590035    9.827676069   21.262984828 XXXX 1      o*      O  -0.820
H1111    9.963621329   10.212471339   22.156778397 XXXX 1      h*      H   0.410
H1112   10.109428253   10.635088352   20.667780134 XXXX 1      h*      H   0.410
end
O556    11.609009961    7.827476685   25.670034391 XXXX 1      o*      O  -0.820
H1111   12.382691719    8.314540015   25.998233737 XXXX 1      h*      H   0.410
H1112   11.731822531    8.044317407   24.745230224 XXXX 1      h*      H   0.410
end
O556    20.547039589    1.409657269   15.208085831 XXXX 1      o*      O  -0.820
H1111   20.225169041    0.620968261   15.630630885 XXXX 1      h*      H   0.410
H1112   19.740599532    1.706810060   14.625526120 XXXX 1      h*      H   0.410
end
O556    21.847371898    2.238236164   21.767477310 XXXX 1      o*      O  -0.820
H1111   21.389229105    1.629581737   22.361688456 XXXX 1      h*      H   0.410
H1112   22.743678851    1.869947900   21.839849304 XXXX 1      h*      H   0.410
end
O556    46.346469309    7.342187720   13.526935426 XXXX 1      o*      O  -0.820
H1111   46.006176358    6.834058961   12.718531228 XXXX 1      h*      H   0.410
H1112   46.036082108    6.682911177   14.116281395 XXXX 1      h*      H   0.410
end
O556    12.342125799   15.093790258    2.403131212 XXXX 1      o*      O  -0.820
H1111   12.075812371   14.346554796    1.763912652 XXXX 1      h*      H   0.410
H1112   11.577049676   15.012051225    2.955318439 XXXX 1      h*      H   0.410
end
O556    21.440879067   15.400779703   18.007003438 XXXX 1      o*      O  -0.820
H1111   21.196735902   14.471157451   17.810499993 XXXX 1      h*      H   0.410
H1112   20.543276491   15.682749476   18.313890392 XXXX 1      h*      H   0.410
end
O556    35.412353116    8.441930387   21.791526066 XXXX 1      o*      O  -0.820
H1111   35.754233125    7.552542561   22.156512611 XXXX 1      h*      H   0.410
H1112   34.445516826    8.246525584   21.727559096 XXXX 1      h*      H   0.410
end
O556    40.170278151    8.396938257   23.707784793 XXXX 1      o*      O  -0.820
H1111   39.754807516    7.841276862   24.407172084 XXXX 1      h*      H   0.410
H1112   39.774063744    9.294796210   23.887578623 XXXX 1      h*      H   0.410
end
O556    -0.271063291   17.544457706    6.395453800 XXXX 1      o*      O  -0.820
H1111   -0.684565699   16.946197745    5.732423444 XXXX 1      h*      H   0.410
H1112    0.575479755   17.039800155    6.376277637 XXXX 1      h*      H   0.410
end
O556    41.130754028   10.508713310   13.876731084 XXXX 1      o*      O  -0.820
H1111   40.102436783   10.417908749   13.796366958 XXXX 1      h*      H   0.410
H1112   41.294181612   11.324025211   13.279831067 XXXX 1      h*      H   0.410
end
O556     2.759809660    4.538593553    4.031107203 XXXX 1      o*      O  -0.820
H1111    2.729866947    3.766123511    4.624401897 XXXX 1      h*      H   0.410
H1112    3.599306009    4.387796058    3.491164303 XXXX 1      h*      H   0.410
end
O556    39.550169413   14.923172571   23.052660377 XXXX 1      o*      O  -0.820
H1111   38.782198827   14.323296698   22.941170169 XXXX 1      h*      H   0.410
H1112   40.317513580   14.454189151   22.774707105 XXXX 1      h*      H   0.410
end
O556    40.242266204   14.173927708   29.328862281 XXXX 1      o*      O  -0.820
H1111   40.838284724   14.688870884   28.718520736 XXXX 1      h*      H   0.410
H1112   39.552657210   14.809841354   29.562733281 XXXX 1      h*      H   0.410
end
O556    41.345421463   -0.689830543    0.474931197 XXXX 1      o*      O  -0.820
H1111   41.735552010   -0.225439875    1.224941173 XXXX 1      h*      H   0.410
H1112   41.622227559   -1.622618706    0.543590383 XXXX 1      h*      H   0.410
end
O556    11.056564951   20.993362774   12.011103312 XXXX 1      o*      O  -0.820
H1111   10.301472353   21.039661492   11.406042531 XXXX 1      h*      H   0.410
H1112   11.295031779   20.020789573   11.883664453 XXXX 1      h*      H   0.410
end
O556    20.920862533    4.211236788   -0.021947445 XXXX 1      o*      O  -0.820
H1111   21.707388488    3.808922038   -0.336547116 XXXX 1      h*      H   0.410
H1112   20.562490047    4.347397723   -0.930005732 XXXX 1      h*      H   0.410
end
O556    13.680450090    2.401659159   10.146946866 XXXX 1      o*      O  -0.820
H1111   14.694765562    2.380926796   10.315054885 XXXX 1      h*      H   0.410
H1112   13.649388953    3.188926521    9.604943468 XXXX 1      h*      H   0.410
end
O556     1.971807575   16.151490129    5.641004814 XXXX 1      o*      O  -0.820
H1111    2.850822723   16.064111394    6.019375901 XXXX 1      h*      H   0.410
H1112    2.131519276   15.934773074    4.688566249 XXXX 1      h*      H   0.410
end
O556     7.681712613    5.118457872    1.453336373 XXXX 1      o*      O  -0.820
H1111    8.556358779    5.409577703    1.166229014 XXXX 1      h*      H   0.410
H1112    7.178452096    5.892861983    1.274839578 XXXX 1      h*      H   0.410
end
O556    37.591794196   17.372805493   16.569635507 XXXX 1      o*      O  -0.820
H1111   38.474823050   16.989159744   16.683496864 XXXX 1      h*      H   0.410
H1112   37.032697567   16.634303446   16.338711967 XXXX 1      h*      H   0.410
end
O556    35.900255841   25.131039616    8.725324729 XXXX 1      o*      O  -0.820
H1111   35.992453721   25.938291097    8.171629355 XXXX 1      h*      H   0.410
H1112   35.828283877   24.530063473    7.933441853 XXXX 1      h*      H   0.410
end
O556    11.508073774   22.033028565   24.962928083 XXXX 1      o*      O  -0.820
H1111   10.537423721   22.164905187   24.788726920 XXXX 1      h*      H   0.410
H1112   11.431009708   22.677243885   25.722078262 XXXX 1      h*      H   0.410
end
O556     9.803330529   17.976957550   29.459547258 XXXX 1      o*      O  -0.820
H1111   10.238323375   17.871819656   30.353255013 XXXX 1      h*      H   0.410
H1112    9.920574747   18.946712207   29.414367002 XXXX 1      h*      H   0.410
end
O556     1.610851663    7.144689258   13.459130896 XXXX 1      o*      O  -0.820
H1111    2.268092207    7.878501290   13.441080726 XXXX 1      h*      H   0.410
H1112    0.773559317    7.602762684   13.657559373 XXXX 1      h*      H   0.410
end
O556    40.176915437   18.860837103    6.608541111 XXXX 1      o*      O  -0.820
H1111   40.469244217   18.966722188    7.565476297 XXXX 1      h*      H   0.410
H1112   40.861471627   19.466201425    6.247053654 XXXX 1      h*      H   0.410
end
O556    39.668507760   12.289595638    9.723720993 XXXX 1      o*      O  -0.820
H1111   40.121212145   12.805588270    9.000318802 XXXX 1      h*      H   0.410
H1112   39.410496782   13.105423372   10.233758296 XXXX 1      h*      H   0.410
end
O556    21.885339663    8.018207376    8.183619141 XXXX 1      o*      O  -0.820
H1111   22.349343303    8.816344041    7.964714255 XXXX 1      h*      H   0.410
H1112   20.992439415    8.447123504    8.486466577 XXXX 1      h*      H   0.410
end
O556    27.660922459   22.282673669   11.852200435 XXXX 1      o*      O  -0.820
H1111   28.043780889   22.363138348   12.752408664 XXXX 1      h*      H   0.410
H1112   26.692812544   22.079722729   12.115060370 XXXX 1      h*      H   0.410
end
O556     7.735844115    7.761047179    9.276185555 XXXX 1      o*      O  -0.820
H1111    6.756065091    7.722928670    9.106260156 XXXX 1      h*      H   0.410
H1112    8.043232266    7.270299409    8.533611090 XXXX 1      h*      H   0.410
end
O556    23.805487806   12.063384435    0.800960752 XXXX 1      o*      O  -0.820
H1111   23.202800883   11.963907290    1.573691859 XXXX 1      h*      H   0.410
H1112   23.582951175   11.276043816    0.250498440 XXXX 1      h*      H   0.410
end
O556     4.916024430   16.031837123    6.603605077 XXXX 1      o*      O  -0.820
H1111    5.167341411   16.889017045    6.110371411 XXXX 1      h*      H   0.410
H1112    5.116235516   16.254558467    7.516481837 XXXX 1      h*      H   0.410
end
O556    43.053167495   15.436010519    9.254636283 XXXX 1      o*      O  -0.820
H1111   42.145745064   15.726721453    9.382837165 XXXX 1      h*      H   0.410
H1112   43.374462646   15.291944173   10.171834667 XXXX 1      h*      H   0.410
end
O556    47.646851435    8.908436705   11.250416973 XXXX 1      o*      O  -0.820
H1111   46.921021155    9.236524869   10.676951935 XXXX 1      h*      H   0.410
H1112   47.135120790    8.052500251   11.536580484 XXXX 1      h*      H   0.410
end
O556    32.823074065   13.722594596   18.936450949 XXXX 1      o*      O  -0.820
H1111   32.171472731   14.257566551   19.432381389 XXXX 1      h*      H   0.410
H1112   32.609542052   14.084176394   17.996285700 XXXX 1      h*      H   0.410
end
O556    33.939185090   13.297026854   25.744019688 XXXX 1      o*      O  -0.820
H1111   33.383868069   14.091353340   25.958892065 XXXX 1      h*      H   0.410
H1112   33.242099441   12.676422122   25.312097495 XXXX 1      h*      H   0.410
end
O556    39.085054765    4.186906353   12.805684629 XXXX 1      o*      O  -0.820
H1111   39.366018793    4.509050358   13.690619157 XXXX 1      h*      H   0.410
H1112   38.271128005    4.698632633   12.786160793 XXXX 1      h*      H   0.410
end
O556    29.049295597    2.579916199   19.237299733 XXXX 1      o*      O  -0.820
H1111   28.622454859    3.413858287   18.952002800 XXXX 1      h*      H   0.410
H1112   28.809644390    2.078436507   18.427646461 XXXX 1      h*      H   0.410
end
O556    26.865064558    2.448947463   25.518951460 XXXX 1      o*      O  -0.820
H1111   26.707218198    2.392328683   24.554386289 XXXX 1      h*      H   0.410
H1112   25.951403494    2.492074999   25.801162825 XXXX 1      h*      H   0.410
end
O556    11.617521200   17.399124364   17.773461371 XXXX 1      o*      O  -0.820
H1111   12.425806004   17.855565491   18.009176583 XXXX 1      h*      H   0.410
H1112   11.079783811   18.116390812   17.460557163 XXXX 1      h*      H   0.410
end
O556    13.506280806   17.380647886   21.836575755 XXXX 1      o*      O  -0.820
H1111   12.622510673   17.805283653   21.983013921 XXXX 1      h*      H   0.410
H1112   13.223806621   16.494992678   21.822730050 XXXX 1      h*      H   0.410
end
O556    36.386985607   14.668359589    3.241302910 XXXX 1      o*      O  -0.820
H1111   36.110281586   14.132608739    2.451774519 XXXX 1      h*      H   0.410
H1112   35.627223559   14.605134636    3.852557912 XXXX 1      h*      H   0.410
end
O556    16.312757467   17.788142269   24.133469814 XXXX 1      o*      O  -0.820
H1111   16.593769538   16.820965490   23.852273720 XXXX 1      h*      H   0.410
H1112   15.783244755   17.566468176   24.870600007 XXXX 1      h*      H   0.410
end
O556    20.449084160   16.275425666   28.150399997 XXXX 1      o*      O  -0.820
H1111   20.105198126   16.597007306   29.006480909 XXXX 1      h*      H   0.410
H1112   20.520379578   17.133238787   27.613781529 XXXX 1      h*      H   0.410
end
O556    42.390184861   13.942920717   17.919880290 XXXX 1      o*      O  -0.820
H1111   42.329106108   13.852401502   16.902261747 XXXX 1      h*      H   0.410
H1112   43.089469899   14.600922295   18.089074476 XXXX 1      h*      H   0.410
end
O556    43.755220184   12.530831390   26.445233749 XXXX 1      o*      O  -0.820
H1111   44.215375252   12.591273616   25.566699733 XXXX 1      h*      H   0.410
H1112   42.966453579   12.030520016   26.232806486 XXXX 1      h*      H   0.410
end
O556    43.539215903   15.170589308   12.000771439 XXXX 1      o*      O  -0.820
H1111   43.814490334   16.016393141   12.418269597 XXXX 1      h*      H   0.410
H1112   44.462192737   14.907375999   11.847618871 XXXX 1      h*      H   0.410
end
O556    23.770179156    3.948717739   13.235778623 XXXX 1      o*      O  -0.820
H1111   22.860774046    3.937141697   12.692863838 XXXX 1      h*      H   0.410
H1112   23.429579826    4.250250293   14.125835392 XXXX 1      h*      H   0.410
end
O556    32.854199604   10.430755313   21.871065103 XXXX 1      o*      O  -0.820
H1111   32.418202459    9.694258249   21.491624862 XXXX 1      h*      H   0.410
H1112   32.251355953   11.194201710   21.651183255 XXXX 1      h*      H   0.410
end
O556    36.113921192   11.865626448   26.258491277 XXXX 1      o*      O  -0.820
H1111   35.349949615   12.433481325   26.070607937 XXXX 1      h*      H   0.410
H1112   36.018791287   11.199047766   25.522269944 XXXX 1      h*      H   0.410
end
O556    29.699828677   16.546064821   17.693983979 XXXX 1      o*      O  -0.820
H1111   28.800760332   16.901380432   17.672378973 XXXX 1      h*      H   0.410
H1112   29.904344870   16.346451319   16.754589250 XXXX 1      h*      H   0.410
end
O556    29.291119572   18.314987319   20.294280238 XXXX 1      o*      O  -0.820
H1111   29.977462916   18.959291080   20.590834802 XXXX 1      h*      H   0.410
H1112   29.398975097   18.272605625   19.313081756 XXXX 1      h*      H   0.410
end
O556    18.935823173    3.016491959   22.204734015 XXXX 1      o*      O  -0.820
H1111   19.735451939    2.761108215   21.707354856 XXXX 1      h*      H   0.410
H1112   19.123381085    2.717422183   23.160346100 XXXX 1      h*      H   0.410
end
O556    16.367346428    4.797985235   25.802242335 XXXX 1      o*      O  -0.820
H1111   16.069220968    3.883116994   25.862812456 XXXX 1      h*      H   0.410
H1112   16.665756238    4.895337556   24.873261700 XXXX 1      h*      H   0.410
end
O556    22.370106818    7.649812869   11.694672197 XXXX 1      o*      O  -0.820
H1111   21.609495376    7.998901307   11.161665383 XXXX 1      h*      H   0.410
H1112   21.958588433    6.970804892   12.271966025 XXXX 1      h*      H   0.410
end
O556    12.397820851    0.114499678   19.228143002 XXXX 1      o*      O  -0.820
H1111   12.131629125   -0.071857876   20.145434463 XXXX 1      h*      H   0.410
H1112   11.946533931    1.039129425   19.085161182 XXXX 1      h*      H   0.410
end
O556    11.193373373    7.545939815   22.426058273 XXXX 1      o*      O  -0.820
H1111   10.860061510    6.735509083   22.003739459 XXXX 1      h*      H   0.410
H1112   10.405664716    8.149752650   22.383029574 XXXX 1      h*      H   0.410
end
O556    16.885545885    2.498663055   18.877348240 XXXX 1      o*      O  -0.820
H1111   16.495893367    2.853971469   18.031111257 XXXX 1      h*      H   0.410
H1112   16.273203697    1.778330753   19.020260178 XXXX 1      h*      H   0.410
end
O556    18.197086217   19.003928936    3.633366759 XXXX 1      o*      O  -0.820
H1111   18.951408659   19.317085609    4.253449443 XXXX 1      h*      H   0.410
H1112   18.774698172   18.309801274    3.288868715 XXXX 1      h*      H   0.410
end
O556    14.828459330   18.492909339    7.818835258 XXXX 1      o*      O  -0.820
H1111   15.794170017   18.722210327    8.073006354 XXXX 1      h*      H   0.410
H1112   14.706094807   18.932071470    6.971980230 XXXX 1      h*      H   0.410
end
O556    19.749649574   14.779772373   10.984984567 XXXX 1      o*      O  -0.820
H1111   20.323820072   14.765879942   11.753307390 XXXX 1      h*      H   0.410
H1112   18.947605932   14.588692091   11.440467728 XXXX 1      h*      H   0.410
end
O556    20.568940525   -0.699939525   18.123387207 XXXX 1      o*      O  -0.820
H1111   19.893074387   -1.388718392   18.003682375 XXXX 1      h*      H   0.410
H1112   21.331062942   -1.238780360   18.356802093 XXXX 1      h*      H   0.410
end
O556    22.360240399    1.796288463   18.806572815 XXXX 1      o*      O  -0.820
H1111   22.203674415    1.852641512   19.764302181 XXXX 1      h*      H   0.410
H1112   21.404602800    1.874174972   18.493078657 XXXX 1      h*      H   0.410
end
O556     0.936663410   14.239417329   11.100290046 XXXX 1      o*      O  -0.820
H1111    1.138125122   14.348281762   10.169441989 XXXX 1      h*      H   0.410
H1112    1.326027536   13.372080457   11.262753987 XXXX 1      h*      H   0.410
end
O556    30.881261378   20.875021419    2.166388304 XXXX 1      o*      O  -0.820
H1111   31.794800842   21.281094107    2.042921525 XXXX 1      h*      H   0.410
H1112   30.814825489   20.440508940    1.286568542 XXXX 1      h*      H   0.410
end
O556    20.615226086   13.278323813    2.967365577 XXXX 1      o*      O  -0.820
H1111   20.836040084   12.341259591    2.638204834 XXXX 1      h*      H   0.410
H1112   20.999849157   13.803013329    2.197656364 XXXX 1      h*      H   0.410
end
O556     0.850700725   19.470551941   17.418856274 XXXX 1      o*      O  -0.820
H1111    1.111963690   18.959940483   16.613938631 XXXX 1      h*      H   0.410
H1112    1.737866330   19.815718051   17.662670983 XXXX 1      h*      H   0.410
end
O556     3.294732818   16.827480754   19.461471262 XXXX 1      o*      O  -0.820
H1111    3.902161038   17.106018834   18.765611935 XXXX 1      h*      H   0.410
H1112    3.957780767   16.332048626   19.985675663 XXXX 1      h*      H   0.410
end
O556    45.397750280    5.383530441    4.298582843 XXXX 1      o*      O  -0.820
H1111   46.095026026    5.671561151    3.646571944 XXXX 1      h*      H   0.410
H1112   45.433146381    4.375351324    4.153608707 XXXX 1      h*      H   0.410
end
O556    17.386492539   17.151435808    0.739026628 XXXX 1      o*      O  -0.820
H1111   17.382874511   16.930562963   -0.193956515 XXXX 1      h*      H   0.410
H1112   16.778553767   16.476490865    1.029286440 XXXX 1      h*      H   0.410
end
O556    24.406342327   14.772033931   27.290380816 XXXX 1      o*      O  -0.820
H1111   24.973473136   13.961401425   27.497419555 XXXX 1      h*      H   0.410
H1112   24.400886536   14.595185357   26.325181159 XXXX 1      h*      H   0.410
end
O556    33.931041531   -0.628348053    2.882598545 XXXX 1      o*      O  -0.820
H1111   33.439822482    0.138782730    2.658946790 XXXX 1      h*      H   0.410
H1112   34.823947105   -0.326786711    3.114260947 XXXX 1      h*      H   0.410
end
O556    23.335568839   12.443520086   12.108610768 XXXX 1      o*      O  -0.820
H1111   24.105952953   12.903029317   11.610238750 XXXX 1      h*      H   0.410
H1112   23.729282573   11.592726294   12.192309247 XXXX 1      h*      H   0.410
end
O556    27.081167281    2.633256800   10.646815878 XXXX 1      o*      O  -0.820
H1111   27.005137397    1.756381570   11.107491436 XXXX 1      h*      H   0.410
H1112   27.834432043    2.428268904   10.074316080 XXXX 1      h*      H   0.410
end
O556    13.829909575    1.686974760    5.041217277 XXXX 1      o*      O  -0.820
H1111   14.239490979    1.916264089    5.879906413 XXXX 1      h*      H   0.410
H1112   14.558257284    1.268113739    4.566282830 XXXX 1      h*      H   0.410
end
O556    40.848175613   13.532409680   12.717138154 XXXX 1      o*      O  -0.820
H1111   41.552586984   14.071434648   12.333325195 XXXX 1      h*      H   0.410
H1112   40.043987942   13.816149583   12.179072740 XXXX 1      h*      H   0.410
end
O556    28.323846690    0.108172638    1.366921594 XXXX 1      o*      O  -0.820
H1111   28.871400824   -0.690172986    1.382480324 XXXX 1      h*      H   0.410
H1112   27.501271249   -0.323346629    1.095856953 XXXX 1      h*      H   0.410
end
O556    36.164748357    5.360188499    7.437511275 XXXX 1      o*      O  -0.820
H1111   36.716462972    5.962271369    6.959403114 XXXX 1      h*      H   0.410
H1112   36.063599954    5.958872905    8.196248469 XXXX 1      h*      H   0.410
end
O556    37.900311028    2.677909167    1.173868958 XXXX 1      o*      O  -0.820
H1111   38.898650770    2.717394338    1.244882353 XXXX 1      h*      H   0.410
H1112   37.679341555    1.732419663    0.885055950 XXXX 1      h*      H   0.410
end
O556    24.586266149   16.185499064    5.663904060 XXXX 1      o*      O  -0.820
H1111   24.021984762   15.382217763    5.440577076 XXXX 1      h*      H   0.410
H1112   23.991360283   16.899251768    5.343332135 XXXX 1      h*      H   0.410
end
O556     8.325650500   20.018791120   13.934965806 XXXX 1      o*      O  -0.820
H1111    7.869387853   20.674801863   14.493290767 XXXX 1      h*      H   0.410
H1112    8.455608395   20.526461923   13.100855123 XXXX 1      h*      H   0.410
end
O556    30.958089598   12.523352250   20.875547737 XXXX 1      o*      O  -0.820
H1111   30.115964392   12.205656152   20.454682317 XXXX 1      h*      H   0.410
H1112   30.994813043   13.415146883   20.415743336 XXXX 1      h*      H   0.410
end
O556    30.371294785    7.091275962   30.795854023 XXXX 1      o*      O  -0.820
H1111   30.884093165    7.735988876   30.288984139 XXXX 1      h*      H   0.410
H1112   29.928823844    7.751546152   31.334907750 XXXX 1      h*      H   0.410
end
O556     4.393054838   22.137047519    6.552926886 XXXX 1      o*      O  -0.820
H1111    3.473816382   22.031197929    6.885486995 XXXX 1      h*      H   0.410
H1112    4.346972817   22.106309481    5.578412175 XXXX 1      h*      H   0.410
end
O556    16.510047965    5.710969335    4.637561900 XXXX 1      o*      O  -0.820
H1111   16.782494876    5.516149685    5.513550548 XXXX 1      h*      H   0.410
H1112   16.718406122    6.672927111    4.551939547 XXXX 1      h*      H   0.410
end
O556    33.240815147    6.993900888   11.990454685 XXXX 1      o*      O  -0.820
H1111   33.722772581    7.391171179   12.798682551 XXXX 1      h*      H   0.410
H1112   32.310634478    6.967278572   12.298758691 XXXX 1      h*      H   0.410
end
O556    25.571692253   10.790627125   17.047783146 XXXX 1      o*      O  -0.820
H1111   25.817389747   11.562644867   17.620307246 XXXX 1      h*      H   0.410
H1112   25.906181761   11.187179198   16.206265724 XXXX 1      h*      H   0.410
end
O556    28.133755384    8.192037337   20.568177870 XXXX 1      o*      O  -0.820
H1111   27.681423772    7.912189554   21.413980106 XXXX 1      h*      H   0.410
H1112   27.369441353    8.639417578   20.229197059 XXXX 1      h*      H   0.410
end
O556     1.257964457    9.591732418   16.079956507 XXXX 1      o*      O  -0.820
H1111    1.746305914   10.161082951   15.450241632 XXXX 1      h*      H   0.410
H1112    0.782204369   10.239688862   16.631744224 XXXX 1      h*      H   0.410
end
O556    -0.420884401    8.257980530   23.654651451 XXXX 1      o*      O  -0.820
H1111   -0.309163112    7.368683526   24.059271264 XXXX 1      h*      H   0.410
H1112    0.524875848    8.395829494   23.265681738 XXXX 1      h*      H   0.410
end
O556    28.328804655    6.086050492   11.193055509 XXXX 1      o*      O  -0.820
H1111   27.687143798    6.772405427   11.451433685 XXXX 1      h*      H   0.410
H1112   27.851958722    5.276306374   11.305649552 XXXX 1      h*      H   0.410
end
O556     9.725042101   19.901688475    6.850856621 XXXX 1      o*      O  -0.820
H1111   10.013558257   20.653817629    6.330622352 XXXX 1      h*      H   0.410
H1112   10.549543294   19.471817382    7.195444886 XXXX 1      h*      H   0.410
end
O556    40.731130519   14.240511404   20.577401814 XXXX 1      o*      O  -0.820
H1111   39.851181513   14.092762190   20.112871164 XXXX 1      h*      H   0.410
H1112   41.260807341   14.261532224   19.747674991 XXXX 1      h*      H   0.410
end
O556    36.951237047   13.179089899   23.059105038 XXXX 1      o*      O  -0.820
H1111   36.262259124   13.464479623   23.705932298 XXXX 1      h*      H   0.410
H1112   36.360980180   13.291435056   22.297935612 XXXX 1      h*      H   0.410
end
O556    10.914132255    0.619330581   21.901063975 XXXX 1      o*      O  -0.820
H1111   11.203628774    1.374452691   22.442867660 XXXX 1      h*      H   0.410
H1112   10.090433530    1.068711265   21.406162803 XXXX 1      h*      H   0.410
end
O556    13.925367586    0.372971042   22.916213272 XXXX 1      o*      O  -0.820
H1111   14.427202019   -0.255013370   23.431357782 XXXX 1      h*      H   0.410
H1112   12.994257221    0.139602114   23.154723739 XXXX 1      h*      H   0.410
end
O556    10.752437515    2.490414293   14.854806310 XXXX 1      o*      O  -0.820
H1111   11.281934120    1.982219947   15.426355403 XXXX 1      h*      H   0.410
H1112   11.177061733    2.106186968   14.056672389 XXXX 1      h*      H   0.410
end
O556    45.698142534   12.553232876    5.262135405 XXXX 1      o*      O  -0.820
H1111   45.989939960   11.766096167    4.724819213 XXXX 1      h*      H   0.410
H1112   44.693104603   12.533980143    5.106941457 XXXX 1      h*      H   0.410
end
O556     5.633192069   10.651984393   18.431966639 XXXX 1      o*      O  -0.820
H1111    6.402106867   10.749886608   17.811827615 XXXX 1      h*      H   0.410
H1112    5.570809370    9.651196463   18.410213515 XXXX 1      h*      H   0.410
end
O556     9.360610333   11.230579176   23.531321859 XXXX 1      o*      O  -0.820
H1111    8.375548442   11.402902942   23.698568591 XXXX 1      h*      H   0.410
H1112    9.583421447   11.746666950   24.342791404 XXXX 1      h*      H   0.410
end
O556    17.460093170   10.526480162   19.507334377 XXXX 1      o*      O  -0.820
H1111   16.850075954   10.376411803   20.240831851 XXXX 1      h*      H   0.410
H1112   17.421358770    9.628681260   19.087109352 XXXX 1      h*      H   0.410
end
O556    15.842211066   11.805522541   25.700489192 XXXX 1      o*      O  -0.820
H1111   15.263274674   11.857887520   26.509755137 XXXX 1      h*      H   0.410
H1112   16.745197180   11.806433880   26.027450088 XXXX 1      h*      H   0.410
end
O556    16.399486750   16.345864758   16.461557215 XXXX 1      o*      O  -0.820
H1111   16.064873750   15.634061031   17.006514678 XXXX 1      h*      H   0.410
H1112   16.373703804   15.909810931   15.508827985 XXXX 1      h*      H   0.410
end
O556    15.528851982   14.144713971    8.942921833 XXXX 1      o*      O  -0.820
H1111   15.630970888   13.950799797    7.985837359 XXXX 1      h*      H   0.410
H1112   16.092874522   14.940146765    8.930091893 XXXX 1      h*      H   0.410
end
O556    26.172585161    9.107580202    8.429201336 XXXX 1      o*      O  -0.820
H1111   25.670678555    8.267589560    8.671275567 XXXX 1      h*      H   0.410
H1112   25.310733816    9.593561036    8.429145353 XXXX 1      h*      H   0.410
end
O556    15.336940119    9.137432413   21.560296505 XXXX 1      o*      O  -0.820
H1111   15.776582893    8.462136357   21.006544241 XXXX 1      h*      H   0.410
H1112   14.350571220    9.108712257   21.244662693 XXXX 1      h*      H   0.410
end
O556    17.865901714   10.295622932   27.920980279 XXXX 1      o*      O  -0.820
H1111   18.407604839    9.680920305   28.447855816 XXXX 1      h*      H   0.410
H1112   18.500409446   10.856628233   27.542289457 XXXX 1      h*      H   0.410
end
O556    43.115476309   14.944777640    5.733344460 XXXX 1      o*      O  -0.820
H1111   43.739535407   15.346900465    6.359207242 XXXX 1      h*      H   0.410
H1112   43.178380432   15.598669321    4.988038388 XXXX 1      h*      H   0.410
end
O556    22.207551638    6.385736166    1.629696367 XXXX 1      o*      O  -0.820
H1111   22.727603719    6.460618837    0.747735172 XXXX 1      h*      H   0.410
H1112   21.534482490    5.760015243    1.347646701 XXXX 1      h*      H   0.410
end
O556    30.348080151   22.330977766   22.483439956 XXXX 1      o*      O  -0.820
H1111   29.623131817   22.075140756   23.006295395 XXXX 1      h*      H   0.410
H1112   30.768732469   21.419136839   22.423886558 XXXX 1      h*      H   0.410
end
O556    31.660217335   22.401454255   25.097084573 XXXX 1      o*      O  -0.820
H1111   31.279885329   21.547199129   25.383294003 XXXX 1      h*      H   0.410
H1112   30.959588665   22.799435633   24.535261830 XXXX 1      h*      H   0.410
end
O556     6.916146614   -1.062512367    5.575161533 XXXX 1      o*      O  -0.820
H1111    7.091974975   -0.339308662    4.944262997 XXXX 1      h*      H   0.410
H1112    5.965327796   -1.038180354    5.770470844 XXXX 1      h*      H   0.410
end
O556    13.193460708   20.364149614    9.368399394 XXXX 1      o*      O  -0.820
H1111   12.376525551   19.915675130    9.532420080 XXXX 1      h*      H   0.410
H1112   13.671070996   19.600453363    9.031370246 XXXX 1      h*      H   0.410
end
O556    19.038859142   15.994570775    4.969357212 XXXX 1      o*      O  -0.820
H1111   18.591148021   15.162569354    4.750457876 XXXX 1      h*      H   0.410
H1112   18.251254802   16.620027876    4.960200230 XXXX 1      h*      H   0.410
end
O556    41.660004131    4.736600872   14.234704084 XXXX 1      o*      O  -0.820
H1111   41.829715549    5.203138605   15.102243402 XXXX 1      h*      H   0.410
H1112   42.206407470    5.254468770   13.642457428 XXXX 1      h*      H   0.410
end
O556    48.107050004    4.164653771    2.645958967 XXXX 1      o*      O  -0.820
H1111   48.575414081    3.592923699    2.036944475 XXXX 1      h*      H   0.410
H1112   48.890544525    4.565085546    3.100476470 XXXX 1      h*      H   0.410
end
O556    17.588386027   22.021706649    8.410271160 XXXX 1      o*      O  -0.820
H1111   18.536880460   22.216080981    8.269945256 XXXX 1      h*      H   0.410
H1112   17.220819636   22.073156540    7.519223276 XXXX 1      h*      H   0.410
end
O556    25.728520118    8.627891271    1.217600021 XXXX 1      o*      O  -0.820
H1111   26.308603189    7.907723755    1.485501218 XXXX 1      h*      H   0.410
H1112   24.960275166    8.011702839    1.133944592 XXXX 1      h*      H   0.410
end
O556     5.144681972   10.472717269   21.230234520 XXXX 1      o*      O  -0.820
H1111    5.174144257   11.271874769   21.739194752 XXXX 1      h*      H   0.410
H1112    5.133709345   10.877743509   20.324124591 XXXX 1      h*      H   0.410
end
O556     2.704329066    3.585844356   28.848218168 XXXX 1      o*      O  -0.820
H1111    3.459245599    3.421941925   29.431593357 XXXX 1      h*      H   0.410
H1112    2.685140127    2.664707789   28.449744647 XXXX 1      h*      H   0.410
end
O556    26.214324619   11.074152819    3.691964189 XXXX 1      o*      O  -0.820
H1111   26.994786285   11.013474332    3.157452941 XXXX 1      h*      H   0.410
H1112   26.104220228   10.081891945    3.940872589 XXXX 1      h*      H   0.410
end
O556    37.376517397    5.307712921    0.989437675 XXXX 1      o*      O  -0.820
H1111   37.303073602    4.382126944    1.337926187 XXXX 1      h*      H   0.410
H1112   36.974196827    5.198004580    0.116358460 XXXX 1      h*      H   0.410
end
O556    21.007534448   18.973345745    8.780880011 XXXX 1      o*      O  -0.820
H1111   20.771368546   18.002079789    8.743910700 XXXX 1      h*      H   0.410
H1112   20.960194314   19.190724717    9.737121443 XXXX 1      h*      H   0.410
end
O556     4.453191365    2.761752069    6.841221823 XXXX 1      o*      O  -0.820
H1111    3.876178045    2.707540319    5.991500978 XXXX 1      h*      H   0.410
H1112    4.976702475    1.948292227    6.788364618 XXXX 1      h*      H   0.410
end
O556    32.551813293   17.350494187   20.271567448 XXXX 1      o*      O  -0.820
H1111   32.296385273   18.213585411   19.898625355 XXXX 1      h*      H   0.410
H1112   32.999785167   17.002393122   19.462021978 XXXX 1      h*      H   0.410
end
O556    35.147777538   17.803938649   25.018390597 XXXX 1      o*      O  -0.820
H1111   34.563225189   17.749252998   24.195967747 XXXX 1      h*      H   0.410
H1112   34.851033250   18.721552985   25.289168420 XXXX 1      h*      H   0.410
end
O556    28.341546503    4.256288126   22.841643146 XXXX 1      o*      O  -0.820
H1111   28.671039750    4.784500718   23.613869281 XXXX 1      h*      H   0.410
H1112   28.958445908    3.570176225   22.649010709 XXXX 1      h*      H   0.410
end
O556    29.674054517    1.856424550   27.421297075 XXXX 1      o*      O  -0.820
H1111   29.329275329    2.557140754   28.017088692 XXXX 1      h*      H   0.410
H1112   29.576780784    1.108361419   28.098916188 XXXX 1      h*      H   0.410
end
O556    19.850106134   10.594320157   12.239946704 XXXX 1      o*      O  -0.820
H1111   20.265632287   11.163098076   11.548853875 XXXX 1      h*      H   0.410
H1112   19.595602943    9.815504380   11.694585346 XXXX 1      h*      H   0.410
end
O556    38.117612326   17.543866757   23.557266154 XXXX 1      o*      O  -0.820
H1111   38.804481291   16.905959440   23.397602657 XXXX 1      h*      H   0.410
H1112   37.517452471   17.008439219   24.137310354 XXXX 1      h*      H   0.410
end
O556    32.997093242   15.554223119   27.275097075 XXXX 1      o*      O  -0.820
H1111   32.364856660   15.492680630   27.994334651 XXXX 1      h*      H   0.410
H1112   33.835513431   15.792619580   27.758396989 XXXX 1      h*      H   0.410
end
O556    41.675612372    7.757257656    6.437193338 XXXX 1      o*      O  -0.820
H1111   41.997490096    8.617253884    6.722186417 XXXX 1      h*      H   0.410
H1112   42.327355421    7.492295948    5.716964367 XXXX 1      h*      H   0.410
end
O556    42.043834719    3.408885673    4.260691697 XXXX 1      o*      O  -0.820
H1111   41.414332128    3.348550768    5.042074392 XXXX 1      h*      H   0.410
H1112   42.945078011    3.404177751    4.681053050 XXXX 1      h*      H   0.410
end
O556     7.817867331   24.552961706   14.010418534 XXXX 1      o*      O  -0.820
H1111    8.829495869   24.403729236   14.001444519 XXXX 1      h*      H   0.410
H1112    7.933978317   25.481114749   13.982400604 XXXX 1      h*      H   0.410
end
O556     2.670943495   13.833698882    8.228687829 XXXX 1      o*      O  -0.820
H1111    3.005040526   12.950567985    8.045624644 XXXX 1      h*      H   0.410
H1112    3.118758745   14.160992485    9.038350006 XXXX 1      h*      H   0.410
end
O556    20.091773633   16.460511575    8.772105597 XXXX 1      o*      O  -0.820
H1111   20.124751619   15.636184199    9.304846431 XXXX 1      h*      H   0.410
H1112   19.362461277   16.916867595    9.341863231 XXXX 1      h*      H   0.410
end
O556    36.820297982   16.636704809   12.783807148 XXXX 1      o*      O  -0.820
H1111   37.513501962   17.310652162   12.528801734 XXXX 1      h*      H   0.410
H1112   36.491669571   17.159849812   13.504236542 XXXX 1      h*      H   0.410
end
O556    36.371938638   14.765827990   16.257471285 XXXX 1      o*      O  -0.820
H1111   37.211670078   14.262045774   16.171191977 XXXX 1      h*      H   0.410
H1112   35.704849290   14.076945329   15.928691692 XXXX 1      h*      H   0.410
end
O556    26.760166831    2.865323701    1.375397609 XXXX 1      o*      O  -0.820
H1111   26.115838033    2.936885453    2.124165900 XXXX 1      h*      H   0.410
H1112   27.187996298    2.049291840    1.534626719 XXXX 1      h*      H   0.410
end
O556    46.182465515   12.021506059    0.385010979 XXXX 1      o*      O  -0.820
H1111   45.841184384   12.334706789   -0.458397737 XXXX 1      h*      H   0.410
H1112   47.046131921   11.848292637    0.077255577 XXXX 1      h*      H   0.410
end
O556    44.793599171    9.487926819    4.146856077 XXXX 1      o*      O  -0.820
H1111   44.251228401    9.873773111    3.389620021 XXXX 1      h*      H   0.410
H1112   44.489698391    8.544700103    4.126398774 XXXX 1      h*      H   0.410
end
O556     0.960289106   13.772136819   23.886308433 XXXX 1      o*      O  -0.820
H1111    0.412778077   14.574720518   24.119446535 XXXX 1      h*      H   0.410
H1112    1.147918763   13.320144238   24.713468641 XXXX 1      h*      H   0.410
end
O556     4.670291626   16.576112022   25.987906883 XXXX 1      o*      O  -0.820
H1111    4.888948884   15.744649663   25.449108768 XXXX 1      h*      H   0.410
H1112    3.712308208   16.319443223   26.146344043 XXXX 1      h*      H   0.410
end
O556    17.235854942   21.269231938   14.068749149 XXXX 1      o*      O  -0.820
H1111   16.856483582   20.561472221   14.569877661 XXXX 1      h*      H   0.410
H1112   16.648776005   21.981665284   14.366676509 XXXX 1      h*      H   0.410
end
O556    45.092089589   16.224235078    7.471405371 XXXX 1      o*      O  -0.820
H1111   45.971225588   16.447437856    7.824486134 XXXX 1      h*      H   0.410
H1112   44.725138303   15.635496387    8.204263724 XXXX 1      h*      H   0.410
end
O556    26.912421795    4.050895181   17.268203779 XXXX 1      o*      O  -0.820
H1111   26.665188004    4.947793290   17.294781037 XXXX 1      h*      H   0.410
H1112   26.925342971    3.918828571   16.259077403 XXXX 1      h*      H   0.410
end
O556     3.818085788    7.240250625   16.498391087 XXXX 1      o*      O  -0.820
H1111    3.144750759    7.072986929   17.221389340 XXXX 1      h*      H   0.410
H1112    3.540715010    8.147177184   16.230496136 XXXX 1      h*      H   0.410
end
O556     2.749807532    5.509036654   20.790763256 XXXX 1      o*      O  -0.820
H1111    2.242082889    4.689082457   20.688712984 XXXX 1      h*      H   0.410
H1112    2.399377594    5.969947975   19.974515226 XXXX 1      h*      H   0.410
end
O556    48.125095495   22.169967082    1.785999759 XXXX 1      o*      O  -0.820
H1111   48.544073567   21.992087059    0.926782689 XXXX 1      h*      H   0.410
H1112   47.955238125   23.135483058    1.540411438 XXXX 1      h*      H   0.410
end
O556    34.609312019   18.036973769   10.072237476 XXXX 1      o*      O  -0.820
H1111   33.909682098   18.515358604    9.578047227 XXXX 1      h*      H   0.410
H1112   34.289223044   17.104325824   10.168059550 XXXX 1      h*      H   0.410
end
O556    40.515982895    6.362244526   11.474801577 XXXX 1      o*      O  -0.820
H1111   40.314113921    5.498408269   11.909857951 XXXX 1      h*      H   0.410
H1112   40.947569151    6.784056039   12.271485327 XXXX 1      h*      H   0.410
end
O556    18.770962898    1.456245068    0.939957964 XXXX 1      o*      O  -0.820
H1111   18.520816435    2.336604797    1.230321286 XXXX 1      h*      H   0.410
H1112   18.462172070    0.789773448    1.602020702 XXXX 1      h*      H   0.410
end
O556    12.622906366    9.929860807   12.124169226 XXXX 1      o*      O  -0.820
H1111   12.389180607   10.845182980   12.110888938 XXXX 1      h*      H   0.410
H1112   12.024482435    9.550125407   11.363315458 XXXX 1      h*      H   0.410
end
O556    36.532034852   18.252095620   21.341156694 XXXX 1      o*      O  -0.820
H1111   36.684819185   17.488802029   20.688449759 XXXX 1      h*      H   0.410
H1112   37.333181006   18.200663443   21.933532115 XXXX 1      h*      H   0.410
end
O556    38.935965044   16.957186815   26.375506020 XXXX 1      o*      O  -0.820
H1111   37.950540678   16.774580617   26.623109298 XXXX 1      h*      H   0.410
H1112   39.279837067   16.840944052   27.254933691 XXXX 1      h*      H   0.410
end
O556    26.932542306    0.597976698   19.702047353 XXXX 1      o*      O  -0.820
H1111   27.748163969    0.909711403   20.212645007 XXXX 1      h*      H   0.410
H1112   26.667204244   -0.179224139   20.204425370 XXXX 1      h*      H   0.410
end
O556    28.182316427   -0.203014278   24.702284034 XXXX 1      o*      O  -0.820
H1111   28.115359648    0.377835349   25.488282848 XXXX 1      h*      H   0.410
H1112   27.954608364   -1.094354922   25.004802978 XXXX 1      h*      H   0.410
end
O556    42.489173919   11.196289165   19.556770818 XXXX 1      o*      O  -0.820
H1111   41.948968457   11.951095497   19.189890316 XXXX 1      h*      H   0.410
H1112   41.885020000   10.946494150   20.281235359 XXXX 1      h*      H   0.410
end
O556    46.925881397   13.497703928   25.910872393 XXXX 1      o*      O  -0.820
H1111   47.279588584   12.849318895   25.209172942 XXXX 1      h*      H   0.410
H1112   46.051317632   13.716869218   25.574271398 XXXX 1      h*      H   0.410
end
O556    35.773930244    5.449097824   15.259590887 XXXX 1      o*      O  -0.820
H1111   35.191351949    5.081629782   14.504836786 XXXX 1      h*      H   0.410
H1112   35.455850477    6.372819698   15.359284826 XXXX 1      h*      H   0.410
end
O556    34.732521636    6.869478863   24.513339979 XXXX 1      o*      O  -0.820
H1111   35.242605561    7.618324253   24.192767850 XXXX 1      h*      H   0.410
H1112   34.741656214    7.025211686   25.523856538 XXXX 1      h*      H   0.410
end
O556    38.472152731   12.033506930   28.851270012 XXXX 1      o*      O  -0.820
H1111   39.079605434   12.860419573   28.970868167 XXXX 1      h*      H   0.410
H1112   37.889257511   12.324672316   28.164178443 XXXX 1      h*      H   0.410
end
O556    34.397130777   17.160819435    4.781574946 XXXX 1      o*      O  -0.820
H1111   34.064005870   18.007427694    4.415534202 XXXX 1      h*      H   0.410
H1112   33.977477723   16.597917907    4.140385100 XXXX 1      h*      H   0.410
end
O556    20.816402065   17.959269704    2.856471760 XXXX 1      o*      O  -0.820
H1111   21.617249340   17.410725187    2.952466437 XXXX 1      h*      H   0.410
H1112   21.152887280   18.693585416    2.293883211 XXXX 1      h*      H   0.410
end
O556    31.201906834   11.413032002   15.837376697 XXXX 1      o*      O  -0.820
H1111   32.106320788   11.140551928   15.968600052 XXXX 1      h*      H   0.410
H1112   31.433882464   12.043451456   15.116071061 XXXX 1      h*      H   0.410
end
O556    12.997794406    7.771878706    9.537217083 XXXX 1      o*      O  -0.820
H1111   12.425750695    7.598789309    8.747845390 XXXX 1      h*      H   0.410
H1112   12.850397761    6.979924762   10.083928818 XXXX 1      h*      H   0.410
end
O556    17.828788684   12.472792149    9.950930637 XXXX 1      o*      O  -0.820
H1111   18.389562443   12.558189155    9.160290263 XXXX 1      h*      H   0.410
H1112   16.989630194   12.847843984    9.595107918 XXXX 1      h*      H   0.410
end
O556    16.845184406   20.182215080   10.676953385 XXXX 1      o*      O  -0.820
H1111   17.110241196   20.807499364    9.981414610 XXXX 1      h*      H   0.410
H1112   16.509162222   20.657103977   11.428415558 XXXX 1      h*      H   0.410
end
O556    -0.336463572   12.614357884    8.331097541 XXXX 1      o*      O  -0.820
H1111    0.117797672   11.959414955    8.930873053 XXXX 1      h*      H   0.410
H1112    0.224007754   12.536622601    7.509706318 XXXX 1      h*      H   0.410
end
O556    35.754036166   16.196719006    0.312608161 XXXX 1      o*      O  -0.820
H1111   36.363746246   16.380183477    1.108311465 XXXX 1      h*      H   0.410
H1112   35.383726878   15.323300690    0.628907919 XXXX 1      h*      H   0.410
end
O556    15.292247690   24.750096254   16.168747486 XXXX 1      o*      O  -0.820
H1111   15.209799527   25.012648335   15.230696773 XXXX 1      h*      H   0.410
H1112   14.318301047   24.510354975   16.237218037 XXXX 1      h*      H   0.410
end
O556    14.358026996   20.094699001   21.340090524 XXXX 1      o*      O  -0.820
H1111   14.869726089   20.437421656   22.125721465 XXXX 1      h*      H   0.410
H1112   14.279498662   19.133624142   21.447842029 XXXX 1      h*      H   0.410
end
O556    39.387637318   20.602621061    4.415007016 XXXX 1      o*      O  -0.820
H1111   39.254774677   20.117914448    3.552924550 XXXX 1      h*      H   0.410
H1112   39.416364415   19.837449383    5.057866201 XXXX 1      h*      H   0.410
end
O556    26.006044480   19.784203622    7.198537956 XXXX 1      o*      O  -0.820
H1111   25.412062144   19.161609220    6.675301707 XXXX 1      h*      H   0.410
H1112   26.468354431   20.269269724    6.494931128 XXXX 1      h*      H   0.410
end
O556     4.024775729    1.280887964    9.711926652 XXXX 1      o*      O  -0.820
H1111    4.104652008    0.317722648    9.988124873 XXXX 1      h*      H   0.410
H1112    3.736677908    1.196013794    8.776543152 XXXX 1      h*      H   0.410
end
O556    15.261644908    9.287615891   10.906208892 XXXX 1      o*      O  -0.820
H1111   14.376203462    9.485439703   11.276678541 XXXX 1      h*      H   0.410
H1112   15.328679934    9.770932672   10.103058906 XXXX 1      h*      H   0.410
end
O556     0.236940460   15.358244138    8.427101499 XXXX 1      o*      O  -0.820
H1111    0.062077933   14.396264670    8.483068141 XXXX 1      h*      H   0.410
H1112    1.076550821   15.393121416    7.888657041 XXXX 1      h*      H   0.410
end
O556    17.736748063   17.901138233   13.600561443 XXXX 1      o*      O  -0.820
H1111   17.403717161   18.256390248   14.488202509 XXXX 1      h*      H   0.410
H1112   17.801381765   16.938569755   13.834126696 XXXX 1      h*      H   0.410
end
O556    14.381568410    4.721066173   19.246730571 XXXX 1      o*      O  -0.820
H1111   13.676474883    4.099264562   19.397907792 XXXX 1      h*      H   0.410
H1112   15.183738167    4.241213617   19.556090512 XXXX 1      h*      H   0.410
end
O556    13.214127860    5.913218358   27.476078817 XXXX 1      o*      O  -0.820
H1111   12.493379399    6.204684581   26.903549226 XXXX 1      h*      H   0.410
H1112   13.637319616    6.834386393   27.675075708 XXXX 1      h*      H   0.410
end
O556    10.851026368   12.345170314   20.356994768 XXXX 1      o*      O  -0.820
H1111   10.896035809   13.104419764   19.716667361 XXXX 1      h*      H   0.410
H1112   11.790940763   12.127127998   20.351826631 XXXX 1      h*      H   0.410
end
O556    10.214331586   12.914298586   25.749800382 XXXX 1      o*      O  -0.820
H1111   11.027397693   12.505611651   26.100161590 XXXX 1      h*      H   0.410
H1112   10.195388039   13.663584179   26.384468771 XXXX 1      h*      H   0.410
end
O556    42.072805628    6.179708548    1.516985843 XXXX 1      o*      O  -0.820
H1111   42.502463892    5.486588743    0.902486988 XXXX 1      h*      H   0.410
H1112   41.393917051    6.453256326    0.888349067 XXXX 1      h*      H   0.410
end
O556    45.403227507    0.536830764   14.756445443 XXXX 1      o*      O  -0.820
H1111   44.799789097   -0.207781265   14.696717578 XXXX 1      h*      H   0.410
H1112   44.786479589    1.266070610   15.001792657 XXXX 1      h*      H   0.410
end
O556    13.136797386   15.706581029    5.267817815 XXXX 1      o*      O  -0.820
H1111   13.348719263   16.566416668    5.703127041 XXXX 1      h*      H   0.410
H1112   12.420824117   15.481052727    5.936400732 XXXX 1      h*      H   0.410
end
O556     6.927757773   11.973653611    3.246736768 XXXX 1      o*      O  -0.820
H1111    7.567613462   12.010276831    3.909813413 XXXX 1      h*      H   0.410
H1112    7.438916169   11.615347689    2.479600097 XXXX 1      h*      H   0.410
end
O556    18.503025154   13.269884481   19.227987436 XXXX 1      o*      O  -0.820
H1111   18.255605163   12.351058970   18.941903176 XXXX 1      h*      H   0.410
H1112   19.227957371   12.917957165   19.846306139 XXXX 1      h*      H   0.410
end
O556    19.783810794   15.633062030   21.775575901 XXXX 1      o*      O  -0.820
H1111   19.138405224   16.303417775   22.050225872 XXXX 1      h*      H   0.410
H1112   19.322801048   14.766294079   21.881223885 XXXX 1      h*      H   0.410
end
O556    47.186930335    8.547953065   18.633762554 XXXX 1      o*      O  -0.820
H1111   46.918847720    8.877913411   19.484085623 XXXX 1      h*      H   0.410
H1112   46.333817225    8.613298527   18.090704581 XXXX 1      h*      H   0.410
end
O556    47.313580240    2.069931780   28.407531216 XXXX 1      o*      O  -0.820
H1111   47.448133985    2.770425352   27.725631641 XXXX 1      h*      H   0.410
H1112   46.704568039    1.507944484   27.851419103 XXXX 1      h*      H   0.410
end
O556    17.127952360   11.955660006    2.046056868 XXXX 1      o*      O  -0.820
H1111   17.492215744   12.832141807    1.629719097 XXXX 1      h*      H   0.410
H1112   17.066122429   11.410073457    1.194093354 XXXX 1      h*      H   0.410
end
O556    10.332316080    8.450312730   10.980517514 XXXX 1      o*      O  -0.820
H1111   10.142578723    8.479819289    9.994893350 XXXX 1      h*      H   0.410
H1112    9.408932750    8.166563375   11.325922340 XXXX 1      h*      H   0.410
end
O556    26.164008856   19.392277462   12.956417729 XXXX 1      o*      O  -0.820
H1111   25.404403889   20.037946695   13.145156790 XXXX 1      h*      H   0.410
H1112   25.823536063   18.657412061   13.487675607 XXXX 1      h*      H   0.410
end
O556    38.776507639    5.213649376   15.684558756 XXXX 1      o*      O  -0.820
H1111   38.107954806    5.888930642   15.576853269 XXXX 1      h*      H   0.410
H1112   38.434150060    4.748566564   16.478329065 XXXX 1      h*      H   0.410
end
O556    37.684937253    1.403006706   21.754482060 XXXX 1      o*      O  -0.820
H1111   37.950538157    0.806919025   20.995979188 XXXX 1      h*      H   0.410
H1112   37.412404258    2.127640371   21.129076455 XXXX 1      h*      H   0.410
end
O556    32.210288024   20.097948491   16.102842039 XXXX 1      o*      O  -0.820
H1111   32.601011304   19.384419893   15.605854979 XXXX 1      h*      H   0.410
H1112   32.741690893   20.845484957   15.788701110 XXXX 1      h*      H   0.410
end
O556    37.900003382   10.180736977    8.945160872 XXXX 1      o*      O  -0.820
H1111   38.605043718    9.534683919    8.818529815 XXXX 1      h*      H   0.410
H1112   38.326721416   11.047963541    8.976152940 XXXX 1      h*      H   0.410
end
O556    29.119553001   22.308594266   14.240512229 XXXX 1      o*      O  -0.820
H1111   29.544620032   21.542398842   14.777047363 XXXX 1      h*      H   0.410
H1112   29.978399748   22.658343334   14.025508537 XXXX 1      h*      H   0.410
end
O556    -0.545767194    8.122634421    3.645400330 XXXX 1      o*      O  -0.820
H1111   -0.868168094    8.435863943    2.801258455 XXXX 1      h*      H   0.410
H1112   -1.377153722    8.267620871    4.132782786 XXXX 1      h*      H   0.410
end
O556     6.603045447    4.729928211   16.080333718 XXXX 1      o*      O  -0.820
H1111    5.703888388    4.544044351   15.712851688 XXXX 1      h*      H   0.410
H1112    6.729394379    5.572339806   15.625096889 XXXX 1      h*      H   0.410
end
O556    10.025039663    4.420343613    8.779902188 XXXX 1      o*      O  -0.820
H1111   10.277701213    4.909042299    9.565976150 XXXX 1      h*      H   0.410
H1112   10.403183841    5.092509125    8.151919653 XXXX 1      h*      H   0.410
end
O556    43.006794243    5.973430164    8.502503687 XXXX 1      o*      O  -0.820
H1111   42.626488087    6.518149397    7.735684510 XXXX 1      h*      H   0.410
H1112   42.777964708    6.558639912    9.254376213 XXXX 1      h*      H   0.410
end
O556    23.232155217   23.261528664   16.058581475 XXXX 1      o*      O  -0.820
H1111   23.324538603   23.243765548   17.027304208 XXXX 1      h*      H   0.410
H1112   22.247624490   23.439885676   16.004876703 XXXX 1      h*      H   0.410
end
O556    20.273993785   23.108322358   23.604309206 XXXX 1      o*      O  -0.820
H1111   20.962824535   22.354099878   23.817512645 XXXX 1      h*      H   0.410
H1112   19.642130739   22.437364047   23.279994072 XXXX 1      h*      H   0.410
end
O556     6.617015493   10.008446529   13.942282671 XXXX 1      o*      O  -0.820
H1111    7.145226474    9.402812548   13.362094931 XXXX 1      h*      H   0.410
H1112    7.345668907   10.477871014   14.390129123 XXXX 1      h*      H   0.410
end
O556    39.407097203    8.778016235   19.881307886 XXXX 1      o*      O  -0.820
H1111   39.383017094    8.425493146   18.947532019 XXXX 1      h*      H   0.410
H1112   39.254835894    7.963482901   20.371039170 XXXX 1      h*      H   0.410
end
O556    44.680172028   15.864306530   -0.818548134 XXXX 1      o*      O  -0.820
H1111   45.603675618   15.453489990   -0.609390389 XXXX 1      h*      H   0.410
H1112   45.054297844   16.655746377   -1.288473025 XXXX 1      h*      H   0.410
end
O556    36.216313667   18.927870219   14.531355276 XXXX 1      o*      O  -0.820
H1111   36.598741176   19.837347915   14.523889491 XXXX 1      h*      H   0.410
H1112   36.410178890   18.671712864   15.482702072 XXXX 1      h*      H   0.410
end
O556     1.958229173   13.345946887    3.520481814 XXXX 1      o*      O  -0.820
H1111    2.590249410   12.661432605    3.699061785 XXXX 1      h*      H   0.410
H1112    1.260444201   13.047908480    4.084082978 XXXX 1      h*      H   0.410
end
O556    10.078263469   12.672486580   16.900477420 XXXX 1      o*      O  -0.820
H1111   10.140386951   13.654084548   17.068128405 XXXX 1      h*      H   0.410
H1112   10.481275393   12.776024019   15.987973820 XXXX 1      h*      H   0.410
end
O556    11.451157046   20.162765836   14.693955857 XXXX 1      o*      O  -0.820
H1111   10.686431059   19.896780251   15.201040140 XXXX 1      h*      H   0.410
H1112   11.041675833   20.449496040   13.791264523 XXXX 1      h*      H   0.410
end
O556    22.233465224    9.101061435   23.423376200 XXXX 1      o*      O  -0.820
H1111   23.080556997    8.654883437   23.649205597 XXXX 1      h*      H   0.410
H1112   22.281665204    9.316563370   22.423578080 XXXX 1      h*      H   0.410
end
O556    21.115442167   10.327944580   29.939021276 XXXX 1      o*      O  -0.820
H1111   20.383324095    9.652848296   30.046051373 XXXX 1      h*      H   0.410
H1112   21.839535806    9.872220204   30.434054413 XXXX 1      h*      H   0.410
end
O556     4.999835540   10.279342148    2.307973428 XXXX 1      o*      O  -0.820
H1111    5.551736154   10.952769124    2.824780323 XXXX 1      h*      H   0.410
H1112    4.208870438   10.402885350    2.910559901 XXXX 1      h*      H   0.410
end
O556     6.042872567   18.918522106    9.310685120 XXXX 1      o*      O  -0.820
H1111    5.109179370   18.770397037    8.985732422 XXXX 1      h*      H   0.410
H1112    6.165093454   19.845110729    9.364596383 XXXX 1      h*      H   0.410
end
O556     1.779094869   19.133311808    4.795688557 XXXX 1      o*      O  -0.820
H1111    1.346796372   18.237819053    4.745629180 XXXX 1      h*      H   0.410
H1112    1.972245689   19.171669869    3.879393776 XXXX 1      h*      H   0.410
end
O556    21.869822721   10.585365524   14.383314735 XXXX 1      o*      O  -0.820
H1111   21.511101663   10.483394547   13.507730104 XXXX 1      h*      H   0.410
H1112   22.569960010   11.253985505   14.290731692 XXXX 1      h*      H   0.410
end
O556    25.517286474   14.535945652    2.709754927 XXXX 1      o*      O  -0.820
H1111   25.893227224   14.214320369    1.857776083 XXXX 1      h*      H   0.410
H1112   24.804279726   13.852412219    2.720365214 XXXX 1      h*      H   0.410
end
O556    24.141950475    0.823722242    6.107983849 XXXX 1      o*      O  -0.820
H1111   23.649435645    0.440651710    6.881103148 XXXX 1      h*      H   0.410
H1112   25.073188989    0.868567063    6.363233382 XXXX 1      h*      H   0.410
end
O556    44.213839724   12.666153566   13.920400020 XXXX 1      o*      O  -0.820
H1111   44.411875169   11.709729921   14.020870683 XXXX 1      h*      H   0.410
H1112   43.983037555   12.660852196   12.986396574 XXXX 1      h*      H   0.410
end
O556    38.989871162    0.698271185   17.449208062 XXXX 1      o*      O  -0.820
H1111   38.356326162    1.400160626   17.457746153 XXXX 1      h*      H   0.410
H1112   39.824612420    1.050156662   17.073576673 XXXX 1      h*      H   0.410
end
O556    33.361873480    2.584532680   25.975860151 XXXX 1      o*      O  -0.820
H1111   34.236273335    2.339450746   25.701294434 XXXX 1      h*      H   0.410
H1112   32.879514931    1.781506411   25.665918520 XXXX 1      h*      H   0.410
end
O556    48.275138109   17.057590420   20.040118965 XXXX 1      o*      O  -0.820
H1111   48.366193253   16.073907919   20.178146777 XXXX 1      h*      H   0.410
H1112   49.138536272   17.199891982   19.555985218 XXXX 1      h*      H   0.410
end
O556    47.489598647   16.112745418   24.231410570 XXXX 1      o*      O  -0.820
H1111   47.769220724   16.708630715   23.562380165 XXXX 1      h*      H   0.410
H1112   46.531572318   16.368479582   24.394919368 XXXX 1      h*      H   0.410
end
O556     9.600815893   14.313119394   22.048164654 XXXX 1      o*      O  -0.820
H1111   10.009922968   13.539003719   21.677328186 XXXX 1      h*      H   0.410
H1112    8.670702445   13.906885636   22.214270837 XXXX 1      h*      H   0.410
end
O556     1.543704988   12.791229845   15.454043848 XXXX 1      o*      O  -0.820
H1111    2.480782271   12.778912176   15.097253563 XXXX 1      h*      H   0.410
H1112    1.625246918   13.659428617   15.881651689 XXXX 1      h*      H   0.410
end
O556     7.742720717    4.303567394   22.750830142 XXXX 1      o*      O  -0.820
H1111    7.917510838    5.122767951   22.153878106 XXXX 1      h*      H   0.410
H1112    7.056227993    4.755122490   23.343894642 XXXX 1      h*      H   0.410
end
O556     8.617443070   -0.175407007   24.775409873 XXXX 1      o*      O  -0.820
H1111    8.183460072   -1.028073738   24.402916446 XXXX 1      h*      H   0.410
H1112    8.132834341    0.526808775   24.288948265 XXXX 1      h*      H   0.410
end
O556    44.363129070   12.536106861    8.032110849 XXXX 1      o*      O  -0.820
H1111   44.647722473   13.015767143    7.161043669 XXXX 1      h*      H   0.410
H1112   44.001684648   11.684706912    7.642223859 XXXX 1      h*      H   0.410
end
O556    19.582389633    5.385243303    3.701492355 XXXX 1      o*      O  -0.820
H1111   20.560711707    5.684170544    3.933127970 XXXX 1      h*      H   0.410
H1112   19.130451771    6.031115223    4.259368661 XXXX 1      h*      H   0.410
end
O556    33.846986639   17.623898556   15.163277021 XXXX 1      o*      O  -0.820
H1111   33.409665712   17.018802789   14.495722445 XXXX 1      h*      H   0.410
H1112   34.660700065   17.906566416   14.621002689 XXXX 1      h*      H   0.410
end
O556     0.764257847    1.350175498   18.449205076 XXXX 1      o*      O  -0.820
H1111    0.741771044    1.070092275   17.502682450 XXXX 1      h*      H   0.410
H1112    0.251320079    0.665512340   18.952032821 XXXX 1      h*      H   0.410
end
O556     2.438750030    2.756478848   25.860573976 XXXX 1      o*      O  -0.820
H1111    2.332122968    2.025056876   26.546302213 XXXX 1      h*      H   0.410
H1112    1.514781996    2.909122461   25.672021483 XXXX 1      h*      H   0.410
end
O556    35.144199661    7.310336844    9.813882196 XXXX 1      o*      O  -0.820
H1111   34.355328204    7.293992314   10.444830363 XXXX 1      h*      H   0.410
H1112   35.231836668    8.302610183    9.765392253 XXXX 1      h*      H   0.410
end
O556    31.532431874   19.781952046   21.977073175 XXXX 1      o*      O  -0.820
H1111   31.857128153   18.863913784   22.103493152 XXXX 1      h*      H   0.410
H1112   32.258647765   20.069481256   21.409444855 XXXX 1      h*      H   0.410
end
O556    18.821741561    6.818181754   -0.383590558 XXXX 1      o*      O  -0.820
H1111   18.365665076    5.929030065   -0.535289906 XXXX 1      h*      H   0.410
H1112   18.804271693    7.104191782   -1.308663117 XXXX 1      h*      H   0.410
end
O556     6.728348455   19.338276610    2.583756752 XXXX 1      o*      O  -0.820
H1111    6.573949635   18.904629919    3.437724464 XXXX 1      h*      H   0.410
H1112    7.081169738   20.246865162    2.886290384 XXXX 1      h*      H   0.410
end
O556    29.300902738   19.862658794   16.168240154 XXXX 1      o*      O  -0.820
H1111   28.990369419   20.453265397   16.903074931 XXXX 1      h*      H   0.410
H1112   30.262999713   19.994581797   16.066194509 XXXX 1      h*      H   0.410
end
O556    31.228080398   16.739201430   25.370910624 XXXX 1      o*      O  -0.820
H1111   31.601410912   16.322002093   24.542652404 XXXX 1      h*      H   0.410
H1112   32.017294097   16.616236429   25.931705768 XXXX 1      h*      H   0.410
end
O556    50.363952678   15.195271548   14.014627905 XXXX 1      o*      O  -0.820
H1111   50.015325947   15.577677034   13.140441752 XXXX 1      h*      H   0.410
H1112   50.649171175   14.304090188   13.619556080 XXXX 1      h*      H   0.410
end
O556     9.928649561   13.694496610    6.606112120 XXXX 1      o*      O  -0.820
H1111    9.329100447   14.370627867    6.158473565 XXXX 1      h*      H   0.410
H1112   10.621768073   14.249511182    6.948120327 XXXX 1      h*      H   0.410
end
O556    41.542650791   21.748815111   15.323501931 XXXX 1      o*      O  -0.820
H1111   42.392140357   21.916054290   15.750762778 XXXX 1      h*      H   0.410
H1112   41.351519117   20.859372835   15.738854280 XXXX 1      h*      H   0.410
end
O556    46.596326238   21.579151347    7.139985939 XXXX 1      o*      O  -0.820
H1111   45.749504893   21.094336836    6.976376591 XXXX 1      h*      H   0.410
H1112   46.733863298   22.144919768    6.408024800 XXXX 1      h*      H   0.410
end
O556     1.033147845    3.248267906    7.081050396 XXXX 1      o*      O  -0.820
H1111    1.738949311    2.543411260    6.977999088 XXXX 1      h*      H   0.410
H1112    1.424281124    3.887555628    7.723010228 XXXX 1      h*      H   0.410
end
O556    33.465959436   10.796453850   18.718019281 XXXX 1      o*      O  -0.820
H1111   33.249977183   11.765644220   18.704372238 XXXX 1      h*      H   0.410
H1112   32.600820216   10.487729621   19.176681023 XXXX 1      h*      H   0.410
end
O556    38.207667540   10.666702142   24.066944802 XXXX 1      o*      O  -0.820
H1111   38.312520819   11.597634656   24.451836971 XXXX 1      h*      H   0.410
H1112   37.945917123   10.969218220   23.135627943 XXXX 1      h*      H   0.410
end
O556    45.709661773   14.696929137   14.883561023 XXXX 1      o*      O  -0.820
H1111   45.389226408   13.770713532   14.868533444 XXXX 1      h*      H   0.410
H1112   45.427147793   14.969760665   13.989397354 XXXX 1      h*      H   0.410
end
O556    22.883671443    5.113787834   15.581481852 XXXX 1      o*      O  -0.820
H1111   21.994039650    5.315925226   15.132929829 XXXX 1      h*      H   0.410
H1112   22.540596029    5.106131486   16.479530360 XXXX 1      h*      H   0.410
end
O556    32.573826447    7.274189433   21.809938121 XXXX 1      o*      O  -0.820
H1111   32.480909665    6.297027060   21.932006102 XXXX 1      h*      H   0.410
H1112   31.897875136    7.382092056   21.133279571 XXXX 1      h*      H   0.410
end
O556    34.578429972    9.767059110   27.807951501 XXXX 1      o*      O  -0.820
H1111   34.809461296   10.510388536   27.218382539 XXXX 1      h*      H   0.410
H1112   34.510644060   10.147511745   28.719701427 XXXX 1      h*      H   0.410
end
O556    26.600955514    4.563538567    8.886668888 XXXX 1      o*      O  -0.820
H1111   26.861877785    4.034998069    9.700066822 XXXX 1      h*      H   0.410
H1112   26.270900689    5.384188234    9.295959235 XXXX 1      h*      H   0.410
end
O556    33.615573028   14.549873072    4.168172092 XXXX 1      o*      O  -0.820
H1111   32.762883664   14.754718517    3.807089806 XXXX 1      h*      H   0.410
H1112   33.399326356   13.638254628    4.579862011 XXXX 1      h*      H   0.410
end
O556    32.702154121    7.855219015    7.895748146 XXXX 1      o*      O  -0.820
H1111   33.430263464    7.438276503    8.395296367 XXXX 1      h*      H   0.410
H1112   32.199944008    8.290754173    8.647961377 XXXX 1      h*      H   0.410
end
O556    36.633421074   -3.145111089   27.556103415 XXXX 1      o*      O  -0.820
H1111   36.045211943   -3.934662404   27.577555732 XXXX 1      h*      H   0.410
H1112   36.077346742   -2.611966029   26.912656898 XXXX 1      h*      H   0.410
end
O556    38.564191631    0.099445391   28.452221589 XXXX 1      o*      O  -0.820
H1111   38.514032809   -0.900644279   28.484858991 XXXX 1      h*      H   0.410
H1112   39.559417498    0.252274439   28.629748878 XXXX 1      h*      H   0.410
end
O556    31.738766784   18.957855847   11.821314910 XXXX 1      o*      O  -0.820
H1111   32.138367225   19.504600299   11.149575161 XXXX 1      h*      H   0.410
H1112   31.132266243   19.699375669   12.074583948 XXXX 1      h*      H   0.410
end
O556    11.794422745    5.278653683   13.681341019 XXXX 1      o*      O  -0.820
H1111   11.181296060    4.693691001   14.242995621 XXXX 1      h*      H   0.410
H1112   12.678030683    5.040211663   14.078232197 XXXX 1      h*      H   0.410
end
O556    33.507659002    7.942875803   14.478540364 XXXX 1      o*      O  -0.820
H1111   33.633249934    8.696909005   15.157406967 XXXX 1      h*      H   0.410
H1112   32.666117614    7.567124036   14.822264562 XXXX 1      h*      H   0.410
end
O556    40.841607788   22.936644774    3.524115176 XXXX 1      o*      O  -0.820
H1111   40.379725413   22.154341809    3.986070450 XXXX 1      h*      H   0.410
H1112   41.697315034   22.994822627    4.024050643 XXXX 1      h*      H   0.410
end
O556    46.475299117   16.459335348    4.033045098 XXXX 1      o*      O  -0.820
H1111   46.904847392   15.726158554    3.554525071 XXXX 1      h*      H   0.410
H1112   45.490671025   16.137073685    4.085625728 XXXX 1      h*      H   0.410
end
O556    22.640013768   14.880628024    1.357884877 XXXX 1      o*      O  -0.820
H1111   21.861779499   15.270373772    0.939103005 XXXX 1      h*      H   0.410
H1112   23.324110459   14.921636052    0.636378662 XXXX 1      h*      H   0.410
end
O556    15.604674185   -0.968698341    2.745505062 XXXX 1      o*      O  -0.820
H1111   16.356656732   -1.268911910    2.216183286 XXXX 1      h*      H   0.410
H1112   15.815339287   -0.013110408    2.905081076 XXXX 1      h*      H   0.410
end
O556    16.148819761    5.558656369    8.111072761 XXXX 1      o*      O  -0.820
H1111   15.182972880    5.437979077    8.032974961 XXXX 1      h*      H   0.410
H1112   16.099214392    6.556610261    7.864670104 XXXX 1      h*      H   0.410
end
O556    41.605372414   16.876439421   22.290456373 XXXX 1      o*      O  -0.820
H1111   42.404557598   16.496518548   21.848746793 XXXX 1      h*      H   0.410
H1112   40.897490415   16.223925643   22.058424597 XXXX 1      h*      H   0.410
end
O556    41.997506877   16.002759604   27.637750020 XXXX 1      o*      O  -0.820
H1111   42.929535001   15.708669857   27.644901549 XXXX 1      h*      H   0.410
H1112   41.888563709   16.027456367   26.676555734 XXXX 1      h*      H   0.410
end
O556    14.675075533   18.963975845   12.944450286 XXXX 1      o*      O  -0.820
H1111   14.407039451   18.531533558   13.849662543 XXXX 1      h*      H   0.410
H1112   15.455869622   18.339107243   12.856428375 XXXX 1      h*      H   0.410
end
O556    38.848413801    6.887382500    6.354278700 XXXX 1      o*      O  -0.820
H1111   38.752922554    6.718355935    7.267787188 XXXX 1      h*      H   0.410
H1112   39.705315846    7.288250393    6.221017683 XXXX 1      h*      H   0.410
end
O556    11.340848416   19.204481514   23.811031045 XXXX 1      o*      O  -0.820
H1111   11.042262216   20.092213300   23.909346395 XXXX 1      h*      H   0.410
H1112   11.568548312   19.214664837   24.732315258 XXXX 1      h*      H   0.410
end
O556    11.704356459   22.456014288   28.040012274 XXXX 1      o*      O  -0.820
H1111   11.561705872   23.271062574   28.541139998 XXXX 1      h*      H   0.410
H1112   12.638198901   22.256303151   28.183108058 XXXX 1      h*      H   0.410
end
O556    26.711234203    2.422574316    7.009223984 XXXX 1      o*      O  -0.820
H1111   26.590102293    1.677339911    7.664887218 XXXX 1      h*      H   0.410
H1112   26.831076088    3.150121814    7.654612870 XXXX 1      h*      H   0.410
end
O556    16.306653102    9.155802560   17.332903023 XXXX 1      o*      O  -0.820
H1111   16.123464509   10.077170358   16.914506795 XXXX 1      h*      H   0.410
H1112   15.698002292    8.596745488   16.852399406 XXXX 1      h*      H   0.410
end
O556    29.717165675   16.182561437   12.172999410 XXXX 1      o*      O  -0.820
H1111   29.014821447   15.705398578   12.696825579 XXXX 1      h*      H   0.410
H1112   29.489330435   17.123135939   12.464081278 XXXX 1      h*      H   0.410
end
O556    37.279139742    9.196580523   -0.426270885 XXXX 1      o*      O  -0.820
H1111   37.322352957    9.525303859    0.496774200 XXXX 1      h*      H   0.410
H1112   36.333189253    8.988765665   -0.539245334 XXXX 1      h*      H   0.410
end
O556     6.471432095   13.555660751   17.532301173 XXXX 1      o*      O  -0.820
H1111    7.103630610   14.347058071   17.609808899 XXXX 1      h*      H   0.410
H1112    6.585094167   13.196273750   18.426260539 XXXX 1      h*      H   0.410
end
O556     7.347694311   11.258630776   26.730730699 XXXX 1      o*      O  -0.820
H1111    7.739969517   12.093991864   26.342704539 XXXX 1      h*      H   0.410
H1112    6.386840999   11.346804058   26.746489354 XXXX 1      h*      H   0.410
end
O556    38.778380651   20.085209011   16.640997634 XXXX 1      o*      O  -0.820
H1111   38.760604751   20.935011615   17.124219571 XXXX 1      h*      H   0.410
H1112   38.903405996   19.447546112   17.357015948 XXXX 1      h*      H   0.410
end
O556    36.058460914   19.490309361   17.956673498 XXXX 1      o*      O  -0.820
H1111   35.579490439   18.618474705   18.306161805 XXXX 1      h*      H   0.410
H1112   36.957368476   19.245314537   17.667720753 XXXX 1      h*      H   0.410
end
O556     9.777466082    2.000832823    7.378894928 XXXX 1      o*      O  -0.820
H1111    9.653940359    2.835300665    7.884996893 XXXX 1      h*      H   0.410
H1112   10.409537362    1.507352289    7.983003737 XXXX 1      h*      H   0.410
end
O556    27.383411523   18.177920696   17.390199873 XXXX 1      o*      O  -0.820
H1111   27.707021971   19.003426669   16.898651994 XXXX 1      h*      H   0.410
H1112   27.053761138   18.680335682   18.133512019 XXXX 1      h*      H   0.410
end
O556    23.475165050   19.566373365   29.543331415 XXXX 1      o*      O  -0.820
H1111   23.879876824   20.226318526   30.207955838 XXXX 1      h*      H   0.410
H1112   23.842340043   18.720967132   29.903041047 XXXX 1      h*      H   0.410
end
O556     6.156725961   10.960347158   10.875056091 XXXX 1      o*      O  -0.820
H1111    5.985017105   10.211367809   11.429838728 XXXX 1      h*      H   0.410
H1112    6.121810033   10.588814368    9.934693326 XXXX 1      h*      H   0.410
end
O556    10.580134389    9.460361750   14.767811220 XXXX 1      o*      O  -0.820
H1111   10.285290681   10.330344421   15.120242146 XXXX 1      h*      H   0.410
H1112   10.291514415    9.491428158   13.862101891 XXXX 1      h*      H   0.410
end
O556    23.963279237    6.730505304   22.265927450 XXXX 1      o*      O  -0.820
H1111   23.128055473    6.291959173   22.036287629 XXXX 1      h*      H   0.410
H1112   24.645479838    6.555251942   21.502622287 XXXX 1      h*      H   0.410
end
O556    25.173246079    5.077351718   25.245217123 XXXX 1      o*      O  -0.820
H1111   24.526054031    4.369236415   25.109142592 XXXX 1      h*      H   0.410
H1112   25.134794944    5.667509175   24.501637654 XXXX 1      h*      H   0.410
end
O556     5.320664783   15.984884550   13.497767023 XXXX 1      o*      O  -0.820
H1111    5.693601602   15.198032920   13.022068520 XXXX 1      h*      H   0.410
H1112    4.351420003   15.886909634   13.620847676 XXXX 1      h*      H   0.410
end
O556    32.137580709   15.980716568   22.724645878 XXXX 1      o*      O  -0.820
H1111   32.241077702   16.440297675   21.897292389 XXXX 1      h*      H   0.410
H1112   33.198254523   15.858195238   22.923189292 XXXX 1      h*      H   0.410
end
O556    30.261416872   16.326428968   28.634567265 XXXX 1      o*      O  -0.820
H1111   30.284611689   17.331117002   28.665551253 XXXX 1      h*      H   0.410
H1112   29.710274855   16.227887412   27.799912711 XXXX 1      h*      H   0.410
end
O556     6.667669245   21.780962526   15.572762921 XXXX 1      o*      O  -0.820
H1111    5.979864239   21.401070375   16.230472167 XXXX 1      h*      H   0.410
H1112    6.259898366   22.688145747   15.421529063 XXXX 1      h*      H   0.410
end
O556     8.182355995   15.706364506    6.203789449 XXXX 1      o*      O  -0.820
H1111    8.041204306   16.608103406    5.615240147 XXXX 1      h*      H   0.410
H1112    8.070855447   16.196850046    7.081085972 XXXX 1      h*      H   0.410
end
O556    46.117766036   18.866894261   21.402968845 XXXX 1      o*      O  -0.820
H1111   46.613264539   19.732339341   21.341354615 XXXX 1      h*      H   0.410
H1112   46.944664654   18.313435660   21.452446359 XXXX 1      h*      H   0.410
end
O556    48.834080739   17.976018789   22.531324073 XXXX 1      o*      O  -0.820
H1111   49.059787117   17.801426524   21.555130116 XXXX 1      h*      H   0.410
H1112   49.312485094   18.847428535   22.716038766 XXXX 1      h*      H   0.410
end
O556    26.929551878   12.586746645   19.051222783 XXXX 1      o*      O  -0.820
H1111   27.503113464   13.216589700   18.585703282 XXXX 1      h*      H   0.410
H1112   26.686169696   13.049060941   19.892742396 XXXX 1      h*      H   0.410
end
O556    28.734765848   15.585325355   26.053738379 XXXX 1      o*      O  -0.820
H1111   29.251771948   14.797777530   26.249913780 XXXX 1      h*      H   0.410
H1112   29.414194319   16.222147522   25.651864642 XXXX 1      h*      H   0.410
end
O556    35.685026397    2.412116398   11.489173964 XXXX 1      o*      O  -0.820
H1111   35.809043768    2.717069503   10.546041432 XXXX 1      h*      H   0.410
H1112   35.402089527    3.213701950   11.886085861 XXXX 1      h*      H   0.410
end
O556    28.649580537   23.786660471    8.804391688 XXXX 1      o*      O  -0.820
H1111   28.873512084   22.798117972    8.909395074 XXXX 1      h*      H   0.410
H1112   28.486599955   23.866228304    7.816161919 XXXX 1      h*      H   0.410
end
O556    38.317929338   14.146390862   11.425306339 XXXX 1      o*      O  -0.820
H1111   37.458525854   14.152511407   10.948937819 XXXX 1      h*      H   0.410
H1112   37.968470106   14.677173928   12.199069898 XXXX 1      h*      H   0.410
end
O556     7.704221692    2.850891335   18.054318000 XXXX 1      o*      O  -0.820
H1111    7.394127472    3.333543897   17.272862891 XXXX 1      h*      H   0.410
H1112    8.231727695    3.604596229   18.395637205 XXXX 1      h*      H   0.410
end
O556    26.721539286   19.171103565   10.043544183 XXXX 1      o*      O  -0.820
H1111   26.093518278   18.779858670   10.782600665 XXXX 1      h*      H   0.410
H1112   26.047466388   19.257924070    9.280361729 XXXX 1      h*      H   0.410
end
O556     8.337910972   17.224713415    8.787850582 XXXX 1      o*      O  -0.820
H1111    7.768737854   17.968053192    9.037159461 XXXX 1      h*      H   0.410
H1112    7.882463398   16.413125386    9.169853823 XXXX 1      h*      H   0.410
end
O556     3.436715672   11.266109361    4.738805623 XXXX 1      o*      O  -0.820
H1111    3.009371243   11.234463497    5.633259396 XXXX 1      h*      H   0.410
H1112    2.785713320   10.588921218    4.307807524 XXXX 1      h*      H   0.410
end
O556    42.250924743   22.521528492    7.511419617 XXXX 1      o*      O  -0.820
H1111   42.543132779   23.413856925    7.228748552 XXXX 1      h*      H   0.410
H1112   42.577503061   21.986686503    6.743283525 XXXX 1      h*      H   0.410
end
O556     1.366942041   16.078108494    1.742296974 XXXX 1      o*      O  -0.820
H1111    1.230974978   15.985074700    0.761249709 XXXX 1      h*      H   0.410
H1112    0.855461141   15.408721934    2.181687129 XXXX 1      h*      H   0.410
end
O556    41.138842829    2.578314286   16.851275590 XXXX 1      o*      O  -0.820
H1111   40.795070115    3.298368163   17.408172384 XXXX 1      h*      H   0.410
H1112   41.671263557    2.080870510   17.481880365 XXXX 1      h*      H   0.410
end
O556    37.208378330   -1.388231991   24.556565994 XXXX 1      o*      O  -0.820
H1111   36.800250149   -0.887486277   23.866866840 XXXX 1      h*      H   0.410
H1112   36.875488248   -2.268920989   24.315469999 XXXX 1      h*      H   0.410
end
O556     5.328644881    5.173297321   19.860581876 XXXX 1      o*      O  -0.820
H1111    5.256406152    4.407948345   19.295898742 XXXX 1      h*      H   0.410
H1112    4.504281906    5.127477507   20.359379584 XXXX 1      h*      H   0.410
end
O556     8.358789318    3.691885188   26.457292140 XXXX 1      o*      O  -0.820
H1111    8.570860935    4.651916389   26.296556468 XXXX 1      h*      H   0.410
H1112    9.256010503    3.291086267   26.563240585 XXXX 1      h*      H   0.410
end
O556    24.217577949    8.644263070   16.008579389 XXXX 1      o*      O  -0.820
H1111   24.637694474    9.509474953   16.339325538 XXXX 1      h*      H   0.410
H1112   23.519823821    9.038061245   15.416426405 XXXX 1      h*      H   0.410
end
O556    30.371038274   15.785981382    3.682016737 XXXX 1      o*      O  -0.820
H1111   29.869806740   16.585726389    4.060142276 XXXX 1      h*      H   0.410
H1112   30.795441800   16.324047950    3.019390268 XXXX 1      h*      H   0.410
end
O556    19.295449576    0.000799891    3.531513446 XXXX 1      o*      O  -0.820
H1111   20.006674279   -0.302127273    2.957839639 XXXX 1      h*      H   0.410
H1112   19.781719904    0.681304243    4.041345724 XXXX 1      h*      H   0.410
end
O556    24.796218433   17.069657842   18.210807986 XXXX 1      o*      O  -0.820
H1111   25.771305255   17.262825546   18.060878359 XXXX 1      h*      H   0.410
H1112   24.492877783   17.024771805   17.256225924 XXXX 1      h*      H   0.410
end
O556    23.678446402   19.189984535   25.499448787 XXXX 1      o*      O  -0.820
H1111   22.981965141   19.348399025   26.143576285 XXXX 1      h*      H   0.410
H1112   24.118495080   18.323936305   25.780417122 XXXX 1      h*      H   0.410
end
O556    34.930171205    7.481899812    2.281095288 XXXX 1      o*      O  -0.820
H1111   35.734446157    6.867433029    2.564711562 XXXX 1      h*      H   0.410
H1112   35.459706747    8.270296787    2.068382692 XXXX 1      h*      H   0.410
end
O556    25.826100285   14.825897541   16.069225355 XXXX 1      o*      O  -0.820
H1111   25.465807622   14.643688223   16.993527410 XXXX 1      h*      H   0.410
H1112   25.558625095   13.955601657   15.683212837 XXXX 1      h*      H   0.410
end
O556    27.140721307   16.027494685   20.062377815 XXXX 1      o*      O  -0.820
H1111   27.591153195   15.320833169   20.517440198 XXXX 1      h*      H   0.410
H1112   27.186650909   16.749184968   20.757508940 XXXX 1      h*      H   0.410
end
O556    43.760435538    2.789494695   15.577090318 XXXX 1      o*      O  -0.820
H1111   42.862653844    3.203787942   15.478069114 XXXX 1      h*      H   0.410
H1112   43.618635013    2.489534890   16.506793967 XXXX 1      h*      H   0.410
end
O556    42.754484756   12.882377226    1.756786841 XXXX 1      o*      O  -0.820
H1111   41.977829386   13.518897957    1.643922228 XXXX 1      h*      H   0.410
H1112   43.349516447   13.035170796    1.046945777 XXXX 1      h*      H   0.410
end
O556     9.183712368   10.202219316    8.941874523 XXXX 1      o*      O  -0.820
H1111    8.823586473    9.335440926    9.228570727 XXXX 1      h*      H   0.410
H1112    8.435790602   10.665014341    8.538441544 XXXX 1      h*      H   0.410
end
O556    12.557635015   12.520843052    4.684536151 XXXX 1      o*      O  -0.820
H1111   11.826531091   12.755696456    5.266868790 XXXX 1      h*      H   0.410
H1112   12.966953415   13.434474462    4.773824019 XXXX 1      h*      H   0.410
end
O556    44.205801740   16.146312717   21.318737583 XXXX 1      o*      O  -0.820
H1111   44.709257900   15.306774184   21.143479313 XXXX 1      h*      H   0.410
H1112   44.867132463   16.769792966   21.677974231 XXXX 1      h*      H   0.410
end
O556    46.728046111   18.102524057   27.545284091 XXXX 1      o*      O  -0.820
H1111   47.674469358   18.294676838   27.630728834 XXXX 1      h*      H   0.410
H1112   46.383775214   18.000694317   28.475713189 XXXX 1      h*      H   0.410
end
O556    10.409751455   12.715183684    9.761318041 XXXX 1      o*      O  -0.820
H1111   10.279246405   11.782359930    9.612156470 XXXX 1      h*      H   0.410
H1112    9.615597156   13.035014722    9.266262448 XXXX 1      h*      H   0.410
end
O556    33.206579343   18.582486132    7.500561347 XXXX 1      o*      O  -0.820
H1111   32.978993498   17.644690901    7.108666525 XXXX 1      h*      H   0.410
H1112   33.577703825   19.057642838    6.657813853 XXXX 1      h*      H   0.410
end
O556     8.885653154   17.403306204   23.945113009 XXXX 1      o*      O  -0.820
H1111    9.427530410   18.038457368   23.473236194 XXXX 1      h*      H   0.410
H1112    9.635961551   16.735849428   24.081158309 XXXX 1      h*      H   0.410
end
O556    11.746356655   16.375059212   25.258350835 XXXX 1      o*      O  -0.820
H1111   12.280860885   16.465525434   24.480624737 XXXX 1      h*      H   0.410
H1112   11.903768559   17.239077713   25.696478149 XXXX 1      h*      H   0.410
end
O556     1.938076074    7.591517101   18.830836577 XXXX 1      o*      O  -0.820
H1111    0.999845090    7.619123991   18.497935672 XXXX 1      h*      H   0.410
H1112    1.895024310    8.384166291   19.426224930 XXXX 1      h*      H   0.410
end
O556     4.760592048    6.854285028   26.736189548 XXXX 1      o*      O  -0.820
H1111    5.016694749    7.803220257   26.875518034 XXXX 1      h*      H   0.410
H1112    4.515038378    6.607034913   27.647987710 XXXX 1      h*      H   0.410
end
O556    11.169672526    2.534845869    4.927297973 XXXX 1      o*      O  -0.820
H1111   12.125947734    2.624663506    5.137333652 XXXX 1      h*      H   0.410
H1112   10.931216069    2.002199375    5.664616027 XXXX 1      h*      H   0.410
end
O556    42.941520850   12.136953648    5.463689341 XXXX 1      o*      O  -0.820
H1111   42.040876793   12.071276339    5.042337370 XXXX 1      h*      H   0.410
H1112   42.748442363   12.943497022    6.030473452 XXXX 1      h*      H   0.410
end
O556    24.133399581   17.906676946   11.206248030 XXXX 1      o*      O  -0.820
H1111   24.148094912   17.419122593   12.119864473 XXXX 1      h*      H   0.410
H1112   23.312138959   18.439330428   11.227059777 XXXX 1      h*      H   0.410
end
O556     7.951262555    0.151664413   11.947709270 XXXX 1      o*      O  -0.820
H1111    7.492058257    0.670129895   11.224926677 XXXX 1      h*      H   0.410
H1112    7.630170669    0.655689266   12.700949605 XXXX 1      h*      H   0.410
end
O556    26.032129436   11.681786842   11.979267284 XXXX 1      o*      O  -0.820
H1111   25.927085305   10.735509915   12.331965959 XXXX 1      h*      H   0.410
H1112   26.339645518   11.597178711   11.084079018 XXXX 1      h*      H   0.410
end
O556    47.511058043   18.191966805    2.218358677 XXXX 1      o*      O  -0.820
H1111   47.096975088   17.753170313    3.063849044 XXXX 1      h*      H   0.410
H1112   48.371594688   17.734330212    2.032200919 XXXX 1      h*      H   0.410
end
O556    45.799518255    4.465446424   13.717561914 XXXX 1      o*      O  -0.820
H1111   45.470193798    3.920796157   12.924036343 XXXX 1      h*      H   0.410
H1112   45.327182260    4.085777679   14.481923595 XXXX 1      h*      H   0.410
end
O556    16.210311213   17.035542994    4.627686244 XXXX 1      o*      O  -0.820
H1111   15.458887687   17.359079572    5.190692104 XXXX 1      h*      H   0.410
H1112   16.519413452   17.867474560    4.229267738 XXXX 1      h*      H   0.410
end
O556    45.213983217    5.873155613   16.808281250 XXXX 1      o*      O  -0.820
H1111   45.441884513    4.995610758   17.100260179 XXXX 1      h*      H   0.410
H1112   46.107315262    6.288740659   16.724030416 XXXX 1      h*      H   0.410
end
O556    43.577851383    2.973850024   24.590823735 XXXX 1      o*      O  -0.820
H1111   43.307286574    2.471608757   25.387420050 XXXX 1      h*      H   0.410
H1112   43.560238765    2.288385887   23.913527823 XXXX 1      h*      H   0.410
end
O556    22.950912895   13.615179611   15.802161848 XXXX 1      o*      O  -0.820
H1111   23.225861522   13.614364282   16.717286085 XXXX 1      h*      H   0.410
H1112   22.290752873   12.935139943   15.969467606 XXXX 1      h*      H   0.410
end
O556    23.538178525   17.311738391   20.656627998 XXXX 1      o*      O  -0.820
H1111   23.776550509   17.498894193   19.726827597 XXXX 1      h*      H   0.410
H1112   24.313845217   16.833866553   21.036747147 XXXX 1      h*      H   0.410
end
O556    32.752364099   20.771584005   -0.053626325 XXXX 1      o*      O  -0.820
H1111   32.947532928   21.671217562    0.241135195 XXXX 1      h*      H   0.410
H1112   32.302405407   20.941815144   -0.871411835 XXXX 1      h*      H   0.410
end
O556     2.841193367   17.594931437   11.851207283 XXXX 1      o*      O  -0.820
H1111    3.658706235   17.832048253   12.323851515 XXXX 1      h*      H   0.410
H1112    2.449968681   18.491855944   11.639747532 XXXX 1      h*      H   0.410
end
O556    18.079146478    3.022852298   14.246208831 XXXX 1      o*      O  -0.820
H1111   17.661337112    3.509786998   15.016226460 XXXX 1      h*      H   0.410
H1112   17.268044433    2.654306264   13.887738955 XXXX 1      h*      H   0.410
end
O556    34.978950277    0.068040412    7.986751284 XXXX 1      o*      O  -0.820
H1111   35.784588990    0.035346342    8.542508229 XXXX 1      h*      H   0.410
H1112   35.391182448    0.163403074    7.110512790 XXXX 1      h*      H   0.410
end
O556    30.832820317    8.163398160   12.928115785 XXXX 1      o*      O  -0.820
H1111   30.582623540    7.854459436   13.864618991 XXXX 1      h*      H   0.410
H1112   30.377506318    8.994673844   12.934009658 XXXX 1      h*      H   0.410
end
O556     0.797200127    1.205702014    9.659326576 XXXX 1      o*      O  -0.820
H1111    0.055481578    1.098657424   10.279110810 XXXX 1      h*      H   0.410
H1112    1.496659115    1.285361215   10.346661702 XXXX 1      h*      H   0.410
end
O556    35.317516525    4.713549191   22.868161936 XXXX 1      o*      O  -0.820
H1111   34.953489497    4.449670972   22.005975613 XXXX 1      h*      H   0.410
H1112   34.648993852    5.347956591   23.198641621 XXXX 1      h*      H   0.410
end
O556    37.037512791    5.081785095   25.371835741 XXXX 1      o*      O  -0.820
H1111   37.016968268    4.245676864   24.819118495 XXXX 1      h*      H   0.410
H1112   36.163279181    5.393996966   25.187040858 XXXX 1      h*      H   0.410
end
O556    18.191279197   18.857259990    8.157174537 XXXX 1      o*      O  -0.820
H1111   18.255189234   19.865553330    8.308140354 XXXX 1      h*      H   0.410
H1112   19.024826566   18.618762586    7.749595609 XXXX 1      h*      H   0.410
end
O556    30.299541452    6.622161021    6.681897422 XXXX 1      o*      O  -0.820
H1111   30.321463458    5.997661818    7.476604502 XXXX 1      h*      H   0.410
H1112   31.149929916    7.051632013    6.920252153 XXXX 1      h*      H   0.410
end
O556    43.114334662    6.848819037    4.227232962 XXXX 1      o*      O  -0.820
H1111   43.900961527    6.313623159    4.340972652 XXXX 1      h*      H   0.410
H1112   42.889462876    6.680564482    3.259289097 XXXX 1      h*      H   0.410
end
O556    10.766349603   16.835136616   21.499745229 XXXX 1      o*      O  -0.820
H1111   10.273578302   16.932348562   20.633676828 XXXX 1      h*      H   0.410
H1112   10.654865571   15.871222181   21.672809617 XXXX 1      h*      H   0.410
end
O556     9.683080536   15.876303234   27.222332058 XXXX 1      o*      O  -0.820
H1111   10.497743457   16.114779273   26.706461968 XXXX 1      h*      H   0.410
H1112    9.854528761   16.532291118   27.928487580 XXXX 1      h*      H   0.410
end
O556    13.702134246   12.411780004   14.848181841 XXXX 1      o*      O  -0.820
H1111   13.418589432   11.637182491   15.454579438 XXXX 1      h*      H   0.410
H1112   12.916091307   12.377536426   14.292161691 XXXX 1      h*      H   0.410
end
O556     7.587040260   18.777204980   -1.723573365 XXXX 1      o*      O  -0.820
H1111    7.994316773   18.636020453   -2.591888847 XXXX 1      h*      H   0.410
H1112    7.802045484   17.979733412   -1.224264884 XXXX 1      h*      H   0.410
end
O556    29.490665849    9.932972205   22.476270660 XXXX 1      o*      O  -0.820
H1111   29.612578034    9.088199853   22.916396576 XXXX 1      h*      H   0.410
H1112   29.426889225    9.672062408   21.523621439 XXXX 1      h*      H   0.410
end
O556    30.002230019   13.227897788   26.970539412 XXXX 1      o*      O  -0.820
H1111   29.636284612   12.398670936   27.489454659 XXXX 1      h*      H   0.410
H1112   30.688676234   12.771650196   26.413220086 XXXX 1      h*      H   0.410
end
O556    35.754473252   22.104846232   17.075499293 XXXX 1      o*      O  -0.820
H1111   35.858913432   21.162374184   17.204307920 XXXX 1      h*      H   0.410
H1112   36.653515388   22.338925357   16.695126068 XXXX 1      h*      H   0.410
end
O556    34.468070354   21.710930652   22.426079493 XXXX 1      o*      O  -0.820
H1111   35.019633274   21.836081513   21.577214184 XXXX 1      h*      H   0.410
H1112   34.385462693   22.680863605   22.636843615 XXXX 1      h*      H   0.410
end
O556    27.419140363   16.699175732    2.093263732 XXXX 1      o*      O  -0.820
H1111   26.840295184   15.976079567    2.280293752 XXXX 1      h*      H   0.410
H1112   28.314331738   16.287190154    2.179307396 XXXX 1      h*      H   0.410
end
O556    15.131267331   14.814563418    2.885203186 XXXX 1      o*      O  -0.820
H1111   15.697453272   15.601828257    2.980526998 XXXX 1      h*      H   0.410
H1112   14.215272516   15.185301578    2.950375462 XXXX 1      h*      H   0.410
end
O556    44.133130529   17.903838917   12.401138148 XXXX 1      o*      O  -0.820
H1111   44.551511567   18.332343652   11.634981523 XXXX 1      h*      H   0.410
H1112   44.026465977   18.752429266   12.917684697 XXXX 1      h*      H   0.410
end
O556    22.105208801   19.997800306   20.516032516 XXXX 1      o*      O  -0.820
H1111   21.213498029   19.731019038   20.308081849 XXXX 1      h*      H   0.410
H1112   22.415564609   19.053447059   20.694814291 XXXX 1      h*      H   0.410
end
O556    17.854170036   21.522282902   25.895878503 XXXX 1      o*      O  -0.820
H1111   18.692903215   21.223016053   26.316731087 XXXX 1      h*      H   0.410
H1112   18.099369964   21.237485781   24.975662138 XXXX 1      h*      H   0.410
end
O556    31.621113989    6.659879305   18.366175890 XXXX 1      o*      O  -0.820
H1111   30.937535572    6.085417706   18.793238316 XXXX 1      h*      H   0.410
H1112   32.385588248    6.054206569   18.259163171 XXXX 1      h*      H   0.410
end
O556    26.667087323    7.978770321   23.021816038 XXXX 1      o*      O  -0.820
H1111   25.765905872    7.854751492   23.339384935 XXXX 1      h*      H   0.410
H1112   27.089291473    7.254882445   23.635434946 XXXX 1      h*      H   0.410
end
O556    19.025932004    5.846088253    7.316925354 XXXX 1      o*      O  -0.820
H1111   19.603397493    5.667723567    8.088020905 XXXX 1      h*      H   0.410
H1112   18.167345629    6.050005911    7.652189261 XXXX 1      h*      H   0.410
end
O556    28.452822696    7.814857038    5.130061671 XXXX 1      o*      O  -0.820
H1111   28.028540866    6.923600422    4.786376871 XXXX 1      h*      H   0.410
H1112   29.166023591    7.398865542    5.650735042 XXXX 1      h*      H   0.410
end
O556     6.403871213   10.699032794    7.639765786 XXXX 1      o*      O  -0.820
H1111    5.728054788   10.218270584    7.128170899 XXXX 1      h*      H   0.410
H1112    6.324198211   11.637982725    7.240815408 XXXX 1      h*      H   0.410
end
O556    43.545568709   16.549137727    3.446308000 XXXX 1      o*      O  -0.820
H1111   44.128085841   16.644682041    2.652700752 XXXX 1      h*      H   0.410
H1112   42.705331919   16.890483769    3.075351133 XXXX 1      h*      H   0.410
end
O556     7.299291604   -1.658319623   22.560849568 XXXX 1      o*      O  -0.820
H1111    7.997406014   -1.840326177   21.923450636 XXXX 1      h*      H   0.410
H1112    6.772703418   -2.511449607   22.507878256 XXXX 1      h*      H   0.410
end
O556    10.530655458    3.210746056   23.123513764 XXXX 1      o*      O  -0.820
H1111    9.716045967    3.695580973   23.107857366 XXXX 1      h*      H   0.410
H1112   10.657244973    2.991370875   24.057365265 XXXX 1      h*      H   0.410
end
O556    41.658265363   10.293476955    9.940631106 XXXX 1      o*      O  -0.820
H1111   41.475707393   10.108795617    8.974891296 XXXX 1      h*      H   0.410
H1112   40.920636922   10.900200192   10.114068824 XXXX 1      h*      H   0.410
end
O556    23.510729648   10.839754206    7.765684883 XXXX 1      o*      O  -0.820
H1111   22.920063752   10.925751805    6.967691364 XXXX 1      h*      H   0.410
H1112   24.281262992   11.414674342    7.562442517 XXXX 1      h*      H   0.410
end
O556    30.560005889   16.740135606   15.054705741 XXXX 1      o*      O  -0.820
H1111   30.271554028   17.638004834   15.188869178 XXXX 1      h*      H   0.410
H1112   31.050394161   16.773989800   14.174351531 XXXX 1      h*      H   0.410
end
O556    40.002396094    7.438858780   17.013207150 XXXX 1      o*      O  -0.820
H1111   40.938823099    7.784340259   16.964743672 XXXX 1      h*      H   0.410
H1112   40.191680132    6.568087640   16.594707226 XXXX 1      h*      H   0.410
end
O556    39.099877133    3.897435794   23.182452622 XXXX 1      o*      O  -0.820
H1111   38.835458325    3.214568289   23.870213813 XXXX 1      h*      H   0.410
H1112   39.481022865    3.314922591   22.430529471 XXXX 1      h*      H   0.410
end
O556    33.610047959   -0.148492001   11.875623362 XXXX 1      o*      O  -0.820
H1111   34.265154995    0.417645220   11.432494676 XXXX 1      h*      H   0.410
H1112   33.234196904   -0.663345869   11.110167423 XXXX 1      h*      H   0.410
end
O556    15.728608320    7.255086306   19.494368699 XXXX 1      o*      O  -0.820
H1111   15.174459589    6.512056950   19.202662847 XXXX 1      h*      H   0.410
H1112   15.515717580    7.947190197   18.717591842 XXXX 1      h*      H   0.410
end
O556    16.831208148    5.263154551   22.502892773 XXXX 1      o*      O  -0.820
H1111   16.813911714    4.312860256   22.314136998 XXXX 1      h*      H   0.410
H1112   15.849313624    5.535717723   22.422542505 XXXX 1      h*      H   0.410
end
O556    16.994335533   15.273501056   23.153365625 XXXX 1      o*      O  -0.820
H1111   16.498341647   14.750386314   23.762131102 XXXX 1      h*      H   0.410
H1112   16.384770623   15.387795217   22.366149544 XXXX 1      h*      H   0.410
end
O556    15.401681805   13.748408281   28.116080496 XXXX 1      o*      O  -0.820
H1111   15.195100969   14.301336597   28.862621501 XXXX 1      h*      H   0.410
H1112   16.344471955   13.923899958   28.026876242 XXXX 1      h*      H   0.410
end
O556    31.264328197   13.040354845    2.268155790 XXXX 1      o*      O  -0.820
H1111   30.943784579   13.938557897    2.286530918 XXXX 1      h*      H   0.410
H1112   30.487873296   12.578185757    1.839287843 XXXX 1      h*      H   0.410
end
O556    18.443739404   20.725880041   22.892853734 XXXX 1      o*      O  -0.820
H1111   18.514931132   19.966822016   22.255193261 XXXX 1      h*      H   0.410
H1112   18.035305739   21.441979841   22.310583113 XXXX 1      h*      H   0.410
end
O556    21.576036293   19.761850750   27.330256522 XXXX 1      o*      O  -0.820
H1111   21.882712411   19.847714986   28.283591799 XXXX 1      h*      H   0.410
H1112   21.308963750   20.688762077   27.242809845 XXXX 1      h*      H   0.410
end
O556    -0.857118112   14.162362129    2.089109937 XXXX 1      o*      O  -0.820
H1111   -0.075970881   13.588053836    1.827137167 XXXX 1      h*      H   0.410
H1112   -1.551508583   13.684181470    1.564242331 XXXX 1      h*      H   0.410
end
O556    34.780962390    4.559463365   -0.447783046 XXXX 1      o*      O  -0.820
H1111   34.293940821    3.934478363   -0.996456114 XXXX 1      h*      H   0.410
H1112   34.159050024    4.627351979    0.277467685 XXXX 1      h*      H   0.410
end
O556    11.123761141    3.207178843   -2.053156276 XXXX 1      o*      O  -0.820
H1111   11.829399987    3.811579029   -2.399853056 XXXX 1      h*      H   0.410
H1112   11.586850206    2.815962949   -1.324952640 XXXX 1      h*      H   0.410
end
O556    33.808632682   -0.410691591   14.607018537 XXXX 1      o*      O  -0.820
H1111   34.610855869    0.122183443   14.612213017 XXXX 1      h*      H   0.410
H1112   33.760140760   -0.539840765   13.574892004 XXXX 1      h*      H   0.410
end
O556    17.806071705   13.469874042   12.675027250 XXXX 1      o*      O  -0.820
H1111   17.478044103   12.597516138   12.968131304 XXXX 1      h*      H   0.410
H1112   17.675847068   13.353967073   11.702788226 XXXX 1      h*      H   0.410
end
O556    48.101811267    6.901786773   16.447458633 XXXX 1      o*      O  -0.820
H1111   48.306394988    6.770951349   15.502592169 XXXX 1      h*      H   0.410
H1112   48.247442684    7.859392339   16.418070805 XXXX 1      h*      H   0.410
end
O556    27.480496348   16.606257479    5.576070654 XXXX 1      o*      O  -0.820
H1111   26.581307506   16.345232055    5.851920923 XXXX 1      h*      H   0.410
H1112   27.242334923   17.017859493    4.743418541 XXXX 1      h*      H   0.410
end
O556    39.449650520   17.002359095   20.045421575 XXXX 1      o*      O  -0.820
H1111   40.326741964   16.741573622   19.809452964 XXXX 1      h*      H   0.410
H1112   38.959172941   16.163059147   20.232919049 XXXX 1      h*      H   0.410
end
O556    39.647248162   19.554941328   25.218523614 XXXX 1      o*      O  -0.820
H1111   38.769228402   20.030181117   25.250963923 XXXX 1      h*      H   0.410
H1112   39.266483633   18.666298233   25.295184236 XXXX 1      h*      H   0.410
end
O556     8.312175310    4.866399521   12.487739296 XXXX 1      o*      O  -0.820
H1111    7.629720628    4.389003604   12.054161722 XXXX 1      h*      H   0.410
H1112    9.055713323    4.450754317   12.025777473 XXXX 1      h*      H   0.410
end
O556     8.102301047    2.500322172   10.141598164 XXXX 1      o*      O  -0.820
H1111    8.913307089    1.958101015   10.231333104 XXXX 1      h*      H   0.410
H1112    8.188988201    3.186336062    9.474518268 XXXX 1      h*      H   0.410
end
O556    25.123536016   13.275727116   21.255001184 XXXX 1      o*      O  -0.820
H1111   25.441893846   12.651765923   21.986707950 XXXX 1      h*      H   0.410
H1112   24.235802705   13.587310461   21.544018415 XXXX 1      h*      H   0.410
end
O556    27.719433332   13.960541412   28.673250230 XXXX 1      o*      O  -0.820
H1111   28.652232626   14.027046306   28.401574173 XXXX 1      h*      H   0.410
H1112   27.282350095   13.619524756   27.836301316 XXXX 1      h*      H   0.410
end
O556    32.660267700   16.344605699   12.803290905 XXXX 1      o*      O  -0.820
H1111   32.126545433   17.028044168   12.447304288 XXXX 1      h*      H   0.410
H1112   33.042293048   15.987736377   11.966051544 XXXX 1      h*      H   0.410
end
O556    10.789998736   15.943464612   15.412056187 XXXX 1      o*      O  -0.820
H1111   10.202718608   16.733376889   15.558779793 XXXX 1      h*      H   0.410
H1112   11.429236950   15.960966506   16.189048155 XXXX 1      h*      H   0.410
end
O556    43.523069900   12.185087405   11.119738386 XXXX 1      o*      O  -0.820
H1111   43.835700192   12.350347838   10.208902666 XXXX 1      h*      H   0.410
H1112   42.801120650   11.584165081   10.947836538 XXXX 1      h*      H   0.410
end
O556    22.331234134   19.836779109   12.126027706 XXXX 1      o*      O  -0.820
H1111   21.358475439   19.851984136   12.142271213 XXXX 1      h*      H   0.410
H1112   22.522047650   20.421207021   12.937372374 XXXX 1      h*      H   0.410
end
O556    15.368719035   15.195532772   14.352786541 XXXX 1      o*      O  -0.820
H1111   14.520630126   14.673221060   14.451994469 XXXX 1      h*      H   0.410
H1112   15.436951137   15.294367894   13.334969412 XXXX 1      h*      H   0.410
end
O556    49.202663123   11.388882927   22.175179285 XXXX 1      o*      O  -0.820
H1111   48.218927255   11.448083951   22.385041156 XXXX 1      h*      H   0.410
H1112   49.532519173   11.291771756   23.116080090 XXXX 1      h*      H   0.410
end
O556    50.003584622    8.562373518   27.168639053 XXXX 1      o*      O  -0.820
H1111   50.899534273    8.159656883   27.218996859 XXXX 1      h*      H   0.410
H1112   49.584220797    7.828325024   26.623040504 XXXX 1      h*      H   0.410
end
O556     8.326530951    6.483019727    6.934295113 XXXX 1      o*      O  -0.820
H1111    7.445113359    6.119518922    6.967737483 XXXX 1      h*      H   0.410
H1112    8.610861923    5.920779685    6.181453341 XXXX 1      h*      H   0.410
end
O556    19.156055155    9.496287981    8.604464203 XXXX 1      o*      O  -0.820
H1111   18.769324912    9.699602302    7.747005132 XXXX 1      h*      H   0.410
H1112   19.649052984   10.328209250    8.775257046 XXXX 1      h*      H   0.410
end
O556    23.698842457   19.012439447    5.508990856 XXXX 1      o*      O  -0.820
H1111   22.862205789   18.675066515    5.198747462 XXXX 1      h*      H   0.410
H1112   23.916844637   19.641452965    4.752512469 XXXX 1      h*      H   0.410
end
O556    15.384548529   19.718049703    5.091293398 XXXX 1      o*      O  -0.820
H1111   16.280974792   20.089285194    5.283870050 XXXX 1      h*      H   0.410
H1112   15.416467029   20.091526399    4.165163887 XXXX 1      h*      H   0.410
end
O556    13.022181457   17.449833420    0.920420219 XXXX 1      o*      O  -0.820
H1111   12.649365073   16.743687668    1.511771581 XXXX 1      h*      H   0.410
H1112   12.580966216   18.197878044    1.416000251 XXXX 1      h*      H   0.410
end
O556    31.517391340    1.649752213    9.551085635 XXXX 1      o*      O  -0.820
H1111   30.551407305    1.656997289    9.741578192 XXXX 1      h*      H   0.410
H1112   31.666088516    2.054100281    8.708645026 XXXX 1      h*      H   0.410
end
O556    41.803039695   13.350688085   23.410561276 XXXX 1      o*      O  -0.820
H1111   41.986369620   12.808799915   22.625334343 XXXX 1      h*      H   0.410
H1112   41.672587263   12.610810514   24.069948876 XXXX 1      h*      H   0.410
end
O556    49.997557903   13.139728098   28.353364344 XXXX 1      o*      O  -0.820
H1111   49.711702817   14.017325254   27.968843354 XXXX 1      h*      H   0.410
H1112   50.114654521   13.384523697   29.287975049 XXXX 1      h*      H   0.410
end
O556    20.486187333    7.205284917   14.010809089 XXXX 1      o*      O  -0.820
H1111   20.090127719    6.647983746   14.723634711 XXXX 1      h*      H   0.410
H1112   19.698630125    7.531859897   13.500702357 XXXX 1      h*      H   0.410
end
O556    13.008363280   14.215926356   17.065320542 XXXX 1      o*      O  -0.820
H1111   13.982193634   14.353015951   17.372206994 XXXX 1      h*      H   0.410
H1112   13.124117522   13.572594273   16.308485647 XXXX 1      h*      H   0.410
end
O556    25.473608782    6.384118005   14.886809209 XXXX 1      o*      O  -0.820
H1111   25.203463947    7.327050746   15.065059421 XXXX 1      h*      H   0.410
H1112   24.600305038    5.927465407   14.978244734 XXXX 1      h*      H   0.410
end
O556     1.977385330   14.273931341   21.244953099 XXXX 1      o*      O  -0.820
H1111    1.740017434   14.339228339   22.258012967 XXXX 1      h*      H   0.410
H1112    1.618259844   13.332275839   21.168348198 XXXX 1      h*      H   0.410
end
O556     5.091431248   14.572445431   28.268922077 XXXX 1      o*      O  -0.820
H1111    5.013244950   15.450433019   27.805335387 XXXX 1      h*      H   0.410
H1112    5.534985135   14.872731349   29.124644281 XXXX 1      h*      H   0.410
end
O556    16.666835099   10.040426025   13.726582999 XXXX 1      o*      O  -0.820
H1111   15.773678589    9.706591132   13.918352693 XXXX 1      h*      H   0.410
H1112   16.502905472   10.212968885   12.779344227 XXXX 1      h*      H   0.410
end
O556    13.681692320   19.986018589    0.711990148 XXXX 1      o*      O  -0.820
H1111   14.273118411   20.479500174    1.321933668 XXXX 1      h*      H   0.410
H1112   14.247570208   20.002118207   -0.101381034 XXXX 1      h*      H   0.410
end
O556    30.926998154    8.729424882   20.073077643 XXXX 1      o*      O  -0.820
H1111   29.882126402    8.579737084   20.105592548 XXXX 1      h*      H   0.410
H1112   31.127286916    8.209066238   19.298417427 XXXX 1      h*      H   0.410
end
O556    28.810414363    6.816400160   24.049817880 XXXX 1      o*      O  -0.820
H1111   29.067039395    7.213311546   24.935754544 XXXX 1      h*      H   0.410
H1112   29.657254239    6.535471880   23.688839773 XXXX 1      h*      H   0.410
end
O556    31.796327292   19.844591079   18.917002807 XXXX 1      o*      O  -0.820
H1111   32.021543493   19.746227257   17.938985572 XXXX 1      h*      H   0.410
H1112   31.021090727   20.501610237   18.907803276 XXXX 1      h*      H   0.410
end
O556    34.076823439   18.763243159   22.667022319 XXXX 1      o*      O  -0.820
H1111   34.114427927   19.735887661   22.586614936 XXXX 1      h*      H   0.410
H1112   34.825348614   18.593763868   22.066325520 XXXX 1      h*      H   0.410
end
O556    38.636853176   10.412381669    4.780892154 XXXX 1      o*      O  -0.820
H1111   38.913873327   11.313467764    4.628115570 XXXX 1      h*      H   0.410
H1112   37.641906242   10.562610400    4.968377155 XXXX 1      h*      H   0.410
end
O556     0.614596962    4.646147429   11.358722807 XXXX 1      o*      O  -0.820
H1111   -0.365448136    5.004332297   11.378993571 XXXX 1      h*      H   0.410
H1112    0.624427511    4.098605643   12.154023331 XXXX 1      h*      H   0.410
end
O556     5.600666221    7.829939329   18.735326096 XXXX 1      o*      O  -0.820
H1111    5.713512664    6.953612222   18.284559880 XXXX 1      h*      H   0.410
H1112    4.814815024    7.694058976   19.319423413 XXXX 1      h*      H   0.410
end
O556     5.685808102    4.775696987   25.426904414 XXXX 1      o*      O  -0.820
H1111    5.309184948    5.513706014   25.957806892 XXXX 1      h*      H   0.410
H1112    6.577674562    4.759232086   25.873263945 XXXX 1      h*      H   0.410
end
O556    18.241387546   13.015682766    4.429402646 XXXX 1      o*      O  -0.820
H1111   17.615229188   12.683275098    3.764894272 XXXX 1      h*      H   0.410
H1112   19.108549413   13.099128078    3.917535046 XXXX 1      h*      H   0.410
end
O556    15.070528515   15.660462298   11.687537818 XXXX 1      o*      O  -0.820
H1111   14.271530240   15.487486076   11.162617669 XXXX 1      h*      H   0.410
H1112   15.671743077   15.949304843   10.980208295 XXXX 1      h*      H   0.410
end
O556     0.202251105    9.593081553    6.942790812 XXXX 1      o*      O  -0.820
H1111   -0.462404210    9.043884662    7.403095754 XXXX 1      h*      H   0.410
H1112    0.953349489    8.975339408    6.828411979 XXXX 1      h*      H   0.410
end
O556    28.058561180   13.516525506   12.242186648 XXXX 1      o*      O  -0.820
H1111   27.664171957   14.210848684   12.766811027 XXXX 1      h*      H   0.410
H1112   27.223374461   13.229492344   11.785844387 XXXX 1      h*      H   0.410
end
O556    28.252894486    7.266997633   14.576012875 XXXX 1      o*      O  -0.820
H1111   27.332982969    6.864305270   14.795298060 XXXX 1      h*      H   0.410
H1112   28.056294147    8.212566863   14.622266608 XXXX 1      h*      H   0.410
end
O556    32.384880234   11.625465803   10.205587768 XXXX 1      o*      O  -0.820
H1111   31.867383502   12.476099150   10.201851005 XXXX 1      h*      H   0.410
H1112   33.256446482   12.001655800    9.954991873 XXXX 1      h*      H   0.410
end
O556    26.946979174   21.052653014   17.475218064 XXXX 1      o*      O  -0.820
H1111   26.433756919   21.590888317   18.180470151 XXXX 1      h*      H   0.410
H1112   26.690084714   21.545631106   16.694037165 XXXX 1      h*      H   0.410
end
O556    24.426672340   23.913850857   27.306696334 XXXX 1      o*      O  -0.820
H1111   24.371883694   24.948479075   27.515785263 XXXX 1      h*      H   0.410
H1112   23.678501557   23.722188320   27.926333395 XXXX 1      h*      H   0.410
end
O556    19.604163713    7.610081678   10.747436405 XXXX 1      o*      O  -0.820
H1111   18.788309583    7.478538461   11.239510787 XXXX 1      h*      H   0.410
H1112   19.214602853    8.164968364    9.947121937 XXXX 1      h*      H   0.410
end
O556    13.914858213   12.146319648   20.033787046 XXXX 1      o*      O  -0.820
H1111   14.396782801   11.319481367   19.974426710 XXXX 1      h*      H   0.410
H1112   13.698952223   12.394509572   19.097657876 XXXX 1      h*      H   0.410
end
O556    12.697625101   10.716040877   24.213566008 XXXX 1      o*      O  -0.820
H1111   11.892062997   10.490864567   23.679750598 XXXX 1      h*      H   0.410
H1112   12.799659375   11.683188740   24.097589497 XXXX 1      h*      H   0.410
end
O556    46.594716562   14.344459291   20.599848902 XXXX 1      o*      O  -0.820
H1111   46.150638425   13.493318816   20.529240893 XXXX 1      h*      H   0.410
H1112   47.297219552   14.074049377   21.200932655 XXXX 1      h*      H   0.410
end
O556    49.006026406   15.464061603   26.990709918 XXXX 1      o*      O  -0.820
H1111   49.023127151   16.088379050   26.243592149 XXXX 1      h*      H   0.410
H1112   48.302733424   14.861301677   26.657086130 XXXX 1      h*      H   0.410
end
O556    29.713841592   15.866402825    7.597793787 XXXX 1      o*      O  -0.820
H1111   28.921346914   16.107795915    7.080318782 XXXX 1      h*      H   0.410
H1112   29.940980009   16.793421459    7.940634573 XXXX 1      h*      H   0.410
end
O556    15.813034014   17.013910121   19.929948597 XXXX 1      o*      O  -0.820
H1111   15.134519586   16.869193264   20.589685932 XXXX 1      h*      H   0.410
H1112   15.788730396   16.067886624   19.565012747 XXXX 1      h*      H   0.410
end
O556    15.112283548   17.017199805   26.990501011 XXXX 1      o*      O  -0.820
H1111   14.304887141   17.203425236   27.467931510 XXXX 1      h*      H   0.410
H1112   15.560515490   17.913718289   27.074477369 XXXX 1      h*      H   0.410
end
O556    43.063017748    3.163252031    7.382268119 XXXX 1      o*      O  -0.820
H1111   42.089049828    3.414514229    7.340615784 XXXX 1      h*      H   0.410
H1112   43.340824594    4.010423861    7.847248800 XXXX 1      h*      H   0.410
end
O556    39.717419782    4.704175619   18.679578206 XXXX 1      o*      O  -0.820
H1111   39.044630328    5.390438657   18.777595173 XXXX 1      h*      H   0.410
H1112   39.617037306    4.231574517   19.525974278 XXXX 1      h*      H   0.410
end
O556    40.621853681    2.712076781   20.769267979 XXXX 1      o*      O  -0.820
H1111   40.594355112    1.731410353   20.984612524 XXXX 1      h*      H   0.410
H1112   41.147518205    2.528436918   19.942159744 XXXX 1      h*      H   0.410
end
O556    39.627224935    0.910317431    8.033183107 XXXX 1      o*      O  -0.820
H1111   40.569401292    0.719219690    8.117912444 XXXX 1      h*      H   0.410
H1112   39.504112958    1.428581359    8.879725289 XXXX 1      h*      H   0.410
end
O556    40.767072814   21.735161877   11.588337028 XXXX 1      o*      O  -0.820
H1111   40.297074937   22.603729548   11.782127739 XXXX 1      h*      H   0.410
H1112   39.946090395   21.113222888   11.687980533 XXXX 1      h*      H   0.410
end
O556    45.825825633   10.636309596    9.752425641 XXXX 1      o*      O  -0.820
H1111   45.858495309   11.509989522    9.242066101 XXXX 1      h*      H   0.410
H1112   44.883819243   10.738982276   10.079229322 XXXX 1      h*      H   0.410
end
O556    40.118621564   19.144900923   22.185927245 XXXX 1      o*      O  -0.820
H1111   40.656219999   18.284909848   22.279669264 XXXX 1      h*      H   0.410
H1112   39.515956535   18.927229459   22.895526709 XXXX 1      h*      H   0.410
end
O556    40.593585960   18.368953859   28.239585781 XXXX 1      o*      O  -0.820
H1111   40.498042934   18.377418501   27.282709702 XXXX 1      h*      H   0.410
H1112   41.167014006   17.503836902   28.354964416 XXXX 1      h*      H   0.410
end
O556    44.199725179    9.347198173   -0.567955457 XXXX 1      o*      O  -0.820
H1111   44.017577154    9.081098238    0.322347672 XXXX 1      h*      H   0.410
H1112   44.831675456   10.099660844   -0.455367750 XXXX 1      h*      H   0.410
end
O556    19.620212092   21.919466083   12.718394706 XXXX 1      o*      O  -0.820
H1111   18.795903389   21.674142070   13.268473706 XXXX 1      h*      H   0.410
H1112   19.240600094   22.420372306   12.002438060 XXXX 1      h*      H   0.410
end
O556    25.099257128    8.616952510    5.061539995 XXXX 1      o*      O  -0.820
H1111   24.398649676    8.060096375    5.441366019 XXXX 1      h*      H   0.410
H1112   25.871425272    8.138706210    5.453548769 XXXX 1      h*      H   0.410
end
O556    39.799896950   15.851338028   14.179099727 XXXX 1      o*      O  -0.820
H1111   39.007639368   16.483388831   13.993005979 XXXX 1      h*      H   0.410
H1112   40.350187382   16.664762131   14.384158502 XXXX 1      h*      H   0.410
end
O556    27.957865192    6.657332160    1.217316793 XXXX 1      o*      O  -0.820
H1111   28.522768004    6.668718585    1.963589887 XXXX 1      h*      H   0.410
H1112   28.235233145    5.861951353    0.705550878 XXXX 1      h*      H   0.410
end
O556    27.933914684    3.560636925   14.386786578 XXXX 1      o*      O  -0.820
H1111   28.714244404    3.943498275   13.894705161 XXXX 1      h*      H   0.410
H1112   27.626660461    2.900367635   13.722187866 XXXX 1      h*      H   0.410
end
O556    46.253923032    4.368787809   21.920232727 XXXX 1      o*      O  -0.820
H1111   45.306003813    4.214118790   21.554485939 XXXX 1      h*      H   0.410
H1112   46.301719032    5.333758291   21.608210936 XXXX 1      h*      H   0.410
end
O556    40.686054887    2.865205767   29.881758958 XXXX 1      o*      O  -0.820
H1111   40.738232329    1.997245333   30.408341408 XXXX 1      h*      H   0.410
H1112   41.190515270    3.445322606   30.563585754 XXXX 1      h*      H   0.410
end
O556     5.553291725   18.848716387   12.566214519 XXXX 1      o*      O  -0.820
H1111    5.802306742   17.992661493   13.002250348 XXXX 1      h*      H   0.410
H1112    6.096083344   19.361054174   13.225519270 XXXX 1      h*      H   0.410
end
O556    39.926399880   15.847018733    4.875359212 XXXX 1      o*      O  -0.820
H1111   40.284469608   16.498202207    4.209075642 XXXX 1      h*      H   0.410
H1112   39.147961504   16.439424270    5.211738319 XXXX 1      h*      H   0.410
end
O556     2.373828081   22.325040143   14.571847566 XXXX 1      o*      O  -0.820
H1111    3.051311960   22.884647024   14.146018090 XXXX 1      h*      H   0.410
H1112    2.916149753   21.523401955   14.892459110 XXXX 1      h*      H   0.410
end
O556    14.593194769   21.913204497   12.270606990 XXXX 1      o*      O  -0.820
H1111   14.208534306   21.693477873   11.406420414 XXXX 1      h*      H   0.410
H1112   14.157917795   21.146566276   12.752321690 XXXX 1      h*      H   0.410
end
O556     3.813895620   -0.179627090    3.330333447 XXXX 1      o*      O  -0.820
H1111    3.326889612   -0.985168795    3.029472553 XXXX 1      h*      H   0.410
H1112    4.306543278    0.020700537    2.520723911 XXXX 1      h*      H   0.410
end
O556    20.432905531   18.381377495   15.746255665 XXXX 1      o*      O  -0.820
H1111   20.076272937   17.710443597   15.062447193 XXXX 1      h*      H   0.410
H1112   19.879905595   19.171111883   15.488079455 XXXX 1      h*      H   0.410
end
O556    37.357060425    8.149755502   15.711481340 XXXX 1      o*      O  -0.820
H1111   37.394694344    9.099648802   15.705465164 XXXX 1      h*      H   0.410
H1112   38.138312507    8.018995253   16.338608629 XXXX 1      h*      H   0.410
end
O556    45.852325769   19.813818997   10.555959174 XXXX 1      o*      O  -0.820
H1111   46.051743534   18.876042586   10.664855908 XXXX 1      h*      H   0.410
H1112   45.174283352   19.904090011    9.813400960 XXXX 1      h*      H   0.410
end
O556    50.055904189   17.590715686   15.507284456 XXXX 1      o*      O  -0.820
H1111   50.794419619   16.974300560   15.719982529 XXXX 1      h*      H   0.410
H1112   49.502712541   16.858162326   15.104768358 XXXX 1      h*      H   0.410
end
O556    20.977530920    6.861823519    5.490921024 XXXX 1      o*      O  -0.820
H1111   20.329804432    6.542146326    6.203304862 XXXX 1      h*      H   0.410
H1112   21.543632029    7.518952251    5.977860950 XXXX 1      h*      H   0.410
end
O556    16.312364831    3.254759741    9.946790064 XXXX 1      o*      O  -0.820
H1111   16.204068040    4.199221457    9.759733031 XXXX 1      h*      H   0.410
H1112   16.721280183    2.922702610    9.093572917 XXXX 1      h*      H   0.410
end
O556     5.340997505    2.164311771   15.439864945 XXXX 1      o*      O  -0.820
H1111    4.884217640    2.229386653   14.575342416 XXXX 1      h*      H   0.410
H1112    6.296803284    2.223959779   15.152917230 XXXX 1      h*      H   0.410
end
O556     7.881205044    6.187713335   20.401532716 XXXX 1      o*      O  -0.820
H1111    7.575326379    6.894965565   21.020640710 XXXX 1      h*      H   0.410
H1112    7.044787375    5.685674782   20.243832391 XXXX 1      h*      H   0.410
end
O556    10.489987766    5.710082681   28.730535898 XXXX 1      o*      O  -0.820
H1111   10.777534728    5.538160579   29.658149037 XXXX 1      h*      H   0.410
H1112   10.798497279    4.860419658   28.257604524 XXXX 1      h*      H   0.410
end
O556     2.920662287   20.073182215   22.994258040 XXXX 1      o*      O  -0.820
H1111    3.359862520   20.958927757   22.923414248 XXXX 1      h*      H   0.410
H1112    2.967764695   19.832809593   22.059013869 XXXX 1      h*      H   0.410
end
O556     4.784951929   19.656701178   27.760403554 XXXX 1      o*      O  -0.820
H1111    5.293227558   20.169858125   28.443657744 XXXX 1      h*      H   0.410
H1112    4.829973507   20.188903357   26.931125010 XXXX 1      h*      H   0.410
end
O556    45.393106116   11.783447384   19.937832093 XXXX 1      o*      O  -0.820
H1111   45.472508562   10.784654278   20.139665576 XXXX 1      h*      H   0.410
H1112   44.392007657   11.698563407   19.681254124 XXXX 1      h*      H   0.410
end
O556    44.295874494    9.889760222   24.740075429 XXXX 1      o*      O  -0.820
H1111   44.253131769    9.851240966   25.658754795 XXXX 1      h*      H   0.410
H1112   43.924657465    9.008307634   24.525464831 XXXX 1      h*      H   0.410
end
O556    39.968998349   16.840854705    8.660967824 XXXX 1      o*      O  -0.820
H1111   39.216391598   16.971827752    9.251366683 XXXX 1      h*      H   0.410
H1112   39.500368912   17.216652885    7.906245320 XXXX 1      h*      H   0.410
end
O556    12.801958589    1.076044941   16.492596692 XXXX 1      o*      O  -0.820
H1111   13.491870432    0.507551435   16.126613991 XXXX 1      h*      H   0.410
H1112   12.468531777    0.591160012   17.264893748 XXXX 1      h*      H   0.410
end
O556    43.780512447   19.927175266   22.443155464 XXXX 1      o*      O  -0.820
H1111   44.695115055   19.646242663   22.387820482 XXXX 1      h*      H   0.410
H1112   43.410213264   19.763953092   21.566154680 XXXX 1      h*      H   0.410
end
O556    44.566076215   20.329370345   26.709020118 XXXX 1      o*      O  -0.820
H1111   43.794249698   20.107425255   26.161085411 XXXX 1      h*      H   0.410
H1112   45.137310829   19.535009184   26.597570706 XXXX 1      h*      H   0.410
end
O556    12.486678399    4.626452392    2.764731408 XXXX 1      o*      O  -0.820
H1111   12.779399970    5.530356459    2.583909124 XXXX 1      h*      H   0.410
H1112   13.002972270    4.414941847    3.600152145 XXXX 1      h*      H   0.410
end
O556    42.092133364    7.827439492   13.583030091 XXXX 1      o*      O  -0.820
H1111   42.079711016    7.380259466   14.438839530 XXXX 1      h*      H   0.410
H1112   41.884200192    8.756383328   13.766110992 XXXX 1      h*      H   0.410
end
O556     4.368521933   -1.974208694   17.655748815 XXXX 1      o*      O  -0.820
H1111    4.684639884   -1.173655239   18.157352610 XXXX 1      h*      H   0.410
H1112    4.999560326   -2.725385670   17.818942690 XXXX 1      h*      H   0.410
end
O556     1.044668118   -0.690696687   24.783877713 XXXX 1      o*      O  -0.820
H1111    1.826880283   -1.287281251   24.760575000 XXXX 1      h*      H   0.410
H1112    1.248571791   -0.074979901   24.043370710 XXXX 1      h*      H   0.410
end
O556    -0.012985095    0.959161062   15.572214805 XXXX 1      o*      O  -0.820
H1111    0.457818888    0.347078958   14.933846151 XXXX 1      h*      H   0.410
H1112   -0.903171414    0.821394064   15.118359911 XXXX 1      h*      H   0.410
end
O556    43.309037563    3.957296469   20.792693589 XXXX 1      o*      O  -0.820
H1111   42.494002368    3.805748531   21.242907561 XXXX 1      h*      H   0.410
H1112   43.425068431    4.924042441   20.878343859 XXXX 1      h*      H   0.410
end
O556    38.991841184    1.882593698   25.407564207 XXXX 1      o*      O  -0.820
H1111   38.111236007    1.471972716   25.516611292 XXXX 1      h*      H   0.410
H1112   39.520902466    1.093083667   25.443902351 XXXX 1      h*      H   0.410
end
O556    16.564134597    8.550304049    3.877643000 XXXX 1      o*      O  -0.820
H1111   15.749559026    8.548052055    3.270212261 XXXX 1      h*      H   0.410
H1112   17.339953513    8.609473066    3.345901825 XXXX 1      h*      H   0.410
end
O556     4.815515012   18.997213182    5.279361303 XXXX 1      o*      O  -0.820
H1111    4.199179607   18.861410146    4.559919780 XXXX 1      h*      H   0.410
H1112    4.287081684   18.821579716    6.046856665 XXXX 1      h*      H   0.410
end
O556    15.348313733    7.627982453   27.239409735 XXXX 1      o*      O  -0.820
H1111   15.420718707    7.193473828   26.338789869 XXXX 1      h*      H   0.410
H1112   15.254332151    8.551565203   26.943818726 XXXX 1      h*      H   0.410
end
O556    23.389742499   16.882032454    3.164681876 XXXX 1      o*      O  -0.820
H1111   24.211541117   16.475758699    3.518637678 XXXX 1      h*      H   0.410
H1112   23.085871664   16.049275637    2.648219060 XXXX 1      h*      H   0.410
end
O556    33.186550586   15.559164810    9.926936999 XXXX 1      o*      O  -0.820
H1111   32.375257320   15.057044092    9.588451738 XXXX 1      h*      H   0.410
H1112   33.492645110   15.903024588    9.052836445 XXXX 1      h*      H   0.410
end
O556    25.301199489    2.863435837   19.553826792 XXXX 1      o*      O  -0.820
H1111   25.899928855    3.083432801   18.831074936 XXXX 1      h*      H   0.410
H1112   25.753057816    1.972731551   19.795901947 XXXX 1      h*      H   0.410
end
O556    26.079231475    5.315291430   20.847088309 XXXX 1      o*      O  -0.820
H1111   25.889761884    4.495453289   20.393817180 XXXX 1      h*      H   0.410
H1112   26.604078974    5.007050833   21.596293258 XXXX 1      h*      H   0.410
end
O556    12.354778611   11.217444178    2.321381580 XXXX 1      o*      O  -0.820
H1111   12.811257298   11.603230198    3.156263277 XXXX 1      h*      H   0.410
H1112   11.705924422   10.615035758    2.802530589 XXXX 1      h*      H   0.410
end
O556    22.736244869    1.443238479    9.508112168 XXXX 1      o*      O  -0.820
H1111   23.426391085    0.736580908    9.523905972 XXXX 1      h*      H   0.410
H1112   22.468573944    1.455845601   10.463918960 XXXX 1      h*      H   0.410
end
O556    33.732947189    4.339826628    2.256456569 XXXX 1      o*      O  -0.820
H1111   33.975222563    5.171875720    2.622014911 XXXX 1      h*      H   0.410
H1112   34.156170988    3.678961989    2.780218726 XXXX 1      h*      H   0.410
end
O556     0.002027123    6.423990368    6.228706629 XXXX 1      o*      O  -0.820
H1111   -0.244970971    6.420176704    5.263805396 XXXX 1      h*      H   0.410
H1112    0.939707616    6.162175554    6.150268079 XXXX 1      h*      H   0.410
end
O556    31.369206281    3.024523481    7.149321624 XXXX 1      o*      O  -0.820
H1111   31.974618601    3.853785743    6.944860628 XXXX 1      h*      H   0.410
H1112   30.502024393    3.403426039    7.391193824 XXXX 1      h*      H   0.410
end
O556    10.879866287   12.413871107   13.555376029 XXXX 1      o*      O  -0.820
H1111   10.548451824   13.263757002   13.190303569 XXXX 1      h*      H   0.410
H1112   10.096931037   11.888552299   13.289121013 XXXX 1      h*      H   0.410
end
O556    14.384127935   14.761162554   21.577283692 XXXX 1      o*      O  -0.820
H1111   14.174126333   14.294838499   22.429005927 XXXX 1      h*      H   0.410
H1112   14.206873062   13.973257272   20.944954454 XXXX 1      h*      H   0.410
end
O556    24.996467679   14.691582916   10.959440988 XXXX 1      o*      O  -0.820
H1111   25.093395447   15.421124541   11.575816105 XXXX 1      h*      H   0.410
H1112   24.309631789   14.964356251   10.302585060 XXXX 1      h*      H   0.410
end
O556     6.149862635   17.206981075   16.004954520 XXXX 1      o*      O  -0.820
H1111    5.564202324   16.875768186   16.774636315 XXXX 1      h*      H   0.410
H1112    5.807320999   16.863415742   15.153012322 XXXX 1      h*      H   0.410
end
O556    12.800035849   13.651564182   11.338820439 XXXX 1      o*      O  -0.820
H1111   13.065632246   14.285243056   12.060055228 XXXX 1      h*      H   0.410
H1112   11.852419251   13.878936728   11.306558802 XXXX 1      h*      H   0.410
end
O556    21.328388126   17.008827357    6.063899295 XXXX 1      o*      O  -0.820
H1111   21.072773061   16.700861815    6.942218844 XXXX 1      h*      H   0.410
H1112   20.651539138   16.497458752    5.580802966 XXXX 1      h*      H   0.410
end
O556    41.973354730   13.818860170   15.106964516 XXXX 1      o*      O  -0.820
H1111   41.535628681   13.770668754   14.255617444 XXXX 1      h*      H   0.410
H1112   42.859648367   13.406530351   14.789104104 XXXX 1      h*      H   0.410
end
O556    39.777550326    2.952278267   10.025380250 XXXX 1      o*      O  -0.820
H1111   39.370962869    3.367274028   10.809492952 XXXX 1      h*      H   0.410
H1112   40.740780163    3.384885550   10.030173607 XXXX 1      h*      H   0.410
end
O556    29.576701773    5.911930551   20.242079050 XXXX 1      o*      O  -0.820
H1111   29.364426811    5.340011588   21.039573955 XXXX 1      h*      H   0.410
H1112   29.196567040    6.733246975   20.488196629 XXXX 1      h*      H   0.410
end
O556    42.217887491    2.699341358   12.108013214 XXXX 1      o*      O  -0.820
H1111   42.761420906    3.509868380   12.016809260 XXXX 1      h*      H   0.410
H1112   41.375084021    3.092169783   12.477535777 XXXX 1      h*      H   0.410
end
O556    15.458422322   10.954253397    7.322638678 XXXX 1      o*      O  -0.820
H1111   14.641540375   11.372831897    7.637737976 XXXX 1      h*      H   0.410
H1112   15.395512558   11.058775551    6.362844317 XXXX 1      h*      H   0.410
end
O556     2.871138531   10.700643383    8.011759451 XXXX 1      o*      O  -0.820
H1111    3.095529244   10.059667641    8.697911545 XXXX 1      h*      H   0.410
H1112    1.864332514   10.716406925    8.177874844 XXXX 1      h*      H   0.410
end
O556     7.971738145   18.456586455    5.455641452 XXXX 1      o*      O  -0.820
H1111    7.129500356   18.983701164    5.615742409 XXXX 1      h*      H   0.410
H1112    8.550101548   19.069152023    6.020162691 XXXX 1      h*      H   0.410
end
O556    24.878795641    2.894119106    3.548612515 XXXX 1      o*      O  -0.820
H1111   23.959886651    2.664887216    3.325633863 XXXX 1      h*      H   0.410
H1112   24.887719341    2.727859771    4.521965092 XXXX 1      h*      H   0.410
end
O556     8.877388186   11.523919416    5.410527527 XXXX 1      o*      O  -0.820
H1111    9.231743400   12.285825794    5.926573772 XXXX 1      h*      H   0.410
H1112    8.149329811   11.236170432    6.021574064 XXXX 1      h*      H   0.410
end
O556    36.248406120   10.317331824   19.942980727 XXXX 1      o*      O  -0.820
H1111   36.377054881    9.313334519   20.297909723 XXXX 1      h*      H   0.410
H1112   35.248114578   10.337972529   20.106106731 XXXX 1      h*      H   0.410
end
O556    35.073710010   13.014357256   20.883830161 XXXX 1      o*      O  -0.820
H1111   34.156863468   13.312342730   20.577580610 XXXX 1      h*      H   0.410
H1112   35.094123592   12.052495214   20.639682507 XXXX 1      h*      H   0.410
end
O556    39.628525811   23.467766905   14.463505347 XXXX 1      o*      O  -0.820
H1111   40.329567609   22.752608638   14.656202443 XXXX 1      h*      H   0.410
H1112   40.159953315   24.316829426   14.600757874 XXXX 1      h*      H   0.410
end
O556     3.668326022   19.819095070   14.928601667 XXXX 1      o*      O  -0.820
H1111    3.223712148   18.981026334   14.779178473 XXXX 1      h*      H   0.410
H1112    3.922060330   19.682098358   15.849025632 XXXX 1      h*      H   0.410
end
O556     2.668372038   19.930067769   20.384808382 XXXX 1      o*      O  -0.820
H1111    3.127797506   20.756780241   20.104777530 XXXX 1      h*      H   0.410
H1112    2.706872515   19.457568583   19.531389526 XXXX 1      h*      H   0.410
end
O556    19.074536393   12.896105192    7.139655507 XXXX 1      o*      O  -0.820
H1111   19.793380221   13.480168940    7.297130570 XXXX 1      h*      H   0.410
H1112   18.665320871   13.126896560    6.270413521 XXXX 1      h*      H   0.410
end
O556    37.546073578   21.528929919   14.468857783 XXXX 1      o*      O  -0.820
H1111   38.158962461   22.248909396   14.239975514 XXXX 1      h*      H   0.410
H1112   38.129901114   21.095888906   15.120289367 XXXX 1      h*      H   0.410
end
O556     8.613552488   15.301935877   17.501235147 XXXX 1      o*      O  -0.820
H1111    8.871746017   16.202327648   17.284706153 XXXX 1      h*      H   0.410
H1112    9.095698618   15.258634115   18.397477073 XXXX 1      h*      H   0.410
end
O556    12.702160657   13.479629254   23.688291090 XXXX 1      o*      O  -0.820
H1111   13.349362580   14.074229061   24.168021865 XXXX 1      h*      H   0.410
H1112   11.935889029   13.901603054   24.091329056 XXXX 1      h*      H   0.410
end
O556    43.825596889   20.804267585   13.203325299 XXXX 1      o*      O  -0.820
H1111   42.898789202   21.190463838   13.166432479 XXXX 1      h*      H   0.410
H1112   44.146485575   21.320495827   12.403042182 XXXX 1      h*      H   0.410
end
O556    43.877867878    0.604029037    2.352376368 XXXX 1      o*      O  -0.820
H1111   44.564716452   -0.079289160    2.492524421 XXXX 1      h*      H   0.410
H1112   44.238643906    1.455389194    2.651832733 XXXX 1      h*      H   0.410
end
O556    -0.605487683   -0.387523277   12.456487587 XXXX 1      o*      O  -0.820
H1111   -1.180262311   -1.067307909   12.948238404 XXXX 1      h*      H   0.410
H1112   -1.304589319    0.186436714   12.168948537 XXXX 1      h*      H   0.410
end
O556    -2.112414104    1.584820463    8.901681644 XXXX 1      o*      O  -0.820
H1111   -1.605428776    1.239814833    8.145833062 XXXX 1      h*      H   0.410
H1112   -2.594316288    0.838597754    9.346570146 XXXX 1      h*      H   0.410
end
O556    33.119085762   15.786786765    6.994208153 XXXX 1      o*      O  -0.820
H1111   33.384770647   15.935828257    6.100125941 XXXX 1      h*      H   0.410
H1112   32.405388122   15.166938181    6.777223356 XXXX 1      h*      H   0.410
end
O556    27.010290185   19.617982252    1.888819737 XXXX 1      o*      O  -0.820
H1111   27.240726404   18.688854894    2.003583847 XXXX 1      h*      H   0.410
H1112   26.666831341   19.701681761    0.932224804 XXXX 1      h*      H   0.410
end
O556    15.789813344    5.770366967    1.225798428 XXXX 1      o*      O  -0.820
H1111   15.593351277    6.313938123    0.441044598 XXXX 1      h*      H   0.410
H1112   16.514619838    5.197474160    0.966230965 XXXX 1      h*      H   0.410
end
O556    43.980487569   18.540694849    8.961620083 XXXX 1      o*      O  -0.820
H1111   43.102315644   18.802686238    9.201035481 XXXX 1      h*      H   0.410
H1112   43.784035689   17.708482554    8.465528411 XXXX 1      h*      H   0.410
end
O556    14.166961812   21.387914346   15.103233749 XXXX 1      o*      O  -0.820
H1111   13.290957913   21.073203949   14.762951140 XXXX 1      h*      H   0.410
H1112   14.490144270   20.474916009   15.286841228 XXXX 1      h*      H   0.410
end
O556    16.095006440   23.981632392   25.076297540 XXXX 1      o*      O  -0.820
H1111   15.914178376   24.091678963   24.116288094 XXXX 1      h*      H   0.410
H1112   16.537463347   23.095978797   25.227627650 XXXX 1      h*      H   0.410
end
O556    20.564592015   25.690797301   12.588922285 XXXX 1      o*      O  -0.820
H1111   19.752374610   26.213443192   12.854170347 XXXX 1      h*      H   0.410
H1112   20.213404177   24.753523846   12.729869651 XXXX 1      h*      H   0.410
end
O556    32.359583114    0.545684556    6.357705842 XXXX 1      o*      O  -0.820
H1111   31.899259169    1.276876908    6.878745588 XXXX 1      h*      H   0.410
H1112   33.248511678    0.482869747    6.793711421 XXXX 1      h*      H   0.410
end
O556    28.821581857    9.923178801    3.229467887 XXXX 1      o*      O  -0.820
H1111   28.634276264    9.593515070    4.111524275 XXXX 1      h*      H   0.410
H1112   29.800937383   10.168082450    3.444953131 XXXX 1      h*      H   0.410
end
end
