LAMMPS data file. msi2lmp v3.9.6 / 11 Sep 2014 / CGCMM for Tob14_100_water_only_cV07_r00

   3000 atoms
   2000 bonds
   1000 angles
      0 dihedrals
      0 impropers

   2 atom types
   1 bond types
   1 angle types

     0.104774782    48.104774782 xlo xhi
     0.256826698    22.531826698 ylo yhi
     0.339502622    28.326502622 zlo zhi

Masses

   1  15.999400 # o*
   2   1.007970 # h*

Pair Coeffs # lj/cut/coul/long

   1   0.1554164124   3.1655200879 # o*
   2   0.0000000000   0.0000000000 # h*

Bond Coeffs # harmonic

   1   540.6336     0.9600 # o*-h*

Angle Coeffs # harmonic

   1    50.0000   104.5000 # h*-o*-h*

Atoms # full

      1      1   1 -0.820000    43.505823867    16.367616294    15.751711997   0   0   0 # o*
      2      1   2  0.410000    42.846919992    15.629337761    15.580182387   0   0   0 # h*
      3      1   2  0.410000    44.295382660    16.264715837    15.130885772   0   0   0 # h*
      4      1   1 -0.820000    38.774407171    13.488674741    15.357646474   0   0   0 # o*
      5      1   2  0.410000    39.115587033    14.116195350    14.694050207   0   0   0 # h*
      6      1   2  0.410000    39.625714115    13.316944110    15.749986970   0   0   0 # h*
      7      1   1 -0.820000    35.316836641    13.453536830     0.949416310   0   0   0 # o*
      8      1   2  0.410000    34.414185108    13.191350476     1.094425463   0   0   0 # h*
      9      1   2  0.410000    35.742382972    12.670897115     0.568455394   0   0   0 # h*
     10      1   1 -0.820000    24.764147831    16.834778576    13.912840103   0   0   0 # o*
     11      1   2  0.410000    24.114654058    17.228456310    14.517569647   0   0   0 # h*
     12      1   2  0.410000    25.265914306    16.306951567    14.534492665   0   0   0 # h*
     13      1   1 -0.820000    21.818284307    20.972106906    24.189459463   0   0   0 # o*
     14      1   2  0.410000    22.601903282    20.792208990    24.752134136   0   0   0 # h*
     15      1   2  0.410000    21.360281029    20.133536996    24.216821723   0   0   0 # h*
     16      1   1 -0.820000    44.096106195     2.915724166    18.393765095   0   0   0 # o*
     17      1   2  0.410000    43.724894028     3.559533077    19.022021717   0   0   0 # h*
     18      1   2  0.410000    44.056569544     2.056693966    18.936141895   0   0   0 # h*
     19      1   1 -0.820000    43.923229443     0.562471957    26.793205188   0   0   0 # o*
     20      1   2  0.410000    43.106368605     0.316554839    27.358816596   0   0   0 # h*
     21      1   2  0.410000    44.476143876    22.138620938    27.094638287   0  -1   0 # h*
     22      1   1 -0.820000    39.773081976     8.069102983     2.718749602   0   0   0 # o*
     23      1   2  0.410000    40.114510348     8.575116173     3.506261899   0   0   0 # h*
     24      1   2  0.410000    39.078817355     8.680278848     2.452022695   0   0   0 # h*
     25      1   1 -0.820000     4.888241801     3.074942454     2.532506444   0   0   0 # o*
     26      1   2  0.410000     5.490724979     2.401215972     2.107777723   0   0   0 # h*
     27      1   2  0.410000     5.461700772     3.427958148     3.160367883   0   0   0 # h*
     28      1   1 -0.820000    14.761777009     9.570982687     1.842267181   0   0   0 # o*
     29      1   2  0.410000    14.165334941    10.330279565     1.833335026   0   0   0 # h*
     30      1   2  0.410000    14.579610141     9.150202061     0.999990080   0   0   0 # h*
     31      1   1 -0.820000    43.258302253     0.928581773    22.704619099   0   1   0 # o*
     32      1   2  0.410000    43.326986139    22.210073635    22.801008287   0   0   0 # h*
     33      1   2  0.410000    42.422987998     0.996469964    22.193713817   0   1   0 # h*
     34      1   1 -0.820000     1.522050516    19.218562778    27.538061232   1   0   0 # o*
     35      1   2  0.410000     1.087594060    19.589627176    26.730923095   1   0   0 # h*
     36      1   2  0.410000     2.390859015    18.973193059    27.177075979   1   0   0 # h*
     37      1   1 -0.820000    47.993790166    11.710863740    13.408711558  -1   0   0 # o*
     38      1   2  0.410000    47.465557416    11.104711034    13.940697991  -1   0   0 # h*
     39      1   2  0.410000     0.530588731    11.988800539    14.173828432   0   0   0 # h*
     40      1   1 -0.820000     2.338846017    10.837696297    24.952537991   0   0   0 # o*
     41      1   2  0.410000     2.723169926    11.274744706    25.741069381   0   0   0 # h*
     42      1   2  0.410000     2.014524225    10.020357271    25.460564049   0   0   0 # h*
     43      1   1 -0.820000    16.816672965    17.234890868    10.040535406   0   0   0 # o*
     44      1   2  0.410000    16.603422840    18.092138314    10.568885658   0   0   0 # h*
     45      1   2  0.410000    17.105484909    17.631246570     9.227461574   0   0   0 # h*
     46      1   1 -0.820000    46.259284331     4.416956171     7.998483468   0   0   0 # o*
     47      1   2  0.410000    46.354730229     3.559088551     8.380617746   0   0   0 # h*
     48      1   2  0.410000    46.905086561     4.472893169     7.289935854   0   0   0 # h*
     49      1   1 -0.820000    14.462989049     2.989301711    22.087294568   0   1   0 # o*
     50      1   2  0.410000    14.099147372     3.235769961    22.954421544   0   1   0 # h*
     51      1   2  0.410000    14.106169788     2.020018743    22.110077146   0   1   0 # h*
     52      1   1 -0.820000    15.927370730     1.266034775    28.128601902   0   1   0 # o*
     53      1   2  0.410000    16.061791004     1.521357911    27.183044322   0   1   0 # h*
     54      1   2  0.410000    16.849173624     1.161092302     0.492740618   0   1   1 # h*
     55      1   1 -0.820000    42.582720109    18.953497709    15.387201368   0   0   0 # o*
     56      1   2  0.410000    43.344751471    19.524312822    15.680474675   0   0   0 # h*
     57      1   2  0.410000    42.955288288    18.029633377    15.480191589   0   0   0 # h*
     58      1   1 -0.820000    33.657877229     2.600583499    22.222976096   0   0   0 # o*
     59      1   2  0.410000    33.768968715     2.137322539    21.372614820   0   0   0 # h*
     60      1   2  0.410000    33.231851834     3.444441960    22.056363903   0   0   0 # h*
     61      1   1 -0.820000    35.568982522    22.461872757    27.741484142   0  -1   0 # o*
     62      1   2  0.410000    35.299181135     0.372665977     0.699698338   0   0   1 # h*
     63      1   2  0.410000    36.499389620     0.395764857    27.741086655   0   0   0 # h*
     64      1   1 -0.820000     1.832702333    14.851119341    17.447221282   1   0   0 # o*
     65      1   2  0.410000     2.301216621    14.390023489    18.207683653   1   0   0 # h*
     66      1   2  0.410000     0.919693039    14.814283841    17.688252117   1   0   0 # h*
     67      1   1 -0.820000    44.704397361    17.566982874    24.904289375   0   0   0 # o*
     68      1   2  0.410000    44.616927662    18.353121450    24.308006314   0   0   0 # h*
     69      1   2  0.410000    43.815473952    17.097242917    24.779393249   0   0   0 # h*
     70      1   1 -0.820000    26.986883102     6.643312102    18.169223787   0   0   0 # o*
     71      1   2  0.410000    26.167288401     7.177710165    18.150395732   0   0   0 # h*
     72      1   2  0.410000    27.146136118     6.335930775    19.084681863   0   0   0 # h*
     73      1   1 -0.820000    45.196075457     9.849851583    15.325208117   0   0   0 # o*
     74      1   2  0.410000    45.369301357     9.063581110    14.805291793   0   0   0 # h*
     75      1   2  0.410000    44.365847680     9.598057165    15.792434093   0   0   0 # h*
     76      1   1 -0.820000    44.732878648    14.482425174    24.447448851   0   0   0 # o*
     77      1   2  0.410000    43.970031343    15.016228102    24.119664570   0   0   0 # h*
     78      1   2  0.410000    44.478295494    14.569989230    25.433331128   0   0   0 # h*
     79      1   1 -0.820000    43.843631193     0.747478864    11.123507338   0   0   0 # o*
     80      1   2  0.410000    43.287488195     1.363752060    11.668849912   0   0   0 # h*
     81      1   2  0.410000    43.041115977     0.327534331    10.618931866   0   0   0 # h*
     82      1   1 -0.820000    37.508574229    17.649636149     9.837528513   0   0   0 # o*
     83      1   2  0.410000    36.670963446    18.007545845     9.466296036   0   0   0 # h*
     84      1   2  0.410000    37.835124790    18.474978594    10.261852457   0   0   0 # h*
     85      1   1 -0.820000    46.379978569     7.915785424     1.037644191   0   0   0 # o*
     86      1   2  0.410000    46.511541974     8.093123160    28.074956182   0   0  -1 # h*
     87      1   2  0.410000    46.241454427     6.932960109     1.130722854   0   0   0 # h*
     88      1   1 -0.820000    26.014140386     5.358123432    12.242786684   0   0   0 # o*
     89      1   2  0.410000    26.256526923     5.782326209    13.075520115   0   0   0 # h*
     90      1   2  0.410000    25.331017003     4.759691333    12.580916697   0   0   0 # h*
     91      1   1 -0.820000    28.902553757    13.101314691    16.651951600   0   0   0 # o*
     92      1   2  0.410000    29.736107083    12.653286593    16.432016379   0   0   0 # h*
     93      1   2  0.410000    29.200461194    13.936019480    17.049147272   0   0   0 # h*
     94      1   1 -0.820000     0.635681120    19.182012181     8.630013002   1   0   0 # o*
     95      1   2  0.410000    47.938126156    19.939085645     8.568265223   0   0   0 # h*
     96      1   2  0.410000     0.284465602    18.726754323     7.804095650   1   0   0 # h*
     97      1   1 -0.820000    22.651907337     4.260116369     4.709372089   0   0   0 # o*
     98      1   2  0.410000    22.612912592     5.236892838     4.874772622   0   0   0 # h*
     99      1   2  0.410000    22.684548196     3.926219156     5.622513616   0   0   0 # h*
    100      1   1 -0.820000     3.846710498    15.671283335    10.233473808   0   0   0 # o*
    101      1   2  0.410000     3.090418407    16.049668223    10.752454907   0   0   0 # h*
    102      1   2  0.410000     4.426684663    16.457696179    10.151498804   0   0   0 # h*
    103      1   1 -0.820000    17.677668997    20.785125449    18.677707208   0   0   0 # o*
    104      1   2  0.410000    17.989374248    20.688634315    19.589054011   0   0   0 # h*
    105      1   2  0.410000    16.739233711    20.991658353    18.795748857   0   0   0 # h*
    106      1   1 -0.820000    16.933351675     0.762369126    22.204340069   0   1   0 # o*
    107      1   2  0.410000    17.772351533     1.291091660    21.831602800   0   1   0 # h*
    108      1   2  0.410000    16.225134783     0.939742593    21.539316177   0   1   0 # h*
    109      1   1 -0.820000    22.325641968    14.294572667    21.055211244   0   0   0 # o*
    110      1   2  0.410000    22.370086646    15.053199485    20.477670163   0   0   0 # h*
    111      1   2  0.410000    21.633113312    14.575040226    21.703216163   0   0   0 # h*
    112      1   1 -0.820000    19.552208470    17.957937469    25.843928361   0   0   0 # o*
    113      1   2  0.410000    19.494020048    17.961816617    24.885598517   0   0   0 # h*
    114      1   2  0.410000    20.374826937    18.439256030    26.018470653   0   0   0 # h*
    115      1   1 -0.820000    47.434332139    17.104157400    10.213934655  -1   0   0 # o*
    116      1   2  0.410000    47.896406308    17.862181509     9.789120269  -1   0   0 # h*
    117      1   2  0.410000    47.745472596    16.392412910     9.588346464  -1   0   0 # h*
    118      1   1 -0.820000    42.970744138     7.915881210    22.927025234   0   0   0 # o*
    119      1   2  0.410000    41.981769341     8.089940289    23.057291961   0   0   0 # h*
    120      1   2  0.410000    42.852050157     6.960218640    22.977930967   0   0   0 # h*
    121      1   1 -0.820000    42.909685140     6.636047569    26.422415072   0   0   0 # o*
    122      1   2  0.410000    42.061241111     6.825408324    25.950484244   0   0   0 # h*
    123      1   2  0.410000    43.120018950     7.580113739    26.645164725   0   0   0 # h*
    124      1   1 -0.820000    34.333676356    12.949072121    14.772943697   0   0   0 # o*
    125      1   2  0.410000    34.589038133    13.069142353    13.848106822   0   0   0 # h*
    126      1   2  0.410000    34.564027831    12.002355432    15.000397632   0   0   0 # h*
    127      1   1 -0.820000    27.140725473    22.385470459     5.429507148   0  -1   0 # o*
    128      1   2  0.410000    27.997018281    22.069363431     5.095691505   0  -1   0 # h*
    129      1   2  0.410000    27.262018121     1.066454452     5.316297850   0   0   0 # h*
    130      1   1 -0.820000     2.139421446     9.018064978     3.205340649   0   0   0 # o*
    131      1   2  0.410000     1.327876829     8.499162896     3.193673568   0   0   0 # h*
    132      1   2  0.410000     2.647100259     8.289136830     3.624607623   0   0   0 # h*
    133      1   1 -0.820000    11.833904409     6.884135527    19.049458837   0   0   0 # o*
    134      1   2  0.410000    10.921332552     6.674179003    18.988975179   0   0   0 # h*
    135      1   2  0.410000    12.259723509     6.048921312    19.427285666   0   0   0 # h*
    136      1   1 -0.820000    13.446743164     3.895337611    24.576297136   0   0   0 # o*
    137      1   2  0.410000    13.797437339     4.785179848    24.235414857   0   0   0 # h*
    138      1   2  0.410000    13.888881107     3.793818182    25.485017183   0   0   0 # h*
    139      1   1 -0.820000    20.415087581    22.285184626    27.189026599   0  -1  -1 # o*
    140      1   2  0.410000    20.856813026     0.731429496    26.801725212   0   0  -1 # h*
    141      1   2  0.410000    19.802526986     0.404954879    27.854837811   0   0  -1 # h*
    142      1   1 -0.820000    11.910421176    10.013765038     7.400304853   0   0   0 # o*
    143      1   2  0.410000    12.438697472    10.457903576     8.128188957   0   0   0 # h*
    144      1   2  0.410000    10.978265211    10.082197757     7.695910290   0   0   0 # h*
    145      1   1 -0.820000     7.686420710     7.893145540    12.404403494   0   0   0 # o*
    146      1   2  0.410000     8.119932695     7.147361103    12.847383389   0   0   0 # h*
    147      1   2  0.410000     6.918005464     7.554572632    11.978207470   0   0   0 # h*
    148      1   1 -0.820000    41.150736816    19.891281612     9.400070425   0   0   0 # o*
    149      1   2  0.410000    41.321913972    19.401017215    10.272704201   0   0   0 # h*
    150      1   2  0.410000    41.072150984    20.773923576     9.768953968   0   0   0 # h*
    151      1   1 -0.820000     2.884348676     6.810066188     5.922416318   0   0   0 # o*
    152      1   2  0.410000     3.038946800     6.198329608     5.142808389   0   0   0 # h*
    153      1   2  0.410000     3.564483154     6.372870512     6.529557094   0   0   0 # h*
    154      1   1 -0.820000    14.012083485    19.180931037    18.325163552   0   0   0 # o*
    155      1   2  0.410000    13.979735272    19.704629580    19.193220498   0   0   0 # h*
    156      1   2  0.410000    14.461351900    18.388263074    18.664170268   0   0   0 # h*
    157      1   1 -0.820000    15.765885276    20.423875561    23.862189766   0   0   0 # o*
    158      1   2  0.410000    15.940004080    19.421962181    24.019358980   0   0   0 # h*
    159      1   2  0.410000    16.631480744    20.661282300    23.461229396   0   0   0 # h*
    160      1   1 -0.820000    42.975421334    20.441248057     5.788835470   0  -1   0 # o*
    161      1   2  0.410000    43.826515594    20.046292197     6.162841325   0  -1   0 # h*
    162      1   2  0.410000    43.285050483    20.672306361     4.925872521   0  -1   0 # h*
    163      1   1 -0.820000    12.441950021     7.746823180    16.498452937   0   0   0 # o*
    164      1   2  0.410000    12.238313847     7.169383324    17.286012393   0   0   0 # h*
    165      1   2  0.410000    11.594859125     7.564352972    15.965483463   0   0   0 # h*
    166      1   1 -0.820000    20.145277527    22.475599334     7.739149199   0   0   0 # o*
    167      1   2  0.410000    21.048385002    22.323960460     8.035855188   0   0   0 # h*
    168      1   2  0.410000    20.221745272     0.384710326     6.794830407   0   1   0 # h*
    169      1   1 -0.820000     8.060857262    15.420442378     1.704897541   0   0   0 # o*
    170      1   2  0.410000     8.925473820    15.930195788     1.812656465   0   0   0 # h*
    171      1   2  0.410000     7.657952699    15.855337400     0.976180952   0   0   0 # h*
    172      1   1 -0.820000     8.886763266    17.943070375    15.732095032   0   0   0 # o*
    173      1   2  0.410000     8.037411972    17.482640550    15.750401928   0   0   0 # h*
    174      1   2  0.410000     8.530210405    18.819110784    15.559346906   0   0   0 # h*
    175      1   1 -0.820000    25.204218395     9.394444414    20.825139897   0   0   0 # o*
    176      1   2  0.410000    24.657479410     8.705207884    20.380370374   0   0   0 # h*
    177      1   2  0.410000    25.371041751     9.157356483    21.715888393   0   0   0 # h*
    178      1   1 -0.820000    28.338062893    12.444422488    22.029570657   0   0   0 # o*
    179      1   2  0.410000    28.976595575    11.671958677    22.212236130   0   0   0 # h*
    180      1   2  0.410000    27.539727893    11.950115336    22.253323758   0   0   0 # h*
    181      1   1 -0.820000    12.253124956    18.491153455    11.417684047   0   0   0 # o*
    182      1   2  0.410000    11.968836114    17.508719980    11.565469653   0   0   0 # h*
    183      1   2  0.410000    12.947475015    18.633814382    12.146422030   0   0   0 # h*
    184      1   1 -0.820000    38.531382016    10.679433056    12.919859856   0   0   0 # o*
    185      1   2  0.410000    37.618922824    10.424644411    13.236980577   0   0   0 # h*
    186      1   2  0.410000    38.364459165    11.495601902    12.406615593   0   0   0 # h*
    187      1   1 -0.820000     7.608551335    21.331918336     8.664584664   0   0   0 # o*
    188      1   2  0.410000     7.712508886    20.968526558     7.770478836   0   0   0 # h*
    189      1   2  0.410000     7.278817715    22.231963850     8.441469937   0   0   0 # h*
    190      1   1 -0.820000    30.175846542    18.748705107     4.167388466   0   0   0 # o*
    191      1   2  0.410000    30.210287365    19.432540843     4.927647560   0   0   0 # h*
    192      1   2  0.410000    29.989138770    19.343421372     3.412153567   0   0   0 # h*
    193      1   1 -0.820000     3.679014627    22.279393437    19.716686438   0  -1   0 # o*
    194      1   2  0.410000     3.375602754     0.882629135    19.525887336   0   0   0 # h*
    195      1   2  0.410000     4.667656654    22.413349830    19.833760371   0  -1   0 # h*
    196      1   1 -0.820000     6.867943775     1.683942059    23.629575200   0   0   0 # o*
    197      1   2  0.410000     6.039149333     2.216068967    23.823226970   0   0   0 # h*
    198      1   2  0.410000     7.385903388     2.397500288    23.178917164   0   0   0 # h*
    199      1   1 -0.820000     4.343701433    15.681828208    17.087132490   0   0   0 # o*
    200      1   2  0.410000     4.881071605    14.849073385    17.348626621   0   0   0 # h*
    201      1   2  0.410000     3.414374615    15.300988426    17.340663415   0   0   0 # h*
    202      1   1 -0.820000     7.082788224    17.619757508    21.558483380   0   0   0 # o*
    203      1   2  0.410000     6.776590550    17.708344927    22.492604346   0   0   0 # h*
    204      1   2  0.410000     7.001094370    16.617402699    21.510308015   0   0   0 # h*
    205      1   1 -0.820000     6.190126176    17.869457592    18.832383970   0   0   0 # o*
    206      1   2  0.410000     6.441872355    18.118145201    19.761111133   0   0   0 # h*
    207      1   2  0.410000     7.022131936    18.000690932    18.413722061   0   0   0 # h*
    208      1   1 -0.820000     4.398855560    21.479762363    25.714192671   0   0   0 # o*
    209      1   2  0.410000     4.342548101    21.657714463    24.739528997   0   0   0 # h*
    210      1   2  0.410000     5.221894013    22.008473096    25.936078945   0   0   0 # h*
    211      1   1 -0.820000    41.292280178     5.333164516    23.718857925   0   0   0 # o*
    212      1   2  0.410000    41.675102336     4.517235565    24.067489580   0   0   0 # h*
    213      1   2  0.410000    40.390505226     4.999773033    23.926229415   0   0   0 # h*
    214      1   1 -0.820000    39.203193757     6.056945122    26.675393439   0   0   0 # o*
    215      1   2  0.410000    38.473812035     5.780808902    26.098819810   0   0   0 # h*
    216      1   2  0.410000    38.729905957     6.076663498    27.558233429   0   0   0 # h*
    217      1   1 -0.820000    45.724205454     9.159217344    21.373749264   0   0   0 # o*
    218      1   2  0.410000    46.125351295     8.770091240    22.229978197   0   0   0 # h*
    219      1   2  0.410000    44.808807729     9.256663005    21.616287175   0   0   0 # h*
    220      1   1 -0.820000    43.139445116     3.797148602    28.058703792   0   0   0 # o*
    221      1   2  0.410000    42.478405998     3.681899793    27.281758518   0   0   0 # h*
    222      1   2  0.410000    42.661564854     3.175829758     0.565750184   0   0   1 # h*
    223      1   1 -0.820000    28.832689859    10.110249382    15.113787911   0   0   0 # o*
    224      1   2  0.410000    29.707059826    10.529719667    15.052040268   0   0   0 # h*
    225      1   2  0.410000    28.279826057    10.884233974    15.058518136   0   0   0 # h*
    226      1   1 -0.820000    31.128467849    10.617156797     7.760390757   0   0   0 # o*
    227      1   2  0.410000    30.306184478    10.169258168     8.011677599   0   0   0 # h*
    228      1   2  0.410000    31.782210054    10.319055093     8.444225381   0   0   0 # h*
    229      1   1 -0.820000    42.468355709    16.761977582    18.767198091   0   0   0 # o*
    230      1   2  0.410000    43.158158389    16.554120918    19.461168328   0   0   0 # h*
    231      1   2  0.410000    43.066013584    17.266625591    18.171921218   0   0   0 # h*
    232      1   1 -0.820000    42.205729523    15.814562070    24.936156859   0   0   0 # o*
    233      1   2  0.410000    41.906095527    14.894266106    24.799224963   0   0   0 # h*
    234      1   2  0.410000    41.431389162    16.238887777    24.440651293   0   0   0 # h*
    235      1   1 -0.820000    40.529720825    22.274036107    21.854438610   0   0   0 # o*
    236      1   2  0.410000    40.586468388    21.325821841    22.048537358   0   0   0 # h*
    237      1   2  0.410000    39.696510109    22.367353985    22.337955775   0   0   0 # h*
    238      1   1 -0.820000    45.846618332    20.855020030     2.261621529   0   0   1 # o*
    239      1   2  0.410000    46.189458922    19.910853051     2.398434983   0   0   1 # h*
    240      1   2  0.410000    46.720490071    21.340360904     2.223596096   0   0   1 # h*
    241      1   1 -0.820000    44.918544302    18.203807884    18.080777975   0   0   0 # o*
    242      1   2  0.410000    45.781333569    18.044248329    18.516020431   0   0   0 # h*
    243      1   2  0.410000    45.022706450    18.684424608    17.233532227   0   0   0 # h*
    244      1   1 -0.820000    33.797031438    16.888891949    17.746242303   0   0   0 # o*
    245      1   2  0.410000    33.843886726    17.488880226    16.953640673   0   0   0 # h*
    246      1   2  0.410000    33.407660264    16.087090680    17.290508372   0   0   0 # h*
    247      1   1 -0.820000    32.080348216    12.967160467    23.360836260   0   0   0 # o*
    248      1   2  0.410000    31.334109408    12.572444316    22.887284406   0   0   0 # h*
    249      1   2  0.410000    32.498832251    13.355065056    22.616069561   0   0   0 # h*
    250      1   1 -0.820000     8.678144183    14.637242218    12.246395657   0   0   0 # o*
    251      1   2  0.410000     8.344348800    15.567412246    12.037016648   0   0   0 # h*
    252      1   2  0.410000     8.413358748    14.598782287    13.193303715   0   0   0 # h*
    253      1   1 -0.820000    44.111265382     8.641361912    18.235648594   0   0   0 # o*
    254      1   2  0.410000    43.308599521     8.114827693    18.499680969   0   0   0 # h*
    255      1   2  0.410000    43.603648654     9.356964345    17.771214148   0   0   0 # h*
    256      1   1 -0.820000    15.424227372     2.006323861    13.520606654   0   0   0 # o*
    257      1   2  0.410000    15.454964849     1.150313015    13.051344713   0   0   0 # h*
    258      1   2  0.410000    14.710493978     2.441597630    13.004770463   0   0   0 # h*
    259      1   1 -0.820000    23.211010192    15.903540427     9.075545185   0   0   0 # o*
    260      1   2  0.410000    23.979755040    16.546456924     9.216715191   0   0   0 # h*
    261      1   2  0.410000    22.416943203    16.478674310     9.335586310   0   0   0 # h*
    262      1   1 -0.820000     1.320796912    20.020272541    11.198664944   0  -1   0 # o*
    263      1   2  0.410000     0.679368155    20.733843812    11.347567689   0  -1   0 # h*
    264      1   2  0.410000     1.105845212    19.802681537    10.259941005   0  -1   0 # h*
    265      1   1 -0.820000    12.657647071    18.690958465     5.589911094   0   0   0 # o*
    266      1   2  0.410000    12.459138055    19.341789748     4.863902632   0   0   0 # h*
    267      1   2  0.410000    12.613800436    19.196601606     6.440989980   0   0   0 # h*
    268      1   1 -0.820000     8.376177887    17.488022985    12.474328797   0   0   0 # o*
    269      1   2  0.410000     8.599908240    18.020640504    13.268514627   0   0   0 # h*
    270      1   2  0.410000     8.552028336    18.245327304    11.845544278   0   0   0 # h*
    271      1   1 -0.820000    29.259682753    21.070884609    19.047955462   0   0   0 # o*
    272      1   2  0.410000    28.308902634    21.351786165    18.925615343   0   0   0 # h*
    273      1   2  0.410000    29.416710997    21.523215352    19.969094635   0   0   0 # h*
    274      1   1 -0.820000    31.813509543    19.673181045    25.278327187   0   0   0 # o*
    275      1   2  0.410000    32.727250943    20.066205757    25.121682749   0   0   0 # h*
    276      1   2  0.410000    31.802991601    19.021721668    24.535312033   0   0   0 # h*
    277      1   1 -0.820000     2.753111720    19.691307424     2.295638550   0   0   0 # o*
    278      1   2  0.410000     2.295341058    19.470343227     1.491125100   0   0   0 # h*
    279      1   2  0.410000     3.275150841    18.893750093     2.443729893   0   0   0 # h*
    280      1   1 -0.820000     2.475491321     4.914619383     9.104865258   0   0   0 # o*
    281      1   2  0.410000     1.979228206     4.765889051     9.946321486   0   0   0 # h*
    282      1   2  0.410000     2.572416862     5.919345547     9.005844654   0   0   0 # h*
    283      1   1 -0.820000     2.637633867     1.786305451     4.748092580   0   0   0 # o*
    284      1   2  0.410000     3.095341490     1.154766785     4.125789274   0   0   0 # h*
    285      1   2  0.410000     1.936689880     1.091104574     4.937727582   0   0   0 # h*
    286      1   1 -0.820000    24.480539030     4.122461294     0.385541644   0   0   0 # o*
    287      1   2  0.410000    24.432129011     4.477784687     1.314168347   0   0   0 # h*
    288      1   2  0.410000    25.361003010     3.622167773     0.478999471   0   0   0 # h*
    289      1   1 -0.820000    26.038150430    19.640096618    19.959483951   0   0   0 # o*
    290      1   2  0.410000    25.630911987    19.483651091    20.862188223   0   0   0 # h*
    291      1   2  0.410000    25.345623802    20.106375116    19.475573251   0   0   0 # h*
    292      1   1 -0.820000    29.661036096    19.345339256    27.894957887   0   0   0 # o*
    293      1   2  0.410000    30.357209604    19.363111367    27.198180454   0   0   0 # h*
    294      1   2  0.410000    28.925502545    19.378440409    27.305114093   0   0   0 # h*
    295      1   1 -0.820000    30.092668518    20.950243809    11.410489222   0   0   0 # o*
    296      1   2  0.410000    29.231848399    21.120264949    11.766140425   0   0   0 # h*
    297      1   2  0.410000    29.904565256    21.194210432    10.492000099   0   0   0 # h*
    298      1   1 -0.820000    42.579422434     6.341412160    16.328430428   0   0   0 # o*
    299      1   2  0.410000    42.505947824     6.694245130    17.261885329   0   0   0 # h*
    300      1   2  0.410000    43.527363071     6.125402643    16.455184040   0   0   0 # h*
    301      1   1 -0.820000    40.305651734     6.413541802    21.477934569   0   0   0 # o*
    302      1   2  0.410000    40.249357725     7.072017285    22.172449448   0   0   0 # h*
    303      1   2  0.410000    39.937813545     5.635491396    21.889598047   0   0   0 # h*
    304      1   1 -0.820000    31.824625238     3.752491870    16.181845055   0   0   0 # o*
    305      1   2  0.410000    32.116512480     4.233077511    15.377510821   0   0   0 # h*
    306      1   2  0.410000    31.014999503     4.183165099    16.426760212   0   0   0 # h*
    307      1   1 -0.820000    27.554248761     8.762965223    27.251718385   0   0  -1 # o*
    308      1   2  0.410000    26.751793819     8.981067168    27.794751886   0   0  -1 # h*
    309      1   2  0.410000    27.878757071     7.970282618    27.692955138   0   0  -1 # h*
    310      1   1 -0.820000     1.145419091     3.270179205    20.655190053   0   0   0 # o*
    311      1   2  0.410000     0.326943568     3.636865664    20.936432810   0   0   0 # h*
    312      1   2  0.410000     0.943564341     2.931381117    19.781675336   0   0   0 # h*
    313      1   1 -0.820000     3.612293236     3.916654930    23.291780826   0   0   0 # o*
    314      1   2  0.410000     4.008405902     4.406451736    24.051044556   0   0   0 # h*
    315      1   2  0.410000     3.170996591     3.239199417    23.842411204   0   0   0 # h*
    316      1   1 -0.820000     3.073330276     4.590974643    13.734042999   0   0   0 # o*
    317      1   2  0.410000     2.736164695     5.478151812    14.040755648   0   0   0 # h*
    318      1   2  0.410000     2.199794175     4.198450637    13.611515440   0   0   0 # h*
    319      1   1 -0.820000    33.413492183     4.530363814    13.819158718   0   0   0 # o*
    320      1   2  0.410000    32.486962097     4.507574159    13.511886279   0   0   0 # h*
    321      1   2  0.410000    33.723067045     5.079005403    13.046660848   0   0   0 # h*
    322      1   1 -0.820000    15.325719222    11.395076833     4.455885593   0   0   0 # o*
    323      1   2  0.410000    14.453103388    11.819432223     4.446735883   0   0   0 # h*
    324      1   2  0.410000    15.623078778    11.556183898     3.539351143   0   0   0 # h*
    325      1   1 -0.820000    34.519554040    12.645620035     8.713790822   0   0   0 # o*
    326      1   2  0.410000    34.477540989    11.927706540     8.021451247   0   0   0 # h*
    327      1   2  0.410000    34.858653631    13.414333494     8.223777003   0   0   0 # h*
    328      1   1 -0.820000     1.732616980    21.928496579     7.319903104   0   0   0 # o*
    329      1   2  0.410000     1.188861705    22.437279350     7.953492158   0   0   0 # h*
    330      1   2  0.410000     1.050186623    21.723726676     6.656911174   0   0   0 # h*
    331      1   1 -0.820000    47.371639816    21.599750699    21.612307667  -1   0   0 # o*
    332      1   2  0.410000    47.121761058    22.511374834    21.942704634  -1   0   0 # h*
    333      1   2  0.410000     0.356815261    21.726704307    21.751943674   0   0   0 # h*
    334      1   1 -0.820000     2.137091987    17.674881399    25.112843947   0   0   0 # o*
    335      1   2  0.410000     1.424813991    17.927975312    24.438374186   0   0   0 # h*
    336      1   2  0.410000     3.022805754    17.836501701    24.640638612   0   0   0 # h*
    337      1   1 -0.820000     4.327694211    13.953353447    19.863423064   0   0   0 # o*
    338      1   2  0.410000     4.251889347    13.016706697    19.509633454   0   0   0 # h*
    339      1   2  0.410000     3.450660797    14.007333854    20.296047454   0   0   0 # h*
    340      1   1 -0.820000     4.223548849    12.403775971    26.711871321   0   0   0 # o*
    341      1   2  0.410000     3.511003460    12.617786203    27.329162287   0   0   0 # h*
    342      1   2  0.410000     4.758627466    13.147718203    27.004539768   0   0   0 # h*
    343      1   1 -0.820000    27.872978342    15.467157462    14.354409945   0   0   0 # o*
    344      1   2  0.410000    27.211523221    15.293780717    15.049846492   0   0   0 # h*
    345      1   2  0.410000    28.672385863    15.527248744    14.949813520   0   0   0 # h*
    346      1   1 -0.820000     0.541450969    10.941269265    27.728934428   1   0  -1 # o*
    347      1   2  0.410000     0.988629571    10.116498012    27.853051554   1   0  -1 # h*
    348      1   2  0.410000     1.199127446    11.657496615    27.675537466   1   0  -1 # h*
    349      1   1 -0.820000    28.812651990     9.164193212     7.807645692   0   0   0 # o*
    350      1   2  0.410000    27.848215339     9.117048488     8.051355382   0   0   0 # h*
    351      1   2  0.410000    28.808354628     8.473770579     7.127910853   0   0   0 # h*
    352      1   1 -0.820000    16.389843217    12.464209845    16.449928437   0   0   0 # o*
    353      1   2  0.410000    15.705299837    12.336154708    15.715163576   0   0   0 # h*
    354      1   2  0.410000    17.249569915    12.588878214    15.893684558   0   0   0 # h*
    355      1   1 -0.820000    16.372349969     1.635617829     3.601021315   0   0   0 # o*
    356      1   2  0.410000    16.690955394     2.242904067     2.921114654   0   0   0 # h*
    357      1   2  0.410000    16.872839982     2.156720864     4.316812903   0   0   0 # h*
    358      1   1 -0.820000    11.551841476    15.468490739     7.729711059   0   0   0 # o*
    359      1   2  0.410000    11.640601059    15.418295508     8.735051956   0   0   0 # h*
    360      1   2  0.410000    11.076548320    16.348547762     7.635170296   0   0   0 # h*
    361      1   1 -0.820000    37.361341935    17.627947487     5.073625411   0   0   0 # o*
    362      1   2  0.410000    36.418836554    17.595771402     4.933235399   0   0   0 # h*
    363      1   2  0.410000    37.446556383    18.224509237     5.865664583   0   0   0 # h*
    364      1   1 -0.820000    20.371266987    18.452438523    18.685188745   0   0   0 # o*
    365      1   2  0.410000    20.481529926    17.488590318    18.792843387   0   0   0 # h*
    366      1   2  0.410000    20.345316571    18.393620143    17.672923019   0   0   0 # h*
    367      1   1 -0.820000    45.319646885     6.457725965    19.994900498   0   0   0 # o*
    368      1   2  0.410000    44.973120127     7.374086372    19.846604801   0   0   0 # h*
    369      1   2  0.410000    45.774956425     6.415980440    19.163940497   0   0   0 # h*
    370      1   1 -0.820000    40.893158617     3.775994994    26.370795206   0   0   0 # o*
    371      1   2  0.410000    40.116874890     3.319655953    26.070442692   0   0   0 # h*
    372      1   2  0.410000    40.504203876     4.513195922    26.913984054   0   0   0 # h*
    373      1   1 -0.820000    14.258750713    18.306518547    15.444487689   0   0   0 # o*
    374      1   2  0.410000    14.673259551    17.743509270    16.065725434   0   0   0 # h*
    375      1   2  0.410000    13.606533477    18.750052913    16.036403583   0   0   0 # h*
    376      1   1 -0.820000     6.884408869    14.647662742     8.742049031   0   0   0 # o*
    377      1   2  0.410000     6.240646600    13.965918146     9.085715660   0   0   0 # h*
    378      1   2  0.410000     6.791930559    14.562318795     7.761647649   0   0   0 # h*
    379      1   1 -0.820000    43.804166174    19.208818709     1.327773763   0   0   0 # o*
    380      1   2  0.410000    43.975519344    19.292710220     0.341886335   0   0   0 # h*
    381      1   2  0.410000    44.302383587    20.046097240     1.581988045   0   0   0 # h*
    382      1   1 -0.820000    42.683365300    10.109264635     2.338720127   0   0   0 # o*
    383      1   2  0.410000    42.076575002     9.601818750     1.804781751   0   0   0 # h*
    384      1   2  0.410000    42.613277105    11.074352002     2.021612960   0   0   0 # h*
    385      1   1 -0.820000    46.354276265    19.889339459    16.468768997   0   0   0 # o*
    386      1   2  0.410000    46.716159185    19.512116108    15.637800711   0   0   0 # h*
    387      1   2  0.410000    47.174933891    19.869406747    17.003140770   0   0   0 # h*
    388      1   1 -0.820000    37.195548100     6.217071119    19.364767625   0   0   0 # o*
    389      1   2  0.410000    37.148213227     6.358579681    20.303064682   0   0   0 # h*
    390      1   2  0.410000    36.469577032     6.835838882    19.002006200   0   0   0 # h*
    391      1   1 -0.820000    31.462590002    11.155884101    25.965791074   0   0   0 # o*
    392      1   2  0.410000    31.925521386    10.420707883    26.421872385   0   0   0 # h*
    393      1   2  0.410000    31.097860970    10.678327718    25.187382509   0   0   0 # h*
    394      1   1 -0.820000    29.552071059     4.881206505    17.272721347   0   0   0 # o*
    395      1   2  0.410000    29.190988223     4.038599857    16.823540080   0   0   0 # h*
    396      1   2  0.410000    28.648446412     5.233413671    17.671387049   0   0   0 # h*
    397      1   1 -0.820000    24.173755664     0.855645659    21.429018757   0   0   0 # o*
    398      1   2  0.410000    25.133638564     1.064018914    21.605296705   0   0   0 # h*
    399      1   2  0.410000    24.205729872    22.261962247    20.994363006   0  -1   0 # h*
    400      1   1 -0.820000    30.379366788     6.125716626    26.362259179   0   0  -1 # o*
    401      1   2  0.410000    30.999526925     5.448108880    26.756405148   0   0  -1 # h*
    402      1   2  0.410000    29.484181208     5.719689716    26.497726056   0   0  -1 # h*
    403      1   1 -0.820000    27.685028613    13.671141246     4.808924983   0   0   0 # o*
    404      1   2  0.410000    27.017279545    14.372091116     4.756402736   0   0   0 # h*
    405      1   2  0.410000    27.902905518    13.437263210     3.905287149   0   0   0 # h*
    406      1   1 -0.820000    18.738809782     2.788137755     8.196933287   0   0   0 # o*
    407      1   2  0.410000    19.211690937     1.967382100     8.198422696   0   0   0 # h*
    408      1   2  0.410000    19.326929554     3.319745740     8.726695823   0   0   0 # h*
    409      1   1 -0.820000    29.428386458    10.886147240    11.724617571   0   0   0 # o*
    410      1   2  0.410000    30.322408012    11.290469404    11.724173251   0   0   0 # h*
    411      1   2  0.410000    28.924172277    11.449422166    11.050219151   0   0   0 # h*
    412      1   1 -0.820000    40.941367417    11.558767665    25.563018282   0   0   0 # o*
    413      1   2  0.410000    40.898101961    10.810386762    26.187937115   0   0   0 # h*
    414      1   2  0.410000    40.080306846    11.979212524    25.576003232   0   0   0 # h*
    415      1   1 -0.820000    40.162047148     9.468155036    27.299345056   0   0   0 # o*
    416      1   2  0.410000    39.273670440     8.978214692    27.282414660   0   0   0 # h*
    417      1   2  0.410000    39.655080069    10.216394530    27.621382184   0   0   0 # h*
    418      1   1 -0.820000    40.301322806     3.942515143     7.165961496   0   0   0 # o*
    419      1   2  0.410000    39.968919458     3.140177962     7.658247882   0   0   0 # h*
    420      1   2  0.410000    39.566681527     4.545418763     7.062777647   0   0   0 # h*
    421      1   1 -0.820000     6.425594538    17.224384809     0.375515961   0   0   0 # o*
    422      1   2  0.410000     5.809243882    17.668372896    27.770609607   0   0  -1 # h*
    423      1   2  0.410000     6.487805447    18.074362047     0.979291027   0   0   0 # h*
    424      1   1 -0.820000     6.471115262     0.379853233    18.850271955   0   1   0 # o*
    425      1   2  0.410000     6.875514035     1.177709787    18.460157237   0   1   0 # h*
    426      1   2  0.410000     7.055624262    22.461417406    19.594130482   0   0   0 # h*
    427      1   1 -0.820000     4.694596676    22.155563436    22.848301063   0   0   0 # o*
    428      1   2  0.410000     5.614771304    21.951604818    22.693534613   0   0   0 # h*
    429      1   2  0.410000     4.599738875     0.637548130    22.234021727   0   1   0 # h*
    430      1   1 -0.820000    14.949120210     6.422343707    12.020951840   0   0   0 # o*
    431      1   2  0.410000    14.929787370     7.177822070    11.369858016   0   0   0 # h*
    432      1   2  0.410000    14.357126984     6.857156006    12.683413575   0   0   0 # h*
    433      1   1 -0.820000    28.835119710     2.942105845     4.688819764   0   0   0 # o*
    434      1   2  0.410000    29.168030561     1.983196081     4.617373553   0   0   0 # h*
    435      1   2  0.410000    29.687337494     3.439954459     4.636483318   0   0   0 # h*
    436      1   1 -0.820000    23.093182588    17.272450953    16.026992459   0   0   0 # o*
    437      1   2  0.410000    22.325236191    17.863576428    15.856935419   0   0   0 # h*
    438      1   2  0.410000    22.761979944    16.694409181    16.805898339   0   0   0 # h*
    439      1   1 -0.820000    27.258963845    12.010358636     9.341908776   0   0   0 # o*
    440      1   2  0.410000    26.672619800    12.525920305     8.777460673   0   0   0 # h*
    441      1   2  0.410000    27.438671662    11.294170614     8.704703308   0   0   0 # h*
    442      1   1 -0.820000    25.911719287    22.425274949     8.833968003   0  -1   0 # o*
    443      1   2  0.410000    25.543377383    21.680843035     8.375326615   0  -1   0 # h*
    444      1   2  0.410000    26.901262759    22.245072585     8.826243040   0  -1   0 # h*
    445      1   1 -0.820000    43.581308228     9.801265130     6.936073363   0   0   0 # o*
    446      1   2  0.410000    43.758849951    10.236641869     6.089515401   0   0   0 # h*
    447      1   2  0.410000    44.218244880     8.982913277     6.931318010   0   0   0 # h*
    448      1   1 -0.820000    32.910748752    12.037886607     5.322279799   0   0   0 # o*
    449      1   2  0.410000    32.292756126    12.571285249     5.815954405   0   0   0 # h*
    450      1   2  0.410000    33.303344467    11.569881207     6.136827839   0   0   0 # h*
    451      1   1 -0.820000    30.922717473     4.800253009     4.366473673   0   0   0 # o*
    452      1   2  0.410000    31.313394618     5.383901953     5.112246310   0   0   0 # h*
    453      1   2  0.410000    30.721738898     5.578608328     3.811366695   0   0   0 # h*
    454      1   1 -0.820000    30.927160020     8.521264368    27.934185624   0   0  -1 # o*
    455      1   2  0.410000    31.682914335     7.938588561    28.061049662   0   0  -1 # h*
    456      1   2  0.410000    30.436945484     7.915577321    27.358108388   0   0  -1 # h*
    457      1   1 -0.820000     9.165690030     7.248425594     3.506370597   0   0   0 # o*
    458      1   2  0.410000     9.621794786     8.071598996     3.848670238   0   0   0 # h*
    459      1   2  0.410000     8.773740797     7.510224219     2.627861741   0   0   0 # h*
    460      1   1 -0.820000    38.194825226     0.697201160    11.750602890   0   0   0 # o*
    461      1   2  0.410000    37.361109893     0.982502607    11.279862957   0   0   0 # h*
    462      1   2  0.410000    38.278953943     1.518809986    12.251206068   0   0   0 # h*
    463      1   1 -0.820000    21.503274830    14.169136026     7.451544625   0   0   0 # o*
    464      1   2  0.410000    22.113252808    14.396962272     6.728882336   0   0   0 # h*
    465      1   2  0.410000    22.038179734    14.511484233     8.225279800   0   0   0 # h*
    466      1   1 -0.820000    25.958050241     1.146476332    15.372539135   0   1   0 # o*
    467      1   2  0.410000    25.042403910     1.424425942    15.518129669   0   1   0 # h*
    468      1   2  0.410000    25.916879190     1.222771063    14.413492402   0   1   0 # h*
    469      1   1 -0.820000    11.355814621     2.129529464     1.872291840   0   0   0 # o*
    470      1   2  0.410000    11.234944717     2.265170976     2.810350201   0   0   0 # h*
    471      1   2  0.410000    12.112009412     2.730268871     1.675678809   0   0   0 # h*
    472      1   1 -0.820000    31.369529415     9.741838050     4.748325082   0   0   0 # o*
    473      1   2  0.410000    31.814569584    10.584523817     4.893683547   0   0   0 # h*
    474      1   2  0.410000    30.953080835     9.624183906     5.649042444   0   0   0 # h*
    475      1   1 -0.820000    24.570512349     7.018043477     9.602078631   0   0   0 # o*
    476      1   2  0.410000    25.072868427     6.885070604    10.387035450   0   0   0 # h*
    477      1   2  0.410000    23.639864733     7.244311659     9.988960005   0   0   0 # h*
    478      1   1 -0.820000    21.532971501     5.142070831    21.900004455   0   0   0 # o*
    479      1   2  0.410000    20.648610577     5.075506859    22.304669304   0   0   0 # h*
    480      1   2  0.410000    21.821066381     4.218345627    21.785037155   0   0   0 # h*
    481      1   1 -0.820000    18.925617569     6.485678343    24.061460425   0   0   0 # o*
    482      1   2  0.410000    18.403035070     7.344172026    24.273530562   0   0   0 # h*
    483      1   2  0.410000    18.195928862     6.040073494    23.630055028   0   0   0 # h*
    484      1   1 -0.820000    29.799631930     4.114682175     1.192646349   0   0   0 # o*
    485      1   2  0.410000    30.399880030     4.228598180     1.950390935   0   0   0 # h*
    486      1   2  0.410000    28.935556690     3.891331192     1.660540724   0   0   0 # h*
    487      1   1 -0.820000    26.961295810     4.855854258     4.914069234   0   0   0 # o*
    488      1   2  0.410000    26.441135219     4.451070743     5.613320861   0   0   0 # h*
    489      1   2  0.410000    27.670292823     4.144134153     4.922794387   0   0   0 # h*
    490      1   1 -0.820000     6.232521078    15.060141913    21.472051883   0   0   0 # o*
    491      1   2  0.410000     6.541949066    14.251398123    21.969386302   0   0   0 # h*
    492      1   2  0.410000     5.732532702    14.686895354    20.763991894   0   0   0 # h*
    493      1   1 -0.820000     7.304939448    14.222047795    26.076737786   0   0   0 # o*
    494      1   2  0.410000     7.133182186    14.326395282    27.032174845   0   0   0 # h*
    495      1   2  0.410000     7.892917017    14.987651159    25.988320065   0   0   0 # h*
    496      1   1 -0.820000     5.207503545     6.401406784    11.983053013   0   0   0 # o*
    497      1   2  0.410000     4.367944420     6.043121905    12.403711888   0   0   0 # h*
    498      1   2  0.410000     5.372549624     5.703697043    11.313195872   0   0   0 # h*
    499      1   1 -0.820000    34.174138991    10.144708223    16.018030437   0   0   0 # o*
    500      1   2  0.410000    35.019039461    10.509933062    16.243084033   0   0   0 # h*
    501      1   2  0.410000    33.874851014     9.889651031    16.906034840   0   0   0 # h*
    502      1   1 -0.820000    22.918147498    21.013263313     7.738956162   0   0   0 # o*
    503      1   2  0.410000    22.639126829    20.215871605     8.208720515   0   0   0 # h*
    504      1   2  0.410000    23.287821062    20.627702330     6.938352235   0   0   0 # h*
    505      1   1 -0.820000     9.137292356     0.483086115    16.365333426   0   1   0 # o*
    506      1   2  0.410000     8.543594995     1.270724174    16.499265548   0   1   0 # h*
    507      1   2  0.410000     8.510419655    22.189056963    15.849219003   0   0   0 # h*
    508      1   1 -0.820000    11.597849214    19.497790141    26.564522025   0   0   0 # o*
    509      1   2  0.410000    11.762590593    19.650387528    27.513054704   0   0   0 # h*
    510      1   2  0.410000    11.365070440    20.439350410    26.294782701   0   0   0 # h*
    511      1   1 -0.820000     0.653177961    22.034588728     4.645869656   1   0   0 # o*
    512      1   2  0.410000     0.384678277    22.059532592     3.689217284   1   0   0 # h*
    513      1   2  0.410000     0.854988358    21.040976233     4.665790205   1   0   0 # h*
    514      1   1 -0.820000    11.003764254    18.239951787     9.021806148   0   0   0 # o*
    515      1   2  0.410000    10.045250405    18.010741846     9.072121661   0   0   0 # h*
    516      1   2  0.410000    11.314407247    18.229272148     9.904478336   0   0   0 # h*
    517      1   1 -0.820000     4.891659998     5.475973058     7.288846961   0   0   0 # o*
    518      1   2  0.410000     4.378390342     5.058659456     7.972339872   0   0   0 # h*
    519      1   2  0.410000     5.192546812     4.610688133     6.909966656   0   0   0 # h*
    520      1   1 -0.820000    10.981560529    14.904235553    19.036313327   0   0   0 # o*
    521      1   2  0.410000    11.233664137    15.835772149    18.863956273   0   0   0 # h*
    522      1   2  0.410000    11.677354238    14.629960441    18.425612064   0   0   0 # h*
    523      1   1 -0.820000     7.976684931     8.701639635    25.485135514   0   0   0 # o*
    524      1   2  0.410000     7.897684422     9.455535244    26.082899718   0   0   0 # h*
    525      1   2  0.410000     7.425582843     9.073865458    24.749400846   0   0   0 # h*
    526      1   1 -0.820000     8.256310283     1.224434544    20.928156007   0   0   0 # o*
    527      1   2  0.410000     7.782460746     2.110631250    21.033798210   0   0   0 # h*
    528      1   2  0.410000     8.000070204     0.692393219    21.687370492   0   0   0 # h*
    529      1   1 -0.820000    20.969554146     7.052094412    19.122665429   0   0   0 # o*
    530      1   2  0.410000    21.782649152     6.503158124    18.955856762   0   0   0 # h*
    531      1   2  0.410000    20.498891752     6.359760630    19.654035446   0   0   0 # h*
    532      1   1 -0.820000    21.976140609     9.778472375    27.094010470   0   0   0 # o*
    533      1   2  0.410000    21.479524409     9.834021734    27.960590170   0   0   0 # h*
    534      1   2  0.410000    21.607179895     8.903382710    26.805145636   0   0   0 # h*
    535      1   1 -0.820000    23.243687419     4.563632085    18.521766382   0   0   0 # o*
    536      1   2  0.410000    23.609450605     3.989516198    17.789989055   0   0   0 # h*
    537      1   2  0.410000    23.636263425     3.980468803    19.189274608   0   0   0 # h*
    538      1   1 -0.820000    21.783548666     6.953720523    25.381456530   0   0   0 # o*
    539      1   2  0.410000    21.208693857     6.316473211    24.868450615   0   0   0 # h*
    540      1   2  0.410000    21.660715286     7.869059776    24.935528020   0   0   0 # h*
    541      1   1 -0.820000    14.139257904     4.922325551    15.672908229   0   0   0 # o*
    542      1   2  0.410000    14.589089317     5.616418612    15.215340462   0   0   0 # h*
    543      1   2  0.410000    14.867518524     4.667180883    16.208003952   0   0   0 # h*
    544      1   1 -0.820000     3.472122604    18.484168185     7.837366510   0   0   0 # o*
    545      1   2  0.410000     2.949294870    17.712484520     8.070552301   0   0   0 # h*
    546      1   2  0.410000     2.780878196    19.235868993     7.846489222   0   0   0 # h*
    547      1   1 -0.820000    20.515631209    11.934260303    20.632380333   0   0   0 # o*
    548      1   2  0.410000    21.383350463    12.339493545    20.254111809   0   0   0 # h*
    549      1   2  0.410000    21.032802898    11.118266127    20.999186813   0   0   0 # h*
    550      1   1 -0.820000    18.541502470    14.065209003    28.265961272   0   0   0 # o*
    551      1   2  0.410000    19.226268119    14.788506194    28.277360733   0   0   0 # h*
    552      1   2  0.410000    18.959982708    13.457692802    27.618273965   0   0   0 # h*
    553      1   1 -0.820000    36.941442593    10.033240400     2.246448500   0   0   0 # o*
    554      1   2  0.410000    36.277734952    10.457185983     2.843803901   0   0   0 # h*
    555      1   2  0.410000    37.696090784    10.693786919     2.326370137   0   0   0 # h*
    556      1   1 -0.820000    46.458171761    15.221165598    12.311238928   0   0   0 # o*
    557      1   2  0.410000    46.840938350    15.504282218    11.424905663   0   0   0 # h*
    558      1   2  0.410000    47.294207004    14.893891999    12.650162285   0   0   0 # h*
    559      1   1 -0.820000     3.818488900    16.587852525     3.431096773   0   0   0 # o*
    560      1   2  0.410000     4.555161527    15.950127223     3.464355618   0   0   0 # h*
    561      1   2  0.410000     3.296139286    16.048847351     2.764830041   0   0   0 # h*
    562      1   1 -0.820000     3.905964368     1.846893104    12.953442350   0   0   0 # o*
    563      1   2  0.410000     3.763697214     2.817859113    12.762631233   0   0   0 # h*
    564      1   2  0.410000     3.822801955     1.487575631    11.999191509   0   0   0 # h*
    565      1   1 -0.820000    16.901314026     5.644440194    15.286688427   0   0   0 # o*
    566      1   2  0.410000    17.544051710     5.963041440    15.911798084   0   0   0 # h*
    567      1   2  0.410000    17.403249629     5.884663073    14.480641127   0   0   0 # h*
    568      1   1 -0.820000    25.173671789    20.924188755     3.915276169   0   0   0 # o*
    569      1   2  0.410000    25.736749313    20.499312221     3.255657395   0   0   0 # h*
    570      1   2  0.410000    25.670164756    21.675391283     4.340985684   0   0   0 # h*
    571      1   1 -0.820000    23.096087075     8.632889624     3.073741233   0   0   0 # o*
    572      1   2  0.410000    22.738297941     7.752078189     2.779335135   0   0   0 # h*
    573      1   2  0.410000    23.991907894     8.391074576     3.286804757   0   0   0 # h*
    574      1   1 -0.820000    31.932984313     1.681389849    18.330257353   0   1   0 # o*
    575      1   2  0.410000    31.389426702     0.963756242    18.042881324   0   1   0 # h*
    576      1   2  0.410000    31.907803090     2.318865997    17.591366178   0   1   0 # h*
    577      1   1 -0.820000    24.614811663    19.916146366    22.729066309   0   0   0 # o*
    578      1   2  0.410000    25.146259455    19.298446221    23.359595165   0   0   0 # h*
    579      1   2  0.410000    23.764323169    19.825240093    23.114105522   0   0   0 # h*
    580      1   1 -0.820000    32.184773986    14.683826219    16.376204961   0   0   0 # o*
    581      1   2  0.410000    31.504930359    15.130589309    15.821522266   0   0   0 # h*
    582      1   2  0.410000    32.709210943    14.134425436    15.776568846   0   0   0 # h*
    583      1   1 -0.820000    29.269548772    15.096262919    22.703985227   0   0   0 # o*
    584      1   2  0.410000    30.257138489    15.153900873    22.853827158   0   0   0 # h*
    585      1   2  0.410000    29.183164565    14.117604090    22.445584603   0   0   0 # h*
    586      1   1 -0.820000    33.181651526     4.499325092     9.540956206   0   0   0 # o*
    587      1   2  0.410000    32.925414576     4.449768358    10.473521945   0   0   0 # h*
    588      1   2  0.410000    33.506877226     3.575129653     9.339257889   0   0   0 # h*
    589      1   1 -0.820000    10.038728694    13.396878236     2.527350058   0   0   0 # o*
    590      1   2  0.410000     9.931817017    12.448900211     2.344111123   0   0   0 # h*
    591      1   2  0.410000     9.178663725    13.683445658     2.185924493   0   0   0 # h*
    592      1   1 -0.820000    28.751183044     1.376534176    16.592236434   0   0   0 # o*
    593      1   2  0.410000    27.913914941     1.918623702    16.708619779   0   0   0 # h*
    594      1   2  0.410000    28.552669970     1.128805902    15.644157250   0   0   0 # h*
    595      1   1 -0.820000    36.582290283    14.979457601    25.771057916   0   0  -1 # o*
    596      1   2  0.410000    36.092336772    15.673899735    25.300235278   0   0  -1 # h*
    597      1   2  0.410000    36.073099876    14.999437009    26.597309964   0   0  -1 # h*
    598      1   1 -0.820000    30.770443548    20.177853442     6.606403451   0   0   0 # o*
    599      1   2  0.410000    31.355541295    20.950196293     6.491151161   0   0   0 # h*
    600      1   2  0.410000    31.385119419    19.705539611     7.138902650   0   0   0 # h*
    601      1   1 -0.820000    40.293541746    11.033376355    21.397963192   0   0   0 # o*
    602      1   2  0.410000    39.870510227    10.162564072    21.537580913   0   0   0 # h*
    603      1   2  0.410000    39.637012059    11.742657315    21.535331406   0   0   0 # h*
    604      1   1 -0.820000    37.496680617     8.090770286    24.877890476   0   0   0 # o*
    605      1   2  0.410000    37.685076537     8.030299056    25.877193174   0   0   0 # h*
    606      1   2  0.410000    37.395398180     9.108219890    24.787465011   0   0   0 # h*
    607      1   1 -0.820000    29.603651249    18.179664357     9.506755573   0   0   0 # o*
    608      1   2  0.410000    28.670010827    18.229677126     9.817526044   0   0   0 # h*
    609      1   2  0.410000    30.034079936    18.532269528    10.277593717   0   0   0 # h*
    610      1   1 -0.820000    12.456741073    12.284735714    27.615753155   0   0  -1 # o*
    611      1   2  0.410000    13.248531238    12.810661688    27.946181288   0   0  -1 # h*
    612      1   2  0.410000    12.059679719    11.893327723     0.463417295   0   0   0 # h*
    613      1   1 -0.820000    18.860998299    15.174158946    14.349390572   0   0   0 # o*
    614      1   2  0.410000    19.633997202    14.684332299    14.059694644   0   0   0 # h*
    615      1   2  0.410000    18.212280563    14.673487181    13.755008185   0   0   0 # h*
    616      1   1 -0.820000    21.327515625    11.099746247     9.775920492   0   0   0 # o*
    617      1   2  0.410000    22.037058906    11.051515011     9.082052248   0   0   0 # h*
    618      1   2  0.410000    21.558208176    11.947122834    10.193687629   0   0   0 # h*
    619      1   1 -0.820000     7.291774417     8.406148493    21.863240099   0   0   0 # o*
    620      1   2  0.410000     7.915250644     9.144349503    22.003278730   0   0   0 # h*
    621      1   2  0.410000     6.430639861     8.793513826    22.112273798   0   0   0 # h*
    622      1   1 -0.820000     9.924957268     8.554223149     1.034423985   0   0   1 # o*
    623      1   2  0.410000    10.620425771     8.011237215     1.424453421   0   0   1 # h*
    624      1   2  0.410000     9.855326458     7.875792147    28.291119445   0   0   0 # h*
    625      1   1 -0.820000    31.202114439     5.207328913    23.135543087   0   0   0 # o*
    626      1   2  0.410000    30.810813779     4.726408244    23.909447435   0   0   0 # h*
    627      1   2  0.410000    31.333499027     4.445540713    22.514185952   0   0   0 # h*
    628      1   1 -0.820000    35.958610629     2.145428514    24.067543878   0   0   0 # o*
    629      1   2  0.410000    35.287632179     2.771041909    23.792747038   0   0   0 # h*
    630      1   2  0.410000    36.496631572     1.942079505    23.255026029   0   0   0 # h*
    631      1   1 -0.820000    43.803989492    21.074984850    16.781372211   0   0   0 # o*
    632      1   2  0.410000    44.764928066    21.059353838    16.654061058   0   0   0 # h*
    633      1   2  0.410000    43.690963547    20.893059388    17.759998594   0   0   0 # h*
    634      1   1 -0.820000    29.976988488     0.401818096     4.163648559   0   1   0 # o*
    635      1   2  0.410000    30.207241048    22.479540416     3.260743981   0   0   0 # h*
    636      1   2  0.410000    30.827449748     0.303806448     4.664162812   0   1   0 # h*
    637      1   1 -0.820000     8.120601551    10.769008543    16.136089681   0   0   0 # o*
    638      1   2  0.410000     8.581859931    11.612993258    16.468832443   0   0   0 # h*
    639      1   2  0.410000     8.362023860    10.108480565    16.835362013   0   0   0 # h*
    640      1   1 -0.820000     9.133950520     6.324353749    25.734552483   0   0   0 # o*
    641      1   2  0.410000     9.972598286     6.860625288    25.696599274   0   0   0 # h*
    642      1   2  0.410000     8.528870595     7.074413829    25.614395802   0   0   0 # h*
    643      1   1 -0.820000    21.123205487    10.863152304     6.252248266   0   0   0 # o*
    644      1   2  0.410000    20.352426242    10.412684421     5.845231636   0   0   0 # h*
    645      1   2  0.410000    20.753264320    11.727159941     6.337433031   0   0   0 # h*
    646      1   1 -0.820000    12.232157962    20.374163551     3.488912164   0   0   0 # o*
    647      1   2  0.410000    12.921713923    20.461181541     2.786485150   0   0   0 # h*
    648      1   2  0.410000    11.421937177    20.789022550     3.027521527   0   0   0 # h*
    649      1   1 -0.820000    13.389939709     2.865071260    27.844959752   0   0  -1 # o*
    650      1   2  0.410000    13.608546920     3.830983607    28.000098962   0   0  -1 # h*
    651      1   2  0.410000    14.163249040     2.437472139    28.218192748   0   0  -1 # h*
    652      1   1 -0.820000    39.576121470     5.352499402     3.565546210   0   0   0 # o*
    653      1   2  0.410000    40.326791736     5.282734710     4.138598492   0   0   0 # h*
    654      1   2  0.410000    39.826708152     6.114564456     2.976342626   0   0   0 # h*
    655      1   1 -0.820000    25.712075354    12.169824572     6.456387061   0   0   0 # o*
    656      1   2  0.410000    25.440528174    11.767610723     5.608436567   0   0   0 # h*
    657      1   2  0.410000    26.607052135    12.446928463     6.229122462   0   0   0 # h*
    658      1   1 -0.820000    29.493150847    10.930748658     0.635972124   0   0   0 # o*
    659      1   2  0.410000    29.974325711    10.107762697    28.293380392   0   0  -1 # h*
    660      1   2  0.410000    28.756096321    10.566587675     1.206566716   0   0   0 # h*
    661      1   1 -0.820000    16.409599731     8.422371770     8.028703114   0   0   0 # o*
    662      1   2  0.410000    16.275084446     9.327273824     7.629449769   0   0   0 # h*
    663      1   2  0.410000    16.054184487     8.657297896     8.924997026   0   0   0 # h*
    664      1   1 -0.820000     9.042677231    17.846217832    19.313232321   0   0   0 # o*
    665      1   2  0.410000     9.166224885    18.755931727    19.019932479   0   0   0 # h*
    666      1   2  0.410000     8.575117245    18.039899264    20.135833208   0   0   0 # h*
    667      1   1 -0.820000     5.556069934    18.533413745    23.919199347   0   0   0 # o*
    668      1   2  0.410000     5.395545263    17.958819332    24.724918764   0   0   0 # h*
    669      1   2  0.410000     4.896798680    19.249950406    24.023788914   0   0   0 # h*
    670      1   1 -0.820000    39.862586973    19.744656195    19.264073363   0   0   0 # o*
    671      1   2  0.410000    39.748324007    18.852848811    19.730062704   0   0   0 # h*
    672      1   2  0.410000    39.438627891    20.323720991    19.943995663   0   0   0 # h*
    673      1   1 -0.820000    37.304453689     1.547950936     6.628171793   0   1   0 # o*
    674      1   2  0.410000    37.627762243     1.857167676     5.782599862   0   1   0 # h*
    675      1   2  0.410000    38.146893761     1.523235299     7.082247304   0   1   0 # h*
    676      1   1 -0.820000    34.306617970     1.042519852    19.448913178   0   0   0 # o*
    677      1   2  0.410000    33.358649772     1.142085325    19.107393631   0   0   0 # h*
    678      1   2  0.410000    34.782932144     0.505492917    18.737995753   0   0   0 # h*
    679      1   1 -0.820000    32.059886580     1.201439230     1.024125042   0   0   1 # o*
    680      1   2  0.410000    32.231423258     1.888280430     1.743580011   0   0   1 # h*
    681      1   2  0.410000    31.926724604     1.803031141    28.267395977   0   0   0 # h*
    682      1   1 -0.820000    37.600704701    19.780911533    11.754021564   0   0   0 # o*
    683      1   2  0.410000    37.634261208    20.653998620    12.266755098   0   0   0 # h*
    684      1   2  0.410000    36.690158980    19.441000412    11.972659670   0   0   0 # h*
    685      1   1 -0.820000    18.963434224     0.684130418    20.150504187   0   0   0 # o*
    686      1   2  0.410000    19.611854258     0.430349645    19.445889685   0   0   0 # h*
    687      1   2  0.410000    18.325834737     1.131054512    19.557261604   0   0   0 # h*
    688      1   1 -0.820000    21.016114214     3.152499456    24.970982802   0   0   0 # o*
    689      1   2  0.410000    20.705803330     2.270419161    24.744614179   0   0   0 # h*
    690      1   2  0.410000    21.820184148     3.189239300    24.387966093   0   0   0 # h*
    691      1   1 -0.820000     0.461179200     3.422862647    14.041088110   1   0   0 # o*
    692      1   2  0.410000    47.581741756     3.762748132    14.279288599   0   0   0 # h*
    693      1   2  0.410000     0.489239146     2.675042412    14.667307565   1   0   0 # h*
    694      1   1 -0.820000     3.099520422     9.607702339    12.759683801   0   0   0 # o*
    695      1   2  0.410000     3.078721592    10.634314684    12.843753199   0   0   0 # h*
    696      1   2  0.410000     3.255826222     9.524483184    11.768390124   0   0   0 # h*
    697      1   1 -0.820000    41.170916820    18.573385080    11.804353109   0   0   0 # o*
    698      1   2  0.410000    40.679650734    18.523824733    12.637253287   0   0   0 # h*
    699      1   2  0.410000    41.970387386    18.160096221    12.075748021   0   0   0 # h*
    700      1   1 -0.820000    45.085526241     5.670463202    24.762847560  -1   0   0 # o*
    701      1   2  0.410000    44.593132331     4.923863356    24.323921856  -1   0   0 # h*
    702      1   2  0.410000    44.336961461     6.052500167    25.304193404  -1   0   0 # h*
    703      1   1 -0.820000     1.617904307     6.176052570    25.767797077   0   0   0 # o*
    704      1   2  0.410000     1.829397534     6.372735760    24.808646275   0   0   0 # h*
    705      1   2  0.410000     1.556671558     5.182799964    25.806557793   0   0   0 # h*
    706      1   1 -0.820000    18.516895847     9.952466492     5.524730849   0   0   0 # o*
    707      1   2  0.410000    17.595749610     9.464454050     5.416616722   0   0   0 # h*
    708      1   2  0.410000    18.231962020    10.802395967     5.070412619   0   0   0 # h*
    709      1   1 -0.820000    35.888858521    10.081110446    13.245152973   0   0   0 # o*
    710      1   2  0.410000    35.319379035     9.369619283    13.520908849   0   0   0 # h*
    711      1   2  0.410000    35.474838394    10.336652944    12.425541916   0   0   0 # h*
    712      1   1 -0.820000     5.256876225    13.082131178     6.645443641   0   0   0 # o*
    713      1   2  0.410000     5.211946900    13.829247196     6.034849396   0   0   0 # h*
    714      1   2  0.410000     4.407243804    12.570535772     6.408668968   0   0   0 # h*
    715      1   1 -0.820000     9.623593164    20.186528982    20.631087143   0   0   0 # o*
    716      1   2  0.410000    10.316550825    19.956834744    21.246261768   0   0   0 # h*
    717      1   2  0.410000    10.044445958    20.754246724    19.916578198   0   0   0 # h*
    718      1   1 -0.820000    15.676762141    14.448958363     6.119615635   0   0   0 # o*
    719      1   2  0.410000    16.112457382    13.891891480     5.458004565   0   0   0 # h*
    720      1   2  0.410000    15.223065042    15.056649326     5.473348441   0   0   0 # h*
    721      1   1 -0.820000    45.397325409     3.010290062    11.412101832   0   0   0 # o*
    722      1   2  0.410000    45.581883294     2.824764348    10.465325942   0   0   0 # h*
    723      1   2  0.410000    44.923953167     2.168975530    11.652212878   0   0   0 # h*
    724      1   1 -0.820000    40.777204859    17.933942243     3.212340682   0   0   0 # o*
    725      1   2  0.410000    41.347500461    18.454531021     3.810783006   0   0   0 # h*
    726      1   2  0.410000    40.828453353    18.530721289     2.411750998   0   0   0 # h*
    727      1   1 -0.820000    37.393758448     6.684776743    22.482593215   0   0   0 # o*
    728      1   2  0.410000    37.166123475     5.762667384    22.823095703   0   0   0 # h*
    729      1   2  0.410000    37.755647570     7.136557280    23.306114422   0   0   0 # h*
    730      1   1 -0.820000    34.883223238    10.276630797    24.223503151   0   0   0 # o*
    731      1   2  0.410000    35.421193519     9.817882956    23.534559329   0   0   0 # h*
    732      1   2  0.410000    34.033480176    10.451387770    23.795494718   0   0   0 # h*
    733      1   1 -0.820000    27.944565114    17.549550477    22.573369234   0   0   0 # o*
    734      1   2  0.410000    28.566056879    16.848249925    22.841677752   0   0   0 # h*
    735      1   2  0.410000    28.410251421    17.811824923    21.718364048   0   0   0 # h*
    736      1   1 -0.820000    27.631551355    20.921293505    22.183327467   0   0   0 # o*
    737      1   2  0.410000    27.937625924    20.337748199    22.963147757   0   0   0 # h*
    738      1   2  0.410000    27.438467207    20.221478980    21.538326809   0   0   0 # h*
    739      1   1 -0.820000    21.554656519     9.303920739    20.653262874   0   0   0 # o*
    740      1   2  0.410000    21.409301924     8.511887964    20.057382018   0   0   0 # h*
    741      1   2  0.410000    22.342215166     9.680342184    20.082778646   0   0   0 # h*
    742      1   1 -0.820000    25.226098999     9.416238750    25.534873260   0   0   0 # o*
    743      1   2  0.410000    24.640903492     9.170816552    26.326430607   0   0   0 # h*
    744      1   2  0.410000    26.079164540     8.989323534    25.820633630   0   0   0 # h*
    745      1   1 -0.820000    43.036256981     8.058056901    10.376361397   0   0   0 # o*
    746      1   2  0.410000    42.664786546     8.753124652     9.772471033   0   0   0 # h*
    747      1   2  0.410000    42.704767564     8.372045835    11.262731969   0   0   0 # h*
    748      1   1 -0.820000    33.135008903     4.981813071     6.552297360   0   0   0 # o*
    749      1   2  0.410000    33.332638876     5.867327520     6.283760489   0   0   0 # h*
    750      1   2  0.410000    33.205673815     5.113865402     7.579630863   0   0   0 # h*
    751      1   1 -0.820000     6.554939096     7.590706738    15.788065109   0   0   0 # o*
    752      1   2  0.410000     6.751901758     8.562873217    15.690607667   0   0   0 # h*
    753      1   2  0.410000     5.556826905     7.583886742    15.676833384   0   0   0 # h*
    754      1   1 -0.820000     9.496618060     4.832180249    17.761003334   0   0   0 # o*
    755      1   2  0.410000     9.645971352     5.446811199    16.976278150   0   0   0 # h*
    756      1   2  0.410000     9.073139374     5.402547260    18.425244138   0   0   0 # h*
    757      1   1 -0.820000    23.963673551    21.453503604    18.983929310   0   0   0 # o*
    758      1   2  0.410000    23.673626369    22.336157690    18.944807636   0   0   0 # h*
    759      1   2  0.410000    23.321282358    21.022917608    19.641639391   0   0   0 # h*
    760      1   1 -0.820000    24.225479447     2.375434001    24.255851559   0   1   0 # o*
    761      1   2  0.410000    24.680109631     1.863942408    23.519702333   0   1   0 # h*
    762      1   2  0.410000    24.227855515     1.670629543    24.954381023   0   1   0 # h*
    763      1   1 -0.820000    38.327496205    11.206991154    18.355537162   0   0   0 # o*
    764      1   2  0.410000    37.682283513    10.725367688    18.951407916   0   0   0 # h*
    765      1   2  0.410000    39.220787061    10.885397755    18.693812488   0   0   0 # h*
    766      1   1 -0.820000    24.175099276    13.950212859    18.348831511   0   0   0 # o*
    767      1   2  0.410000    23.505520671    14.659396553    18.475252369   0   0   0 # h*
    768      1   2  0.410000    24.577541117    14.001540244    19.248230682   0   0   0 # h*
    769      1   1 -0.820000    21.322960259    17.920896437    23.306603669   0   0   0 # o*
    770      1   2  0.410000    21.699444934    17.763999348    22.444687867   0   0   0 # h*
    771      1   2  0.410000    21.656984844    17.084613484    23.734009589   0   0   0 # h*
    772      1   1 -0.820000    33.990891223     4.852570271    17.629505303   0   0   0 # o*
    773      1   2  0.410000    33.360889367     4.227040628    17.212071410   0   0   0 # h*
    774      1   2  0.410000    34.795715086     4.889828222    17.054932711   0   0   0 # h*
    775      1   1 -0.820000    36.384912962    18.851287206     7.411137871   0   0   0 # o*
    776      1   2  0.410000    36.843885445    19.709129219     7.631414337   0   0   0 # h*
    777      1   2  0.410000    35.566044773    19.001271906     7.947827143   0   0   0 # h*
    778      1   1 -0.820000    29.607474195     2.789150413    12.049056830   0   0   0 # o*
    779      1   2  0.410000    29.401857621     2.022478843    11.502812505   0   0   0 # h*
    780      1   2  0.410000    30.236420365     2.364573927    12.683783672   0   0   0 # h*
    781      1   1 -0.820000    12.046628620    21.824006806     6.351383025   0   0   0 # o*
    782      1   2  0.410000    12.756733599    22.498044714     6.602315397   0   0   0 # h*
    783      1   2  0.410000    12.341107115    21.603787764     5.429198466   0   0   0 # h*
    784      1   1 -0.820000    47.037559261    14.373237949    17.436101462   0   0   0 # o*
    785      1   2  0.410000    46.659178517    14.881460887    16.726607524   0   0   0 # h*
    786      1   2  0.410000    46.408475588    14.607735792    18.185515708   0   0   0 # h*
    787      1   1 -0.820000    46.779490321    11.318166075    23.987693433   0   0   0 # o*
    788      1   2  0.410000    46.852975596    10.328770133    24.056993594   0   0   0 # h*
    789      1   2  0.410000    45.801498224    11.388175445    23.957758828   0   0   0 # h*
    790      1   1 -0.820000    10.246989529    20.784311702     1.684535614   0   0   0 # o*
    791      1   2  0.410000    10.713656550    21.398781931     1.108232297   0   0   0 # h*
    792      1   2  0.410000     9.272911585    20.987818019     1.473384900   0   0   0 # h*
    793      1   1 -0.820000    18.090580990     1.318814679    11.046594325   0   0   0 # o*
    794      1   2  0.410000    17.644788292     0.742050744    10.334626444   0   0   0 # h*
    795      1   2  0.410000    17.524016486     2.143960812    11.015861410   0   0   0 # h*
    796      1   1 -0.820000    45.985959237     6.360340365    10.922045674   0   0   0 # o*
    797      1   2  0.410000    45.413014183     6.824343666    10.287246222   0   0   0 # h*
    798      1   2  0.410000    45.994158765     5.484814380    10.501225727   0   0   0 # h*
    799      1   1 -0.820000     8.513249107     8.884650169    18.253078977   0   0   0 # o*
    800      1   2  0.410000     7.598015539     8.619271415    18.212296116   0   0   0 # h*
    801      1   2  0.410000     8.698537703     8.542052953    19.152560762   0   0   0 # h*
    802      1   1 -0.820000     6.212308548     7.678675546     1.558869546   0   0   1 # o*
    803      1   2  0.410000     6.116357063     7.922024396     0.607943832   0   0   1 # h*
    804      1   2  0.410000     5.876162388     8.544429151     1.928695493   0   0   1 # h*
    805      1   1 -0.820000     4.250997345    12.319382803    23.398081783   0   0   0 # o*
    806      1   2  0.410000     3.573498125    11.745054053    23.766921207   0   0   0 # h*
    807      1   2  0.410000     3.950765070    13.176498142    23.784449048   0   0   0 # h*
    808      1   1 -0.820000     5.184869981     9.242482476    24.467176527   0   0   0 # o*
    809      1   2  0.410000     4.691690142     8.402370114    24.580303645   0   0   0 # h*
    810      1   2  0.410000     4.714256352     9.598649681    23.715743634   0   0   0 # h*
    811      1   1 -0.820000    19.206119037     8.231170596     1.939914269   0   0   0 # o*
    812      1   2  0.410000    19.732315239     7.449870134     2.338501242   0   0   0 # h*
    813      1   2  0.410000    18.717501732     7.719246560     1.260888601   0   0   0 # h*
    814      1   1 -0.820000     7.815680830    13.947322760    14.785144314   0   0   0 # o*
    815      1   2  0.410000     8.377521166    14.240600419    15.539509705   0   0   0 # h*
    816      1   2  0.410000     7.018915395    13.606364798    15.353463208   0   0   0 # h*
    817      1   1 -0.820000     4.187594870    15.238031205    23.392631297   0   0   0 # o*
    818      1   2  0.410000     5.011924499    15.467712817    22.830653068   0   0   0 # h*
    819      1   2  0.410000     3.511685574    15.525189365    22.755976296   0   0   0 # h*
    820      1   1 -0.820000    36.662647851    11.451464428    16.089317801   0   0   0 # o*
    821      1   2  0.410000    37.198858728    11.396433253    16.905692574   0   0   0 # h*
    822      1   2  0.410000    37.161537864    11.995264714    15.440912497   0   0   0 # h*
    823      1   1 -0.820000    21.946667917    12.077070882    24.769270803   0   0   0 # o*
    824      1   2  0.410000    21.971448512    11.171797222    25.122358244   0   0   0 # h*
    825      1   2  0.410000    22.546762958    12.140545036    24.043875674   0   0   0 # h*
    826      1   1 -0.820000    25.949348281    12.567303762    26.864673498   0   0   0 # o*
    827      1   2  0.410000    25.600157953    12.095081667    26.106895236   0   0   0 # h*
    828      1   2  0.410000    25.617720053    12.014285755    27.632575879   0   0   0 # h*
    829      1   1 -0.820000    36.681542683    13.353546854     6.180016515   0   0   0 # o*
    830      1   2  0.410000    37.419373435    13.858663760     5.736690786   0   0   0 # h*
    831      1   2  0.410000    36.503740609    13.965532605     6.960872367   0   0   0 # h*
    832      1   1 -0.820000    37.615663090    20.808435710     8.683615934   0   0   0 # o*
    833      1   2  0.410000    38.316598518    21.376422880     8.258234196   0   0   0 # h*
    834      1   2  0.410000    38.003416082    20.788305631     9.568528958   0   0   0 # h*
    835      1   1 -0.820000    46.713412581     3.426286057    16.794752523   0   0   0 # o*
    836      1   2  0.410000    45.755088484     3.154727654    16.907655504   0   0   0 # h*
    837      1   2  0.410000    47.224967359     2.542133452    16.736127467   0   0   0 # h*
    838      1   1 -0.820000    32.020400307     2.307987861     3.628880718   0   0   0 # o*
    839      1   2  0.410000    31.976512221     3.333085963     3.800962618   0   0   0 # h*
    840      1   2  0.410000    32.215086289     1.843324291     4.467298510   0   0   0 # h*
    841      1   1 -0.820000    38.161071609    14.322475324    19.206104000   0   0   0 # o*
    842      1   2  0.410000    38.108076896    13.338378335    19.042616332   0   0   0 # h*
    843      1   2  0.410000    37.238015263    14.539700468    19.225245851   0   0   0 # h*
    844      1   1 -0.820000    35.323712627    15.662342172    22.601166373   0   0   0 # o*
    845      1   2  0.410000    35.630227597    16.635098037    22.422723729   0   0   0 # h*
    846      1   2  0.410000    34.810482058    15.601684391    21.748909103   0   0   0 # h*
    847      1   1 -0.820000    22.475187921     1.106506930     1.393031379   0   0   0 # o*
    848      1   2  0.410000    22.312578350    22.489483375     1.958282119   0  -1   0 # h*
    849      1   2  0.410000    21.724624017     1.656402537     1.727226611   0   0   0 # h*
    850      1   1 -0.820000    36.307252007     3.175234295    19.337968323   0   0   0 # o*
    851      1   2  0.410000    35.588222506     2.466814009    19.411789043   0   0   0 # h*
    852      1   2  0.410000    35.758767677     3.898752366    19.005160341   0   0   0 # h*
    853      1   1 -0.820000    37.118021914    21.229485253    20.092586318   0   0   0 # o*
    854      1   2  0.410000    36.485535170    20.554242948    20.403348175   0   0   0 # h*
    855      1   2  0.410000    36.886758265    21.196484161    19.111237264   0   0   0 # h*
    856      1   1 -0.820000    38.353752638    19.549333821     1.938089202   0   0   1 # o*
    857      1   2  0.410000    37.498997640    19.204037869     1.518548919   0   0   1 # h*
    858      1   2  0.410000    38.925694316    19.106934828     1.224403816   0   0   1 # h*
    859      1   1 -0.820000     7.753947619    22.384238510     3.013671735   0   0   0 # o*
    860      1   2  0.410000     8.303257382     0.311346288     2.192219404   0   1   0 # h*
    861      1   2  0.410000     7.447146277     1.034091600     3.203932411   0   1   0 # h*
    862      1   1 -0.820000    18.875655881     5.219833653    20.509690988   0   0   0 # o*
    863      1   2  0.410000    17.976389130     5.566600236    20.463221844   0   0   0 # h*
    864      1   2  0.410000    18.855635131     4.553648066    21.252338692   0   0   0 # h*
    865      1   1 -0.820000    33.195111450    18.507593682     2.272329654   0   0   0 # o*
    866      1   2  0.410000    33.504162506    19.142441238     1.561409177   0   0   0 # h*
    867      1   2  0.410000    32.359053432    18.899329924     2.618986394   0   0   0 # h*
    868      1   1 -0.820000    28.702400343    10.559038481    18.505276103   0   0   0 # o*
    869      1   2  0.410000    28.205910091    11.343672536    18.729614783   0   0   0 # h*
    870      1   2  0.410000    28.655456570    10.585668523    17.542831786   0   0   0 # h*
    871      1   1 -0.820000    25.355380908    11.854844945    24.029232640   0   0   0 # o*
    872      1   2  0.410000    24.817200107    11.295585552    24.616357564   0   0   0 # h*
    873      1   2  0.410000    26.165527909    11.254827457    24.103398426   0   0   0 # h*
    874      1   1 -0.820000     1.906074873     0.457838599    21.883568374   0   0   0 # o*
    875      1   2  0.410000     2.429547653    22.419908893    21.120937053   0  -1   0 # h*
    876      1   2  0.410000     1.744210252     1.369954244    21.532034561   0   0   0 # h*
    877      1   1 -0.820000     7.788791228    21.361218764    27.696267590   0  -1   0 # o*
    878      1   2  0.410000     8.320308996    21.941773934    27.131416353   0  -1   0 # h*
    879      1   2  0.410000     7.636157685    20.587358222    27.085811886   0  -1   0 # h*
    880      1   1 -0.820000     7.910157714    12.213176602    19.647015683   0   0   0 # o*
    881      1   2  0.410000     8.027715515    11.321959619    20.032355643   0   0   0 # h*
    882      1   2  0.410000     8.748776774    12.631617087    19.741011369   0   0   0 # h*
    883      1   1 -0.820000     8.806490878    11.000792771     1.444612872   0   0   1 # o*
    884      1   2  0.410000     8.573589827    11.060514104     0.504472962   0   0   1 # h*
    885      1   2  0.410000     9.321973225    10.130534229     1.338290290   0   0   1 # h*
    886      1   1 -0.820000     0.502228248    11.933039163     5.587417231   0   0   0 # o*
    887      1   2  0.410000    47.572074168    12.240182884     5.629304618  -1   0   0 # h*
    888      1   2  0.410000     0.385527607    10.972815667     5.876641815   0   0   0 # h*
    889      1   1 -0.820000    30.785098799    13.938518416    10.287797837   0   0   0 # o*
    890      1   2  0.410000    30.212705303    14.420057955    10.874239247   0   0   0 # h*
    891      1   2  0.410000    30.442969315    14.199293824     9.421403206   0   0   0 # h*
    892      1   1 -0.820000    12.821773442     9.294338756    20.125261943   0   0   0 # o*
    893      1   2  0.410000    12.629421520     8.466230997    19.562204684   0   0   0 # h*
    894      1   2  0.410000    12.082225332     9.152637649    20.751936264   0   0   0 # h*
    895      1   1 -0.820000    13.805636698    10.131898005    26.728977215   0   0   0 # o*
    896      1   2  0.410000    13.791438701    10.371423290    25.740657014   0   0   0 # h*
    897      1   2  0.410000    13.116713367    10.770560728    26.942563781   0   0   0 # h*
    898      1   1 -0.820000    30.903034257     5.077452925    12.751302378   0   0   0 # o*
    899      1   2  0.410000    30.258776674     4.390426333    12.403829971   0   0   0 # h*
    900      1   2  0.410000    30.490724943     5.934561637    12.465987514   0   0   0 # h*
    901      1   1 -0.820000    26.439343768    12.612896750    14.721076619   0   0   0 # o*
    902      1   2  0.410000    27.144251404    13.240766405    14.825610195   0   0   0 # h*
    903      1   2  0.410000    26.487749692    12.372046865    13.782552239   0   0   0 # h*
    904      1   1 -0.820000    26.320057854    14.672202140    24.753748291   0   0   0 # o*
    905      1   2  0.410000    27.228231586    14.967675766    25.115124546   0   0   0 # h*
    906      1   2  0.410000    26.350232345    13.737739202    24.858733234   0   0   0 # h*
    907      1   1 -0.820000    30.023875860     4.980842866     8.904872852   0   0   0 # o*
    908      1   2  0.410000    29.450242758     5.429657559     9.587332250   0   0   0 # h*
    909      1   2  0.410000    30.834986783     4.826040755     9.358038203   0   0   0 # h*
    910      1   1 -0.820000    40.179222111    16.733426090    17.229826951   0   0   0 # o*
    911      1   2  0.410000    40.007495862    15.815854328    17.056122322   0   0   0 # h*
    912      1   2  0.410000    41.157794741    16.697604111    17.423704688   0   0   0 # h*
    913      1   1 -0.820000    24.215011418     7.563292387    18.544512280   0   0   0 # o*
    914      1   2  0.410000    23.972116693     6.632330584    18.325323726   0   0   0 # h*
    915      1   2  0.410000    24.078846063     8.076292489    17.714512048   0   0   0 # h*
    916      1   1 -0.820000    27.776936515     4.997509903    26.878835641   0   0   0 # o*
    917      1   2  0.410000    26.890707305     5.218193399    26.505037718   0   0   0 # h*
    918      1   2  0.410000    27.802729365     4.038107982    26.774137286   0   0   0 # h*
    919      1   1 -0.820000    42.733242017    20.082421368    19.179086740   0   0   0 # o*
    920      1   2  0.410000    43.150361448    19.255471715    18.907285936   0   0   0 # h*
    921      1   2  0.410000    41.891739519    20.144127988    18.726548486   0   0   0 # h*
    922      1   1 -0.820000    42.423115446    20.033032812    25.062166099   0   0   0 # o*
    923      1   2  0.410000    41.474900985    19.949844504    25.146788647   0   0   0 # h*
    924      1   2  0.410000    42.667118614    20.013603604    24.109119636   0   0   0 # h*
    925      1   1 -0.820000    15.634728538    14.230624890    18.378661415   0   0   0 # o*
    926      1   2  0.410000    16.007503259    13.527041343    17.751223414   0   0   0 # h*
    927      1   2  0.410000    16.230367535    14.030331381    19.159145254   0   0   0 # h*
    928      1   1 -0.820000    15.924593838    11.971746204    22.669393443   0   0   0 # o*
    929      1   2  0.410000    15.502000269    12.194142532    23.485483186   0   0   0 # h*
    930      1   2  0.410000    15.975272986    11.005993753    22.678678259   0   0   0 # h*
    931      1   1 -0.820000     8.747616565    19.879665420    10.891396446   0   0   0 # o*
    932      1   2  0.410000     8.066497716    20.568318006    11.155009587   0   0   0 # h*
    933      1   2  0.410000     8.604206783    20.034610358     9.844405337   0   0   0 # h*
    934      1   1 -0.820000    43.290094241     5.481369261    11.844563938   0   0   0 # o*
    935      1   2  0.410000    43.226945077     6.358707095    11.553176657   0   0   0 # h*
    936      1   2  0.410000    44.267247286     5.391958666    11.810913775   0   0   0 # h*
    937      1   1 -0.820000     0.226822600    11.607476506    17.912823937   1   0   0 # o*
    938      1   2  0.410000    47.962855634    12.470817798    17.608217684   0   0   0 # h*
    939      1   2  0.410000    47.323839444    11.234681481    18.152530259   0   0   0 # h*
    940      1   1 -0.820000     9.010946896     4.671884883     4.684697323   0   0   0 # o*
    941      1   2  0.410000     9.112492057     5.342475663     3.992469567   0   0   0 # h*
    942      1   2  0.410000     9.682375624     3.956861741     4.429070477   0   0   0 # h*
    943      1   1 -0.820000    31.630848910     1.534873143    13.256927195   0   0   0 # o*
    944      1   2  0.410000    32.209092061     0.942018813    12.754580037   0   0   0 # h*
    945      1   2  0.410000    32.202484734     1.689863543    14.013287840   0   0   0 # h*
    946      1   1 -0.820000    35.656054513    11.328254188     4.533846257   0   0   0 # o*
    947      1   2  0.410000    34.952590180    11.054886149     5.191845021   0   0   0 # h*
    948      1   2  0.410000    35.947326533    12.130634333     5.015303259   0   0   0 # h*
    949      1   1 -0.820000    41.766393662     0.746020266    18.985964771   0   1   0 # o*
    950      1   2  0.410000    40.890785551    22.528454335    18.813039709   0   0   0 # h*
    951      1   2  0.410000    42.344235944    22.339104393    19.464034462   0   0   0 # h*
    952      1   1 -0.820000    34.821665658    20.630954376    25.904786230   0   0   0 # o*
    953      1   2  0.410000    34.669501796    21.136913163    26.720756534   0   0   0 # h*
    954      1   2  0.410000    35.676738918    21.062007204    25.665076746   0   0   0 # h*
    955      1   1 -0.820000    47.873083706    19.245132496    13.918318826   0   0   0 # o*
    956      1   2  0.410000    47.973463581    18.640099564    13.154418514   0   0   0 # h*
    957      1   2  0.410000     0.672288419    19.804000550    13.784644400   1   0   0 # h*
    958      1   1 -0.820000    30.728170050    13.730668338    13.867087116   0   0   0 # o*
    959      1   2  0.410000    30.062304430    13.607667730    13.201785093   0   0   0 # h*
    960      1   2  0.410000    31.079438995    14.599997211    13.382346286   0   0   0 # h*
    961      1   1 -0.820000    39.345821880     7.167974181     9.092643354   0   0   0 # o*
    962      1   2  0.410000    40.085539792     7.783374710     9.325911931   0   0   0 # h*
    963      1   2  0.410000    39.467016245     6.455633854     9.741007259   0   0   0 # h*
    964      1   1 -0.820000     0.796736753    11.367421651    10.795706561   0   0   0 # o*
    965      1   2  0.410000     0.799876108    10.456797058    11.033407736   0   0   0 # h*
    966      1   2  0.410000     0.586593646    11.767527549    11.661107810   0   0   0 # h*
    967      1   1 -0.820000    27.681010588    19.154257432    25.810747260   0   0  -1 # o*
    968      1   2  0.410000    26.766194498    19.296044472    26.077689910   0   0  -1 # h*
    969      1   2  0.410000    27.617158178    18.196122499    25.752873085   0   0  -1 # h*
    970      1   1 -0.820000    36.462500053     8.517091383     6.551352262   0   0   0 # o*
    971      1   2  0.410000    36.790848502     7.909251164     5.840570279   0   0   0 # h*
    972      1   2  0.410000    37.240249351     8.491657241     7.142063137   0   0   0 # h*
    973      1   1 -0.820000    20.997921993     2.891918339     2.954919261   0   0   0 # o*
    974      1   2  0.410000    21.253299992     3.730781584     3.389585035   0   0   0 # h*
    975      1   2  0.410000    20.374895015     3.269620351     2.353005889   0   0   0 # h*
    976      1   1 -0.820000    17.448723801    19.012257506    16.313451201   0   0   0 # o*
    977      1   2  0.410000    17.530965408    19.429696550    17.176080177   0   0   0 # h*
    978      1   2  0.410000    17.100066430    18.121243843    16.554077652   0   0   0 # h*
    979      1   1 -0.820000    18.426782456    18.855261953    20.662488595   0   0   0 # o*
    980      1   2  0.410000    18.943588705    18.639102291    19.830255106   0   0   0 # h*
    981      1   2  0.410000    17.529980428    18.513759234    20.374731073   0   0   0 # h*
    982      1   1 -0.820000    14.765004202    14.621375950    25.260240995   0   0   0 # o*
    983      1   2  0.410000    14.662074663    15.302378964    25.981426068   0   0   0 # h*
    984      1   2  0.410000    15.226825156    13.970259241    25.885020503   0   0   0 # h*
    985      1   1 -0.820000    17.845845949     3.771888382     2.190574508   0   0   0 # o*
    986      1   2  0.410000    18.677320801     4.294190090     2.516269498   0   0   0 # h*
    987      1   2  0.410000    17.192790226     4.315345876     2.708331456   0   0   0 # h*
    988      1   1 -0.820000    34.247227520    10.262684034     6.955096641   0   0   0 # o*
    989      1   2  0.410000    34.961133716     9.661550496     6.527584601   0   0   0 # h*
    990      1   2  0.410000    33.711421831     9.560829373     7.343605511   0   0   0 # h*
    991      1   1 -0.820000    18.889558116    12.540821839    23.199924915   0   0   0 # o*
    992      1   2  0.410000    18.052376789    12.244691018    22.839470642   0   0   0 # h*
    993      1   2  0.410000    19.498577143    12.249887689    22.463752807   0   0   0 # h*
    994      1   1 -0.820000    15.923778057     8.337639903    24.415306485   0   0   0 # o*
    995      1   2  0.410000    15.636581444     8.737444419    23.541716842   0   0   0 # h*
    996      1   2  0.410000    16.775021971     8.853120986    24.607907207   0   0   0 # h*
    997      1   1 -0.820000    23.602283764     5.729015470     7.137928491   0   0   0 # o*
    998      1   2  0.410000    23.345939801     6.274056602     7.885067496   0   0   0 # h*
    999      1   2  0.410000    23.565480852     4.925104795     7.573514810   0   0   0 # h*
   1000      1   1 -0.820000    10.434321025    17.322499361     4.162479684   0   0   0 # o*
   1001      1   2  0.410000     9.641140535    17.894314005     4.447926957   0   0   0 # h*
   1002      1   2  0.410000    11.108664475    17.829592154     4.565151368   0   0   0 # h*
   1003      1   1 -0.820000    32.973177122    20.642153643     9.435400168   0   0   0 # o*
   1004      1   2  0.410000    33.133068839    20.053118324     8.622811584   0   0   0 # h*
   1005      1   2  0.410000    33.505753398    21.447334141     9.163074414   0   0   0 # h*
   1006      1   1 -0.820000     3.038583687     6.497949618     1.073585564   0   0   0 # o*
   1007      1   2  0.410000     2.525425713     7.340021584     1.018352810   0   0   0 # h*
   1008      1   2  0.410000     2.427257525     5.794466747     0.911863534   0   0   0 # h*
   1009      1   1 -0.820000    40.180602225    18.605068742    14.320548636   0   0   0 # o*
   1010      1   2  0.410000    39.601091253    19.208676485    14.833893206   0   0   0 # h*
   1011      1   2  0.410000    41.075014276    18.753038752    14.669776068   0   0   0 # h*
   1012      1   1 -0.820000     8.365249648    11.799460132    12.497940269   0   0   0 # o*
   1013      1   2  0.410000     7.983840911    12.738978025    12.621724942   0   0   0 # h*
   1014      1   2  0.410000     7.684415409    11.303311182    11.981427376   0   0   0 # h*
   1015      1   1 -0.820000     4.937928501     4.255839671    10.368941305   0   0   0 # o*
   1016      1   2  0.410000     4.207994636     4.407194167     9.723515918   0   0   0 # h*
   1017      1   2  0.410000     5.030452148     3.282775710    10.238400458   0   0   0 # h*
   1018      1   1 -0.820000    15.263837909    22.325272253    19.675374350   0   0   0 # o*
   1019      1   2  0.410000    14.757752412    21.955574140    20.389009181   0   0   0 # h*
   1020      1   2  0.410000    14.425484595     0.328511943    19.224502783   0   1   0 # h*
   1021      1   1 -0.820000    15.919775623    19.755343158    27.042024543   0   0   0 # o*
   1022      1   2  0.410000    16.555438629    19.895113010    27.836233875   0   0   0 # h*
   1023      1   2  0.410000    16.318876845    20.393104763    26.343341537   0   0   0 # h*
   1024      1   1 -0.820000    18.795173352    11.634312284    14.937168045   0   0   0 # o*
   1025      1   2  0.410000    18.290650670    10.774145976    14.860809480   0   0   0 # h*
   1026      1   2  0.410000    19.409027544    11.454089629    14.221019097   0   0   0 # h*
   1027      1   1 -0.820000    18.465432060     9.642434019    24.732135672   0   0   0 # o*
   1028      1   2  0.410000    18.998746010     9.629157478    23.853715882   0   0   0 # h*
   1029      1   2  0.410000    18.829297860    10.487364983    25.062147402   0   0   0 # h*
   1030      1   1 -0.820000    33.617265016    10.665524783     2.435811448   0   0   0 # o*
   1031      1   2  0.410000    33.962478266    11.093446931     3.275267568   0   0   0 # h*
   1032      1   2  0.410000    32.735447731    10.431911990     2.834875301   0   0   0 # h*
   1033      1   1 -0.820000    40.500971841    10.173325263     7.138162648   0   0   0 # o*
   1034      1   2  0.410000    41.175621666    10.855822913     6.884869545   0   0   0 # h*
   1035      1   2  0.410000    39.707577963    10.389640151     6.630012312   0   0   0 # h*
   1036      1   1 -0.820000    36.190925639     5.163985428    11.842658598   0   0   0 # o*
   1037      1   2  0.410000    36.095009996     5.641524857    11.040354233   0   0   0 # h*
   1038      1   2  0.410000    36.417812733     5.869295836    12.452611633   0   0   0 # h*
   1039      1   1 -0.820000    11.105266791     0.722819317     9.484880763   0   1   0 # o*
   1040      1   2  0.410000    11.623672908    22.143586214     9.437591911   0   0   0 # h*
   1041      1   2  0.410000    11.775311707     1.415692668     9.342553416   0   1   0 # h*
   1042      1   1 -0.820000     5.347890425     0.411882287     0.873024813   0   0   0 # o*
   1043      1   2  0.410000     6.256944287    22.285407798     0.999101727   0  -1   0 # h*
   1044      1   2  0.410000     5.534425530     1.027173690    28.124142867   0   0  -1 # h*
   1045      1   1 -0.820000    35.616153108    10.233710807    10.251375452   0   0   0 # o*
   1046      1   2  0.410000    35.589826108    11.095147905     9.849613978   0   0   0 # h*
   1047      1   2  0.410000    36.550240236    10.066196306     9.936178342   0   0   0 # h*
   1048      1   1 -0.820000    38.520378351     2.914918223     4.331894600   0   1   0 # o*
   1049      1   2  0.410000    38.861035308     2.491475454     3.525727157   0   1   0 # h*
   1050      1   2  0.410000    38.693734763     3.831583873     3.991993353   0   1   0 # h*
   1051      1   1 -0.820000    18.437233244     6.972467694    17.687858060   0   0   0 # o*
   1052      1   2  0.410000    18.973217007     7.665915116    18.129197780   0   0   0 # h*
   1053      1   2  0.410000    17.546428845     7.290583890    17.718883862   0   0   0 # h*
   1054      1   1 -0.820000     4.234288999    21.080840709    11.320078310   0  -1   0 # o*
   1055      1   2  0.410000     3.517950796    21.314671925    11.919117224   0  -1   0 # h*
   1056      1   2  0.410000     4.316627438    20.163281120    11.558381934   0  -1   0 # h*
   1057      1   1 -0.820000     4.792468850     9.734161620    27.671976859   0   0  -1 # o*
   1058      1   2  0.410000     4.514235090    10.487988268    27.078805643   0   0  -1 # h*
   1059      1   2  0.410000     4.783051655    10.081795802     0.664734808   0   0   0 # h*
   1060      1   1 -0.820000     2.623209907    11.740659425    19.104734514   0   0   0 # o*
   1061      1   2  0.410000     3.234341691    11.135278673    18.691451907   0   0   0 # h*
   1062      1   2  0.410000     1.780204777    11.500124720    18.702157097   0   0   0 # h*
   1063      1   1 -0.820000     9.510754325     7.132778835    15.802165074   0   0   0 # o*
   1064      1   2  0.410000     9.685715152     8.031327740    15.407874098   0   0   0 # h*
   1065      1   2  0.410000     8.551225082     7.217678237    16.020691053   0   0   0 # h*
   1066      1   1 -0.820000    11.382754069     4.555534905    21.037547347   0   0   0 # o*
   1067      1   2  0.410000    10.942148926     3.747616588    20.617767752   0   0   0 # h*
   1068      1   2  0.410000    11.484011004     4.152506995    21.946161979   0   0   0 # h*
   1069      1   1 -0.820000    22.186233285     0.617074508    12.872320328   0   1   0 # o*
   1070      1   2  0.410000    22.022214194     1.078927124    13.727096707   0   1   0 # h*
   1071      1   2  0.410000    21.361091592    22.331766757    12.851047671   0   0   0 # h*
   1072      1   1 -0.820000    18.149120600     3.102111949     5.374349932   0   0   0 # o*
   1073      1   2  0.410000    18.051592690     3.236188238     6.304959138   0   0   0 # h*
   1074      1   2  0.410000    18.920517583     3.667849747     5.157671405   0   0   0 # h*
   1075      1   1 -0.820000    27.165786109     8.681295858    11.244506961   0   0   0 # o*
   1076      1   2  0.410000    27.918222041     9.023628915    11.718481505   0   0   0 # h*
   1077      1   2  0.410000    27.220833415     9.126862575    10.396309747   0   0   0 # h*
   1078      1   1 -0.820000    33.048491486     7.292875010     4.493219114   0   0   0 # o*
   1079      1   2  0.410000    32.849169687     8.134321948     4.794298721   0   0   0 # h*
   1080      1   2  0.410000    33.181800675     7.451562978     3.576266292   0   0   0 # h*
   1081      1   1 -0.820000    36.313192067    16.570734633    19.139137346   0   0   0 # o*
   1082      1   2  0.410000    36.760825128    16.644783719    18.234814652   0   0   0 # h*
   1083      1   2  0.410000    35.451925976    16.240564704    18.856684330   0   0   0 # h*
   1084      1   1 -0.820000    38.684200251    13.075649145    26.133188439   0   0   0 # o*
   1085      1   2  0.410000    37.723252072    12.881033545    26.183560463   0   0   0 # h*
   1086      1   2  0.410000    38.472400337    13.997951970    25.783594849   0   0   0 # h*
   1087      1   1 -0.820000    46.967234907     2.816281689     4.850814706   0   0   0 # o*
   1088      1   2  0.410000    47.086548102     3.191692635     3.941947950   0   0   0 # h*
   1089      1   2  0.410000    47.832074320     2.717193760     5.232088950   0   0   0 # h*
   1090      1   1 -0.820000    36.926695335     6.188988373     3.934479229   0   0   0 # o*
   1091      1   2  0.410000    37.212345866     6.121104864     3.016167677   0   0   0 # h*
   1092      1   2  0.410000    37.742621958     6.064796774     4.458341618   0   0   0 # h*
   1093      1   1 -0.820000    11.200724791     6.851919343     7.155688161   0   0   0 # o*
   1094      1   2  0.410000    10.265720020     7.060666511     6.894386822   0   0   0 # h*
   1095      1   2  0.410000    11.619652673     7.300146745     6.383911681   0   0   0 # h*
   1096      1   1 -0.820000     7.862144211     2.267867522     0.923575826   0   0   0 # o*
   1097      1   2  0.410000     7.817416802     3.212985065     1.099469523   0   0   0 # h*
   1098      1   2  0.410000     8.073202030     2.153257887    27.948780118   0   0  -1 # h*
   1099      1   1 -0.820000    34.747920664     7.709309427    18.678362041   0   0   0 # o*
   1100      1   2  0.410000    34.226305741     7.571674120    17.878107005   0   0   0 # h*
   1101      1   2  0.410000    34.751941088     8.673063120    18.800802830   0   0   0 # h*
   1102      1   1 -0.820000    31.356527099     8.522884040    24.222646172   0   0   0 # o*
   1103      1   2  0.410000    31.860660518     8.223177287    23.364814898   0   0   0 # h*
   1104      1   2  0.410000    31.580304670     7.812060052    24.854748606   0   0   0 # h*
   1105      1   1 -0.820000     6.196626934     6.431428314     4.017680065   0   0   0 # o*
   1106      1   2  0.410000     6.106462555     6.805763566     3.158235140   0   0   0 # h*
   1107      1   2  0.410000     7.149647684     6.533786005     4.230898437   0   0   0 # h*
   1108      1   1 -0.820000    20.234387208    19.928872738     5.922160773   0   0   0 # o*
   1109      1   2  0.410000    20.660637828    19.067084707     5.868629644   0   0   0 # h*
   1110      1   2  0.410000    20.813224525    20.305815643     6.609100669   0   0   0 # h*
   1111      1   1 -0.820000    21.924702561     3.495798935     7.558792709   0   0   0 # o*
   1112      1   2  0.410000    22.155717084     2.777097640     8.210329152   0   0   0 # h*
   1113      1   2  0.410000    21.558432025     4.205535302     8.087744991   0   0   0 # h*
   1114      1   1 -0.820000    12.388738158     7.402484065     2.777683728   0   0   0 # o*
   1115      1   2  0.410000    13.312394150     7.689743759     2.536274193   0   0   0 # h*
   1116      1   2  0.410000    12.133411114     8.160664526     3.330797095   0   0   0 # h*
   1117      1   1 -0.820000    18.743017448    15.967144736    18.484976597   0   0   0 # o*
   1118      1   2  0.410000    18.501921648    15.039114976    18.774170661   0   0   0 # h*
   1119      1   2  0.410000    18.402167878    15.847772989    17.573718072   0   0   0 # h*
   1120      1   1 -0.820000    19.260379929    15.042613758    25.222778645   0   0   0 # o*
   1121      1   2  0.410000    19.392549117    16.014776880    25.323894983   0   0   0 # h*
   1122      1   2  0.410000    18.600265512    15.023675788    24.482903665   0   0   0 # h*
   1123      1   1 -0.820000    22.317027969    21.830459008     3.731437038   0  -1   0 # o*
   1124      1   2  0.410000    22.011683931    22.475099351     4.384371516   0  -1   0 # h*
   1125      1   2  0.410000    23.339490233    21.742522180     3.867431963   0  -1   0 # h*
   1126      1   1 -0.820000    37.022878343     7.411035028    12.833999113   0   0   0 # o*
   1127      1   2  0.410000    37.461996964     7.999397742    12.254889531   0   0   0 # h*
   1128      1   2  0.410000    36.842182348     7.944865827    13.656675248   0   0   0 # h*
   1129      1   1 -0.820000    35.865717371     1.660531426     3.009750868   0   0   0 # o*
   1130      1   2  0.410000    35.713102798     2.262965269     3.719136136   0   0   0 # h*
   1131      1   2  0.410000    36.420943163     2.233601324     2.502638259   0   0   0 # h*
   1132      1   1 -0.820000    19.212027582     9.062521038    22.119362101   0   0   0 # o*
   1133      1   2  0.410000    19.849042561     9.166964532    21.350250041   0   0   0 # h*
   1134      1   2  0.410000    19.344169404     8.083332674    22.319171217   0   0   0 # h*
   1135      1   1 -0.820000    24.061951944     7.110532107    27.349709548   0   0   0 # o*
   1136      1   2  0.410000    23.630421266     7.096712084    26.490168311   0   0   0 # h*
   1137      1   2  0.410000    24.232248195     6.130370785    27.310953007   0   0   0 # h*
   1138      1   1 -0.820000    31.079982102     7.175837540    15.556485979   0   0   0 # o*
   1139      1   2  0.410000    31.120212202     7.464466549    16.509192281   0   0   0 # h*
   1140      1   2  0.410000    30.170510142     6.740381440    15.499150120   0   0   0 # h*
   1141      1   1 -0.820000    13.549250353     8.930087032     5.136693852   0   0   0 # o*
   1142      1   2  0.410000    14.387453958     9.480296817     5.126526696   0   0   0 # h*
   1143      1   2  0.410000    13.539172044     8.695542772     6.122930741   0   0   0 # h*
   1144      1   1 -0.820000    32.960125517     4.654672605    20.338233844   0   0   0 # o*
   1145      1   2  0.410000    33.489384454     4.861439484    19.546050754   0   0   0 # h*
   1146      1   2  0.410000    32.245410364     4.091557975    19.951322455   0   0   0 # h*
   1147      1   1 -0.820000    30.628748278     2.875126575    21.617737855   0   0   0 # o*
   1148      1   2  0.410000    29.929895196     2.700793964    20.902303910   0   0   0 # h*
   1149      1   2  0.410000    30.668441708     1.919787544    21.933132568   0   0   0 # h*
   1150      1   1 -0.820000     3.645978442    12.973153899    12.560935869   0   0   0 # o*
   1151      1   2  0.410000     4.241305179    13.186144210    11.803284369   0   0   0 # h*
   1152      1   2  0.410000     4.399743855    12.595111405    13.150254364   0   0   0 # h*
   1153      1   1 -0.820000    44.381140749     1.457832464     5.481800929   0   0   0 # o*
   1154      1   2  0.410000    45.290093314     1.839383492     5.225246739   0   0   0 # h*
   1155      1   2  0.410000    44.138496447     2.020835937     6.278315124   0   0   0 # h*
   1156      1   1 -0.820000    21.056417225     1.536754616     5.374951696   0   0   0 # o*
   1157      1   2  0.410000    21.088402390     2.011264602     4.497289002   0   0   0 # h*
   1158      1   2  0.410000    21.514440504     2.211545589     5.872825034   0   0   0 # h*
   1159      1   1 -0.820000    30.768580594    13.874473495     6.336862699   0   0   0 # o*
   1160      1   2  0.410000    29.866205073    13.934023749     5.835644745   0   0   0 # h*
   1161      1   2  0.410000    30.532264168    14.420833257     7.149654369   0   0   0 # h*
   1162      1   1 -0.820000    10.658980199     2.478023565    19.177787774   0   0   0 # o*
   1163      1   2  0.410000     9.726406096     2.147044433    19.068307489   0   0   0 # h*
   1164      1   2  0.410000    10.671328892     2.919666004    18.233970378   0   0   0 # h*
   1165      1   1 -0.820000     4.513852160    11.645188057    15.308100450   0   0   0 # o*
   1166      1   2  0.410000     4.902864325    10.868767728    14.913140744   0   0   0 # h*
   1167      1   2  0.410000     5.044484664    11.699912131    16.101338044   0   0   0 # h*
   1168      1   1 -0.820000     6.991783387    12.958495432    23.496189545   0   0   0 # o*
   1169      1   2  0.410000     6.981649208    13.503352498    24.324817100   0   0   0 # h*
   1170      1   2  0.410000     6.080867551    12.675901831    23.477153924   0   0   0 # h*
   1171      1   1 -0.820000    40.796166214    13.938936959     7.315312067   0   0   0 # o*
   1172      1   2  0.410000    40.628078369    14.656042624     6.674269322   0   0   0 # h*
   1173      1   2  0.410000    41.722001102    14.167700849     7.432996679   0   0   0 # h*
   1174      1   1 -0.820000    20.791461431    12.336643464    16.951029555   0   0   0 # o*
   1175      1   2  0.410000    20.144179547    12.359528447    16.158306667   0   0   0 # h*
   1176      1   2  0.410000    20.457570897    11.616311976    17.479383463   0   0   0 # h*
   1177      1   1 -0.820000    22.166044484    15.218181987    24.396433032   0   0   0 # o*
   1178      1   2  0.410000    21.352878599    14.755984401    24.525252562   0   0   0 # h*
   1179      1   2  0.410000    22.829199861    14.529059857    24.506417436   0   0   0 # h*
   1180      1   1 -0.820000    13.020338566    10.529009509    16.904478535   0   0   0 # o*
   1181      1   2  0.410000    12.688843082    10.976313462    17.740429070   0   0   0 # h*
   1182      1   2  0.410000    12.563578133     9.657697201    16.861378504   0   0   0 # h*
   1183      1   1 -0.820000    14.223124440     6.495840310    23.655443747   0   0   0 # o*
   1184      1   2  0.410000    14.559664498     7.344834573    24.006843683   0   0   0 # h*
   1185      1   2  0.410000    13.404920500     6.628312301    23.140116632   0   0   0 # h*
   1186      1   1 -0.820000    36.397563056    21.178642803     4.707566464   0   0   0 # o*
   1187      1   2  0.410000    37.121181662    20.909685641     4.142353387   0   0   0 # h*
   1188      1   2  0.410000    36.781083470    22.072181634     4.840268804   0   0   0 # h*
   1189      1   1 -0.820000    10.722124322    20.379821875    17.484647412   0   0   0 # o*
   1190      1   2  0.410000    10.370434296    21.232745105    17.173509317   0   0   0 # h*
   1191      1   2  0.410000    11.659741862    20.486806930    17.683962484   0   0   0 # h*
   1192      1   1 -0.820000    13.482665103    11.564465296     9.343230169   0   0   0 # o*
   1193      1   2  0.410000    12.622931342    12.048688210     9.545793439   0   0   0 # h*
   1194      1   2  0.410000    14.134147843    12.008404855     9.898470132   0   0   0 # h*
   1195      1   1 -0.820000    31.105185571     8.006977390    10.046499671   0   0   0 # o*
   1196      1   2  0.410000    30.194255210     7.730420587    10.171548617   0   0   0 # h*
   1197      1   2  0.410000    31.292999463     8.312000222    10.977757069   0   0   0 # h*
   1198      1   1 -0.820000    30.651293283     3.281586053    24.986414635   0   0   0 # o*
   1199      1   2  0.410000    30.324858339     2.972089678    25.860230698   0   0   0 # h*
   1200      1   2  0.410000    31.574994382     3.286148337    25.243873546   0   0   0 # h*
   1201      1   1 -0.820000    33.703210870     7.223580066    27.648833525   0   0   0 # o*
   1202      1   2  0.410000    34.286085788     6.983794280     0.404908686   0   0   1 # h*
   1203      1   2  0.410000    34.034415382     8.155562355    27.563092095   0   0   0 # h*
   1204      1   1 -0.820000    17.418385098    21.784424973     5.525886815   0   0   0 # o*
   1205      1   2  0.410000    18.199510705    21.335762183     5.127574632   0   0   0 # h*
   1206      1   2  0.410000    17.174650616    22.353909134     4.735094484   0   0   0 # h*
   1207      1   1 -0.820000    26.693314927     1.279766424    22.685074909   0   0   0 # o*
   1208      1   2  0.410000    27.629652071     1.552960676    22.935371387   0   0   0 # h*
   1209      1   2  0.410000    26.796495570     0.294487520    22.887023297   0   0   0 # h*
   1210      1   1 -0.820000    25.946712589    21.198527641    27.492481604   0  -1   0 # o*
   1211      1   2  0.410000    25.057828656    21.073803243    27.899433997   0  -1   0 # h*
   1212      1   2  0.410000    25.747654174    21.939989328    26.945022347   0  -1   0 # h*
   1213      1   1 -0.820000    45.413058199    19.047566917     6.031154351   0   0   0 # o*
   1214      1   2  0.410000    46.428397074    18.856378639     6.164529188   0   0   0 # h*
   1215      1   2  0.410000    45.093079189    18.118855662     6.350486814   0   0   0 # h*
   1216      1   1 -0.820000    23.409302830    11.278065397    19.782117569   0   0   0 # o*
   1217      1   2  0.410000    24.124943172    10.693083912    20.034125025   0   0   0 # h*
   1218      1   2  0.410000    23.916014545    12.055624663    19.492730439   0   0   0 # h*
   1219      1   1 -0.820000    19.420522526    12.296176982    26.267990428   0   0   0 # o*
   1220      1   2  0.410000    19.275068611    13.124295393    25.755535109   0   0   0 # h*
   1221      1   2  0.410000    20.273375103    12.128238877    25.873297490   0   0   0 # h*
   1222      1   1 -0.820000    28.830411322    21.021298796     8.690412322   0   0   0 # o*
   1223      1   2  0.410000    29.458467260    20.840182055     7.976846123   0   0   0 # h*
   1224      1   2  0.410000    28.463700202    20.176665810     8.903522167   0   0   0 # h*
   1225      1   1 -0.820000     6.002378512    13.737988659    11.414146527   0   0   0 # o*
   1226      1   2  0.410000     6.148784085    12.842209718    11.114770314   0   0   0 # h*
   1227      1   2  0.410000     6.473639149    14.298487529    10.738503198   0   0   0 # h*
   1228      1   1 -0.820000    38.180511001    16.534733304     1.884987656   0   0   0 # o*
   1229      1   2  0.410000    37.900397641    16.044604880     2.718618892   0   0   0 # h*
   1230      1   2  0.410000    38.790200474    17.210824842     2.230323538   0   0   0 # h*
   1231      1   1 -0.820000    45.802101048     4.174364945    26.892550362   0   0  -1 # o*
   1232      1   2  0.410000    44.892915898     4.486554350    27.193852233   0   0  -1 # h*
   1233      1   2  0.410000    46.052148277     4.995856564    26.429632157   0   0  -1 # h*
   1234      1   1 -0.820000    35.305656342    13.944384422    11.518816566   0   0   0 # o*
   1235      1   2  0.410000    35.512371848    14.881283380    11.677064936   0   0   0 # h*
   1236      1   2  0.410000    34.925601120    13.824163373    10.668821585   0   0   0 # h*
   1237      1   1 -0.820000    41.911479317     6.745126984    19.156470307   0   0   0 # o*
   1238      1   2  0.410000    41.464690954     7.112467383    19.974038471   0   0   0 # h*
   1239      1   2  0.410000    41.223893883     6.041200780    18.948969714   0   0   0 # h*
   1240      1   1 -0.820000    45.139807923     3.076024470     2.090429729   0   0   1 # o*
   1241      1   2  0.410000    45.932706692     3.024706827     1.519700760   0   0   1 # h*
   1242      1   2  0.410000    44.329879876     3.126699205     1.472686758   0   0   1 # h*
   1243      1   1 -0.820000     5.638448427     1.996673030    26.570724119   0   0  -1 # o*
   1244      1   2  0.410000     6.335052438     2.504856476    26.116929558   0   0  -1 # h*
   1245      1   2  0.410000     4.856822739     2.463060005    26.347958533   0   0  -1 # h*
   1246      1   1 -0.820000    33.673521753    19.990581820     5.081554886   0   0   0 # o*
   1247      1   2  0.410000    34.585729427    20.406744164     5.145349715   0   0   0 # h*
   1248      1   2  0.410000    33.412041277    20.231020202     4.177141310   0   0   0 # h*
   1249      1   1 -0.820000    18.001376120    20.196321393     0.981171571   0   0   0 # o*
   1250      1   2  0.410000    17.986228625    19.917913576     1.919412934   0   0   0 # h*
   1251      1   2  0.410000    18.330171267    19.357619799     0.582233463   0   0   0 # h*
   1252      1   1 -0.820000    23.457264020    11.137970136     4.061910768   0   0   0 # o*
   1253      1   2  0.410000    24.434105462    11.027576093     3.825447413   0   0   0 # h*
   1254      1   2  0.410000    23.204155893    10.203211943     4.089406717   0   0   0 # h*
   1255      1   1 -0.820000    36.312741125    15.573328756     7.868643563   0   0   0 # o*
   1256      1   2  0.410000    36.863246414    15.986007027     8.575145902   0   0   0 # h*
   1257      1   2  0.410000    36.011389112    16.334911846     7.373043743   0   0   0 # h*
   1258      1   1 -0.820000     4.397452757     2.780878208    18.550811641   0   0   0 # o*
   1259      1   2  0.410000     3.798706325     3.444192952    18.064913369   0   0   0 # h*
   1260      1   2  0.410000     4.419133128     2.148675092    17.834768556   0   0   0 # h*
   1261      1   1 -0.820000     4.820234518     2.294963838    21.227105691   0   0   0 # o*
   1262      1   2  0.410000     4.753022785     2.563180253    20.311624678   0   0   0 # h*
   1263      1   2  0.410000     4.282890377     3.011011423    21.640850210   0   0   0 # h*
   1264      1   1 -0.820000    19.606012504    19.156625379    11.203895996   0   0   0 # o*
   1265      1   2  0.410000    18.869554417    18.501714210    11.249951127   0   0   0 # h*
   1266      1   2  0.410000    19.111238389    19.863660625    11.594526652   0   0   0 # h*
   1267      1   1 -0.820000     5.854005474    14.759560372     3.319020626   0   0   0 # o*
   1268      1   2  0.410000     6.090871278    13.857656282     2.994611153   0   0   0 # h*
   1269      1   2  0.410000     6.790758211    15.014761338     3.499588791   0   0   0 # h*
   1270      1   1 -0.820000    46.803805541     1.743351681    22.782314124   0   1   0 # o*
   1271      1   2  0.410000    46.492969775     1.498825296    23.644387955   0   1   0 # h*
   1272      1   2  0.410000    46.485841032     2.677626229    22.757450962   0   1   0 # h*
   1273      1   1 -0.820000     2.590759733     0.490459266    27.696972586   1   1   0 # o*
   1274      1   2  0.410000     3.364798069    22.349096117    28.161919359   1   0   0 # h*
   1275      1   2  0.410000     2.521866616    22.248998582    26.872454094   1   0   0 # h*
   1276      1   1 -0.820000    13.645896347     5.316827298     5.349149778   0   0   0 # o*
   1277      1   2  0.410000    14.589607374     5.371453153     5.188477930   0   0   0 # h*
   1278      1   2  0.410000    13.301005872     6.135030304     5.011338163   0   0   0 # h*
   1279      1   1 -0.820000    25.124392954     5.694729341     2.807822223   0   0   0 # o*
   1280      1   2  0.410000    24.598097806     5.043546145     3.289150207   0   0   0 # h*
   1281      1   2  0.410000    26.008510488     5.429630907     3.048972527   0   0   0 # h*
   1282      1   1 -0.820000    11.275725928    16.047145757    12.459277630   0   0   0 # o*
   1283      1   2  0.410000    10.315907183    15.870796129    12.473972247   0   0   0 # h*
   1284      1   2  0.410000    11.358489054    16.333568052    13.397893686   0   0   0 # h*
   1285      1   1 -0.820000    21.398510743    14.227900475    13.509297165   0   0   0 # o*
   1286      1   2  0.410000    22.174426210    13.905579591    13.034741061   0   0   0 # h*
   1287      1   2  0.410000    21.810159735    14.288189281    14.385180134   0   0   0 # h*
   1288      1   1 -0.820000    17.743871014     7.334091045    12.738896965   0   0   0 # o*
   1289      1   2  0.410000    17.067337515     6.760691477    12.224954367   0   0   0 # h*
   1290      1   2  0.410000    17.313824788     8.205512683    12.872023870   0   0   0 # h*
   1291      1   1 -0.820000     7.340835059     2.096129936     5.097318907   0   0   0 # o*
   1292      1   2  0.410000     8.095987356     1.665174402     5.533508444   0   0   0 # h*
   1293      1   2  0.410000     7.627513977     3.003547196     5.153438562   0   0   0 # h*
   1294      1   1 -0.820000    25.578401987    17.284582615    23.858313371   0   0   0 # o*
   1295      1   2  0.410000    25.635750010    16.330934417    24.023479072   0   0   0 # h*
   1296      1   2  0.410000    26.394874016    17.332720634    23.317879405   0   0   0 # h*
   1297      1   1 -0.820000    26.070745880    17.235091107    27.387005674   0   0   0 # o*
   1298      1   2  0.410000    25.667860713    16.377831337    27.076520427   0   0   0 # h*
   1299      1   2  0.410000    26.671026299    16.854535040    28.092283655   0   0   0 # h*
   1300      1   1 -0.820000     2.639022969     9.103141063    21.353477779   0   0   0 # o*
   1301      1   2  0.410000     2.117181512     9.895339924    21.263336575   0   0   0 # h*
   1302      1   2  0.410000     3.510829117     9.450344586    21.499741807   0   0   0 # h*
   1303      1   1 -0.820000     2.293945251     7.072348588    23.069578178   0   0   0 # o*
   1304      1   2  0.410000     2.256644363     7.655937675    22.243037872   0   0   0 # h*
   1305      1   2  0.410000     2.540881743     6.171606590    22.597488498   0   0   0 # h*
   1306      1   1 -0.820000    24.625385842     9.397781554    12.079145404   0   0   0 # o*
   1307      1   2  0.410000    25.321672497     8.934248291    11.618402671   0   0   0 # h*
   1308      1   2  0.410000    23.932811158     8.719652193    12.094323974   0   0   0 # h*
   1309      1   1 -0.820000    14.314512424     0.989146713     7.704009611   0   0   0 # o*
   1310      1   2  0.410000    14.763816494     0.349362421     8.259291452   0   0   0 # h*
   1311      1   2  0.410000    13.867416236     1.567038045     8.292048538   0   0   0 # h*
   1312      1   1 -0.820000    20.000244030     9.043715132    16.096408901   0   0   0 # o*
   1313      1   2  0.410000    20.749292747     9.625027230    15.719710520   0   0   0 # h*
   1314      1   2  0.410000    19.847789835     8.375452880    15.414907290   0   0   0 # h*
   1315      1   1 -0.820000    25.032169282     0.966981166    12.526290430   0   0   0 # o*
   1316      1   2  0.410000    24.517022581     1.790438226    12.471824913   0   0   0 # h*
   1317      1   2  0.410000    24.323687806     0.358876778    12.624692439   0   0   0 # h*
   1318      1   1 -0.820000     5.167821226     8.632329155     5.605130497   0   0   0 # o*
   1319      1   2  0.410000     5.558299984     8.096637584     4.922165060   0   0   0 # h*
   1320      1   2  0.410000     4.597259288     8.110940091     6.209935174   0   0   0 # h*
   1321      1   1 -0.820000    28.627593185    18.652566573    13.480366518   0   0   0 # o*
   1322      1   2  0.410000    28.419213952    19.338139719    14.142809595   0   0   0 # h*
   1323      1   2  0.410000    27.796443755    18.789064715    12.936277451   0   0   0 # h*
   1324      1   1 -0.820000    10.758933816     9.726556574     4.202826457   0   0   0 # o*
   1325      1   2  0.410000    11.242846509     9.836199667     5.038878585   0   0   0 # h*
   1326      1   2  0.410000     9.957137856    10.334698072     4.466776559   0   0   0 # h*
   1327      1   1 -0.820000    22.905772124    13.937356030     4.683608517   0   0   0 # o*
   1328      1   2  0.410000    23.183941161    12.975235234     4.755274497   0   0   0 # h*
   1329      1   2  0.410000    22.081567169    13.859502663     4.149154832   0   0   0 # h*
   1330      1   1 -0.820000    12.113256363     1.350081572    12.444198843   0   1   0 # o*
   1331      1   2  0.410000    12.647715140     1.578790850    11.613573532   0   1   0 # h*
   1332      1   2  0.410000    11.731537428     0.486098005    12.168024793   0   1   0 # h*
   1333      1   1 -0.820000    34.983175315     3.562623492     4.767276982   0   0   0 # o*
   1334      1   2  0.410000    35.586936160     4.350894384     4.706141797   0   0   0 # h*
   1335      1   2  0.410000    34.449433368     3.832219834     5.512019620   0   0   0 # h*
   1336      1   1 -0.820000    20.230824737     5.164463709    16.315274365   0   0   0 # o*
   1337      1   2  0.410000    20.086134698     5.935782630    16.960202985   0   0   0 # h*
   1338      1   2  0.410000    19.990368336     4.475325012    16.936450196   0   0   0 # h*
   1339      1   1 -0.820000    19.572887708     3.411554311    18.492703125   0   0   0 # o*
   1340      1   2  0.410000    19.555842303     4.076972867    19.161902613   0   0   0 # h*
   1341      1   2  0.410000    18.606443495     3.181384419    18.458887546   0   0   0 # h*
   1342      1   1 -0.820000     4.803447761     8.421227687     9.965497696   0   0   0 # o*
   1343      1   2  0.410000     4.915532868     7.656046993    10.516893384   0   0   0 # h*
   1344      1   2  0.410000     3.828315307     8.384867076     9.967156131   0   0   0 # h*
   1345      1   1 -0.820000    11.149241544     5.759350004    10.833366192   0   0   0 # o*
   1346      1   2  0.410000    11.056205229     6.627920201    11.284443125   0   0   0 # h*
   1347      1   2  0.410000    11.559463129     5.260389702    11.615829631   0   0   0 # h*
   1348      1   1 -0.820000    39.571697028    13.082883832     4.481000679   0   0   0 # o*
   1349      1   2  0.410000    39.798292917    13.106077307     3.530629913   0   0   0 # h*
   1350      1   2  0.410000    39.801665964    14.041830513     4.680489838   0   0   0 # h*
   1351      1   1 -0.820000    30.361076251    15.189323181    20.015806967   0   0   0 # o*
   1352      1   2  0.410000    30.154911688    15.722859393    19.215147696   0   0   0 # h*
   1353      1   2  0.410000    30.092773158    15.830972586    20.696184305   0   0   0 # h*
   1354      1   1 -0.820000    28.051005196    10.841128142    25.040162081   0   0   0 # o*
   1355      1   2  0.410000    28.291927720    10.146985840    25.710102949   0   0   0 # h*
   1356      1   2  0.410000    28.329387589    10.505116525    24.213763419   0   0   0 # h*
   1357      1   1 -0.820000    14.170129593     8.858104168    14.433344088   0   0   0 # o*
   1358      1   2  0.410000    13.427528598     8.615235574    15.027337429   0   0   0 # h*
   1359      1   2  0.410000    13.619251104     9.294228961    13.753692315   0   0   0 # h*
   1360      1   1 -0.820000    45.343723408     7.223290301     7.263829785   0   0   0 # o*
   1361      1   2  0.410000    44.917356028     6.467098589     7.724073072   0   0   0 # h*
   1362      1   2  0.410000    46.232434392     6.887287694     7.057338424   0   0   0 # h*
   1363      1   1 -0.820000    20.091081297     4.937545465     9.789284535   0   0   0 # o*
   1364      1   2  0.410000    20.452757474     4.388575940    10.548347267   0   0   0 # h*
   1365      1   2  0.410000    20.115665367     5.816397883    10.257813589   0   0   0 # h*
   1366      1   1 -0.820000    13.505660813    16.320420685     9.655528682   0   0   0 # o*
   1367      1   2  0.410000    13.690397348    17.105496479     9.067516307   0   0   0 # h*
   1368      1   2  0.410000    13.827386518    15.634707210     8.998357607   0   0   0 # h*
   1369      1   1 -0.820000    24.263530027    20.941585999    14.628671901   0   0   0 # o*
   1370      1   2  0.410000    23.620258045    21.553242138    14.960542351   0   0   0 # h*
   1371      1   2  0.410000    25.082949197    21.466946857    14.738834798   0   0   0 # h*
   1372      1   1 -0.820000    13.208386789     4.296158006     7.874069956   0   0   0 # o*
   1373      1   2  0.410000    13.354245812     4.604725548     6.925082939   0   0   0 # h*
   1374      1   2  0.410000    12.314984300     4.742875376     7.982918822   0   0   0 # h*
   1375      1   1 -0.820000     2.054106685     7.855217949    10.565996671   0   0   0 # o*
   1376      1   2  0.410000     1.961301131     7.172562745    11.282151304   0   0   0 # h*
   1377      1   2  0.410000     1.229753879     8.412064742    10.708213996   0   0   0 # h*
   1378      1   1 -0.820000     1.490572666     4.676613831    17.715543744   0   0   0 # o*
   1379      1   2  0.410000     0.947085131     3.980994514    17.352675353   0   0   0 # h*
   1380      1   2  0.410000     0.998200740     5.442685303    17.395069899   0   0   0 # h*
   1381      1   1 -0.820000     0.162461297     3.868553258    24.814886357   0   0   0 # o*
   1382      1   2  0.410000    47.461409483     4.398699432    24.416814467  -1   0   0 # h*
   1383      1   2  0.410000    47.738338009     2.978356027    24.731674182  -1   0   0 # h*
   1384      1   1 -0.820000    41.980788973     9.676309903    16.681532127   0   0   0 # o*
   1385      1   2  0.410000    41.656989142    10.201523168    17.518624715   0   0   0 # h*
   1386      1   2  0.410000    41.626375068    10.182328568    15.912387591   0   0   0 # h*
   1387      1   1 -0.820000    44.692274201     0.576633312    20.079249706   0   0   0 # o*
   1388      1   2  0.410000    45.307019024    22.115162611    20.336239771   0  -1   0 # h*
   1389      1   2  0.410000    44.647802154     0.876081774    21.041901976   0   0   0 # h*
   1390      1   1 -0.820000    46.037250951     1.638687558    25.533988090   0   0   0 # o*
   1391      1   2  0.410000    46.001944112     2.438571265    26.117285566   0   0   0 # h*
   1392      1   2  0.410000    45.162091431     1.195091824    25.712689819   0   0   0 # h*
   1393      1   1 -0.820000    10.006590035     9.827676069    21.262984828   0   0   0 # o*
   1394      1   2  0.410000     9.963621329    10.212471339    22.156778397   0   0   0 # h*
   1395      1   2  0.410000    10.109428253    10.635088352    20.667780134   0   0   0 # h*
   1396      1   1 -0.820000    11.609009961     7.827476685    25.670034391   0   0   0 # o*
   1397      1   2  0.410000    12.382691719     8.314540015    25.998233737   0   0   0 # h*
   1398      1   2  0.410000    11.731822531     8.044317407    24.745230224   0   0   0 # h*
   1399      1   1 -0.820000    20.547039589     1.409657269    15.208085831   0   0   0 # o*
   1400      1   2  0.410000    20.225169041     0.620968261    15.630630885   0   0   0 # h*
   1401      1   2  0.410000    19.740599532     1.706810060    14.625526120   0   0   0 # h*
   1402      1   1 -0.820000    21.847371898     2.238236164    21.767477310   0   0   0 # o*
   1403      1   2  0.410000    21.389229105     1.629581737    22.361688456   0   0   0 # h*
   1404      1   2  0.410000    22.743678851     1.869947900    21.839849304   0   0   0 # h*
   1405      1   1 -0.820000    46.346469309     7.342187720    13.526935426   0   0   0 # o*
   1406      1   2  0.410000    46.006176358     6.834058961    12.718531228   0   0   0 # h*
   1407      1   2  0.410000    46.036082108     6.682911177    14.116281395   0   0   0 # h*
   1408      1   1 -0.820000    12.342125799    15.093790258     2.403131212   0   0   0 # o*
   1409      1   2  0.410000    12.075812371    14.346554796     1.763912652   0   0   0 # h*
   1410      1   2  0.410000    11.577049676    15.012051225     2.955318439   0   0   0 # h*
   1411      1   1 -0.820000    21.440879067    15.400779703    18.007003438   0   0   0 # o*
   1412      1   2  0.410000    21.196735902    14.471157451    17.810499993   0   0   0 # h*
   1413      1   2  0.410000    20.543276491    15.682749476    18.313890392   0   0   0 # h*
   1414      1   1 -0.820000    35.412353116     8.441930387    21.791526066   0   0   0 # o*
   1415      1   2  0.410000    35.754233125     7.552542561    22.156512611   0   0   0 # h*
   1416      1   2  0.410000    34.445516826     8.246525584    21.727559096   0   0   0 # h*
   1417      1   1 -0.820000    40.170278151     8.396938257    23.707784793   0   0   0 # o*
   1418      1   2  0.410000    39.754807516     7.841276862    24.407172084   0   0   0 # h*
   1419      1   2  0.410000    39.774063744     9.294796210    23.887578623   0   0   0 # h*
   1420      1   1 -0.820000    47.728936709    17.544457706     6.395453800  -1   0   0 # o*
   1421      1   2  0.410000    47.315434301    16.946197745     5.732423444  -1   0   0 # h*
   1422      1   2  0.410000     0.575479755    17.039800155     6.376277637   0   0   0 # h*
   1423      1   1 -0.820000    41.130754028    10.508713310    13.876731084   0   0   0 # o*
   1424      1   2  0.410000    40.102436783    10.417908749    13.796366958   0   0   0 # h*
   1425      1   2  0.410000    41.294181612    11.324025211    13.279831067   0   0   0 # h*
   1426      1   1 -0.820000     2.759809660     4.538593553     4.031107203   0   0   0 # o*
   1427      1   2  0.410000     2.729866947     3.766123511     4.624401897   0   0   0 # h*
   1428      1   2  0.410000     3.599306009     4.387796058     3.491164303   0   0   0 # h*
   1429      1   1 -0.820000    39.550169413    14.923172571    23.052660377   0   0   0 # o*
   1430      1   2  0.410000    38.782198827    14.323296698    22.941170169   0   0   0 # h*
   1431      1   2  0.410000    40.317513580    14.454189151    22.774707105   0   0   0 # h*
   1432      1   1 -0.820000    40.242266204    14.173927708     1.341862281   0   0   1 # o*
   1433      1   2  0.410000    40.838284724    14.688870884     0.731520736   0   0   1 # h*
   1434      1   2  0.410000    39.552657210    14.809841354     1.575733281   0   0   1 # h*
   1435      1   1 -0.820000    41.345421463    21.585169457     0.474931197   0  -1   0 # o*
   1436      1   2  0.410000    41.735552010    22.049560125     1.224941173   0  -1   0 # h*
   1437      1   2  0.410000    41.622227559    20.652381294     0.543590383   0  -1   0 # h*
   1438      1   1 -0.820000    11.056564951    20.993362774    12.011103312   0   0   0 # o*
   1439      1   2  0.410000    10.301472353    21.039661492    11.406042531   0   0   0 # h*
   1440      1   2  0.410000    11.295031779    20.020789573    11.883664453   0   0   0 # h*
   1441      1   1 -0.820000    20.920862533     4.211236788    27.965052555   0   0  -1 # o*
   1442      1   2  0.410000    21.707388488     3.808922038    27.650452884   0   0  -1 # h*
   1443      1   2  0.410000    20.562490047     4.347397723    27.056994268   0   0  -1 # h*
   1444      1   1 -0.820000    13.680450090     2.401659159    10.146946866   0   0   0 # o*
   1445      1   2  0.410000    14.694765562     2.380926796    10.315054885   0   0   0 # h*
   1446      1   2  0.410000    13.649388953     3.188926521     9.604943468   0   0   0 # h*
   1447      1   1 -0.820000     1.971807575    16.151490129     5.641004814   0   0   0 # o*
   1448      1   2  0.410000     2.850822723    16.064111394     6.019375901   0   0   0 # h*
   1449      1   2  0.410000     2.131519276    15.934773074     4.688566249   0   0   0 # h*
   1450      1   1 -0.820000     7.681712613     5.118457872     1.453336373   0   0   0 # o*
   1451      1   2  0.410000     8.556358779     5.409577703     1.166229014   0   0   0 # h*
   1452      1   2  0.410000     7.178452096     5.892861983     1.274839578   0   0   0 # h*
   1453      1   1 -0.820000    37.591794196    17.372805493    16.569635507   0   0   0 # o*
   1454      1   2  0.410000    38.474823050    16.989159744    16.683496864   0   0   0 # h*
   1455      1   2  0.410000    37.032697567    16.634303446    16.338711967   0   0   0 # h*
   1456      1   1 -0.820000    35.900255841     2.856039616     8.725324729   0   1   0 # o*
   1457      1   2  0.410000    35.992453721     3.663291097     8.171629355   0   1   0 # h*
   1458      1   2  0.410000    35.828283877     2.255063473     7.933441853   0   1   0 # h*
   1459      1   1 -0.820000    11.508073774    22.033028565    24.962928083   0   0   0 # o*
   1460      1   2  0.410000    10.537423721    22.164905187    24.788726920   0   0   0 # h*
   1461      1   2  0.410000    11.431009708     0.402243885    25.722078262   0   1   0 # h*
   1462      1   1 -0.820000     9.803330529    17.976957550     1.472547258   0   0   1 # o*
   1463      1   2  0.410000    10.238323375    17.871819656     2.366255013   0   0   1 # h*
   1464      1   2  0.410000     9.920574747    18.946712207     1.427367002   0   0   1 # h*
   1465      1   1 -0.820000     1.610851663     7.144689258    13.459130896   0   0   0 # o*
   1466      1   2  0.410000     2.268092207     7.878501290    13.441080726   0   0   0 # h*
   1467      1   2  0.410000     0.773559317     7.602762684    13.657559373   0   0   0 # h*
   1468      1   1 -0.820000    40.176915437    18.860837103     6.608541111   0   0   0 # o*
   1469      1   2  0.410000    40.469244217    18.966722188     7.565476297   0   0   0 # h*
   1470      1   2  0.410000    40.861471627    19.466201425     6.247053654   0   0   0 # h*
   1471      1   1 -0.820000    39.668507760    12.289595638     9.723720993   0   0   0 # o*
   1472      1   2  0.410000    40.121212145    12.805588270     9.000318802   0   0   0 # h*
   1473      1   2  0.410000    39.410496782    13.105423372    10.233758296   0   0   0 # h*
   1474      1   1 -0.820000    21.885339663     8.018207376     8.183619141   0   0   0 # o*
   1475      1   2  0.410000    22.349343303     8.816344041     7.964714255   0   0   0 # h*
   1476      1   2  0.410000    20.992439415     8.447123504     8.486466577   0   0   0 # h*
   1477      1   1 -0.820000    27.660922459    22.282673669    11.852200435   0   0   0 # o*
   1478      1   2  0.410000    28.043780889    22.363138348    12.752408664   0   0   0 # h*
   1479      1   2  0.410000    26.692812544    22.079722729    12.115060370   0   0   0 # h*
   1480      1   1 -0.820000     7.735844115     7.761047179     9.276185555   0   0   0 # o*
   1481      1   2  0.410000     6.756065091     7.722928670     9.106260156   0   0   0 # h*
   1482      1   2  0.410000     8.043232266     7.270299409     8.533611090   0   0   0 # h*
   1483      1   1 -0.820000    23.805487806    12.063384435     0.800960752   0   0   0 # o*
   1484      1   2  0.410000    23.202800883    11.963907290     1.573691859   0   0   0 # h*
   1485      1   2  0.410000    23.582951175    11.276043816    28.237498440   0   0  -1 # h*
   1486      1   1 -0.820000     4.916024430    16.031837123     6.603605077   0   0   0 # o*
   1487      1   2  0.410000     5.167341411    16.889017045     6.110371411   0   0   0 # h*
   1488      1   2  0.410000     5.116235516    16.254558467     7.516481837   0   0   0 # h*
   1489      1   1 -0.820000    43.053167495    15.436010519     9.254636283   0   0   0 # o*
   1490      1   2  0.410000    42.145745064    15.726721453     9.382837165   0   0   0 # h*
   1491      1   2  0.410000    43.374462646    15.291944173    10.171834667   0   0   0 # h*
   1492      1   1 -0.820000    47.646851435     8.908436705    11.250416973   0   0   0 # o*
   1493      1   2  0.410000    46.921021155     9.236524869    10.676951935   0   0   0 # h*
   1494      1   2  0.410000    47.135120790     8.052500251    11.536580484   0   0   0 # h*
   1495      1   1 -0.820000    32.823074065    13.722594596    18.936450949   0   0   0 # o*
   1496      1   2  0.410000    32.171472731    14.257566551    19.432381389   0   0   0 # h*
   1497      1   2  0.410000    32.609542052    14.084176394    17.996285700   0   0   0 # h*
   1498      1   1 -0.820000    33.939185090    13.297026854    25.744019688   0   0   0 # o*
   1499      1   2  0.410000    33.383868069    14.091353340    25.958892065   0   0   0 # h*
   1500      1   2  0.410000    33.242099441    12.676422122    25.312097495   0   0   0 # h*
   1501      1   1 -0.820000    39.085054765     4.186906353    12.805684629   0   0   0 # o*
   1502      1   2  0.410000    39.366018793     4.509050358    13.690619157   0   0   0 # h*
   1503      1   2  0.410000    38.271128005     4.698632633    12.786160793   0   0   0 # h*
   1504      1   1 -0.820000    29.049295597     2.579916199    19.237299733   0   0   0 # o*
   1505      1   2  0.410000    28.622454859     3.413858287    18.952002800   0   0   0 # h*
   1506      1   2  0.410000    28.809644390     2.078436507    18.427646461   0   0   0 # h*
   1507      1   1 -0.820000    26.865064558     2.448947463    25.518951460   0   0   0 # o*
   1508      1   2  0.410000    26.707218198     2.392328683    24.554386289   0   0   0 # h*
   1509      1   2  0.410000    25.951403494     2.492074999    25.801162825   0   0   0 # h*
   1510      1   1 -0.820000    11.617521200    17.399124364    17.773461371   0   0   0 # o*
   1511      1   2  0.410000    12.425806004    17.855565491    18.009176583   0   0   0 # h*
   1512      1   2  0.410000    11.079783811    18.116390812    17.460557163   0   0   0 # h*
   1513      1   1 -0.820000    13.506280806    17.380647886    21.836575755   0   0   0 # o*
   1514      1   2  0.410000    12.622510673    17.805283653    21.983013921   0   0   0 # h*
   1515      1   2  0.410000    13.223806621    16.494992678    21.822730050   0   0   0 # h*
   1516      1   1 -0.820000    36.386985607    14.668359589     3.241302910   0   0   0 # o*
   1517      1   2  0.410000    36.110281586    14.132608739     2.451774519   0   0   0 # h*
   1518      1   2  0.410000    35.627223559    14.605134636     3.852557912   0   0   0 # h*
   1519      1   1 -0.820000    16.312757467    17.788142269    24.133469814   0   0   0 # o*
   1520      1   2  0.410000    16.593769538    16.820965490    23.852273720   0   0   0 # h*
   1521      1   2  0.410000    15.783244755    17.566468176    24.870600007   0   0   0 # h*
   1522      1   1 -0.820000    20.449084160    16.275425666    28.150399997   0   0   0 # o*
   1523      1   2  0.410000    20.105198126    16.597007306     1.019480909   0   0   1 # h*
   1524      1   2  0.410000    20.520379578    17.133238787    27.613781529   0   0   0 # h*
   1525      1   1 -0.820000    42.390184861    13.942920717    17.919880290   0   0   0 # o*
   1526      1   2  0.410000    42.329106108    13.852401502    16.902261747   0   0   0 # h*
   1527      1   2  0.410000    43.089469899    14.600922295    18.089074476   0   0   0 # h*
   1528      1   1 -0.820000    43.755220184    12.530831390    26.445233749   0   0   0 # o*
   1529      1   2  0.410000    44.215375252    12.591273616    25.566699733   0   0   0 # h*
   1530      1   2  0.410000    42.966453579    12.030520016    26.232806486   0   0   0 # h*
   1531      1   1 -0.820000    43.539215903    15.170589308    12.000771439   0   0   0 # o*
   1532      1   2  0.410000    43.814490334    16.016393141    12.418269597   0   0   0 # h*
   1533      1   2  0.410000    44.462192737    14.907375999    11.847618871   0   0   0 # h*
   1534      1   1 -0.820000    23.770179156     3.948717739    13.235778623   0   0   0 # o*
   1535      1   2  0.410000    22.860774046     3.937141697    12.692863838   0   0   0 # h*
   1536      1   2  0.410000    23.429579826     4.250250293    14.125835392   0   0   0 # h*
   1537      1   1 -0.820000    32.854199604    10.430755313    21.871065103   0   0   0 # o*
   1538      1   2  0.410000    32.418202459     9.694258249    21.491624862   0   0   0 # h*
   1539      1   2  0.410000    32.251355953    11.194201710    21.651183255   0   0   0 # h*
   1540      1   1 -0.820000    36.113921192    11.865626448    26.258491277   0   0   0 # o*
   1541      1   2  0.410000    35.349949615    12.433481325    26.070607937   0   0   0 # h*
   1542      1   2  0.410000    36.018791287    11.199047766    25.522269944   0   0   0 # h*
   1543      1   1 -0.820000    29.699828677    16.546064821    17.693983979   0   0   0 # o*
   1544      1   2  0.410000    28.800760332    16.901380432    17.672378973   0   0   0 # h*
   1545      1   2  0.410000    29.904344870    16.346451319    16.754589250   0   0   0 # h*
   1546      1   1 -0.820000    29.291119572    18.314987319    20.294280238   0   0   0 # o*
   1547      1   2  0.410000    29.977462916    18.959291080    20.590834802   0   0   0 # h*
   1548      1   2  0.410000    29.398975097    18.272605625    19.313081756   0   0   0 # h*
   1549      1   1 -0.820000    18.935823173     3.016491959    22.204734015   0   0   0 # o*
   1550      1   2  0.410000    19.735451939     2.761108215    21.707354856   0   0   0 # h*
   1551      1   2  0.410000    19.123381085     2.717422183    23.160346100   0   0   0 # h*
   1552      1   1 -0.820000    16.367346428     4.797985235    25.802242335   0   0   0 # o*
   1553      1   2  0.410000    16.069220968     3.883116994    25.862812456   0   0   0 # h*
   1554      1   2  0.410000    16.665756238     4.895337556    24.873261700   0   0   0 # h*
   1555      1   1 -0.820000    22.370106818     7.649812869    11.694672197   0   0   0 # o*
   1556      1   2  0.410000    21.609495376     7.998901307    11.161665383   0   0   0 # h*
   1557      1   2  0.410000    21.958588433     6.970804892    12.271966025   0   0   0 # h*
   1558      1   1 -0.820000    12.397820851    22.389499678    19.228143002   0  -1   0 # o*
   1559      1   2  0.410000    12.131629125    22.203142124    20.145434463   0  -1   0 # h*
   1560      1   2  0.410000    11.946533931     1.039129425    19.085161182   0   0   0 # h*
   1561      1   1 -0.820000    11.193373373     7.545939815    22.426058273   0   0   0 # o*
   1562      1   2  0.410000    10.860061510     6.735509083    22.003739459   0   0   0 # h*
   1563      1   2  0.410000    10.405664716     8.149752650    22.383029574   0   0   0 # h*
   1564      1   1 -0.820000    16.885545885     2.498663055    18.877348240   0   0   0 # o*
   1565      1   2  0.410000    16.495893367     2.853971469    18.031111257   0   0   0 # h*
   1566      1   2  0.410000    16.273203697     1.778330753    19.020260178   0   0   0 # h*
   1567      1   1 -0.820000    18.197086217    19.003928936     3.633366759   0   0   0 # o*
   1568      1   2  0.410000    18.951408659    19.317085609     4.253449443   0   0   0 # h*
   1569      1   2  0.410000    18.774698172    18.309801274     3.288868715   0   0   0 # h*
   1570      1   1 -0.820000    14.828459330    18.492909339     7.818835258   0   0   0 # o*
   1571      1   2  0.410000    15.794170017    18.722210327     8.073006354   0   0   0 # h*
   1572      1   2  0.410000    14.706094807    18.932071470     6.971980230   0   0   0 # h*
   1573      1   1 -0.820000    19.749649574    14.779772373    10.984984567   0   0   0 # o*
   1574      1   2  0.410000    20.323820072    14.765879942    11.753307390   0   0   0 # h*
   1575      1   2  0.410000    18.947605932    14.588692091    11.440467728   0   0   0 # h*
   1576      1   1 -0.820000    20.568940525    21.575060475    18.123387207   0  -1   0 # o*
   1577      1   2  0.410000    19.893074387    20.886281608    18.003682375   0  -1   0 # h*
   1578      1   2  0.410000    21.331062942    21.036219640    18.356802093   0  -1   0 # h*
   1579      1   1 -0.820000    22.360240399     1.796288463    18.806572815   0   0   0 # o*
   1580      1   2  0.410000    22.203674415     1.852641512    19.764302181   0   0   0 # h*
   1581      1   2  0.410000    21.404602800     1.874174972    18.493078657   0   0   0 # h*
   1582      1   1 -0.820000     0.936663410    14.239417329    11.100290046   0   0   0 # o*
   1583      1   2  0.410000     1.138125122    14.348281762    10.169441989   0   0   0 # h*
   1584      1   2  0.410000     1.326027536    13.372080457    11.262753987   0   0   0 # h*
   1585      1   1 -0.820000    30.881261378    20.875021419     2.166388304   0   0   0 # o*
   1586      1   2  0.410000    31.794800842    21.281094107     2.042921525   0   0   0 # h*
   1587      1   2  0.410000    30.814825489    20.440508940     1.286568542   0   0   0 # h*
   1588      1   1 -0.820000    20.615226086    13.278323813     2.967365577   0   0   0 # o*
   1589      1   2  0.410000    20.836040084    12.341259591     2.638204834   0   0   0 # h*
   1590      1   2  0.410000    20.999849157    13.803013329     2.197656364   0   0   0 # h*
   1591      1   1 -0.820000     0.850700725    19.470551941    17.418856274   0   0   0 # o*
   1592      1   2  0.410000     1.111963690    18.959940483    16.613938631   0   0   0 # h*
   1593      1   2  0.410000     1.737866330    19.815718051    17.662670983   0   0   0 # h*
   1594      1   1 -0.820000     3.294732818    16.827480754    19.461471262   0   0   0 # o*
   1595      1   2  0.410000     3.902161038    17.106018834    18.765611935   0   0   0 # h*
   1596      1   2  0.410000     3.957780767    16.332048626    19.985675663   0   0   0 # h*
   1597      1   1 -0.820000    45.397750280     5.383530441     4.298582843   0   0   0 # o*
   1598      1   2  0.410000    46.095026026     5.671561151     3.646571944   0   0   0 # h*
   1599      1   2  0.410000    45.433146381     4.375351324     4.153608707   0   0   0 # h*
   1600      1   1 -0.820000    17.386492539    17.151435808     0.739026628   0   0   0 # o*
   1601      1   2  0.410000    17.382874511    16.930562963    27.793043485   0   0  -1 # h*
   1602      1   2  0.410000    16.778553767    16.476490865     1.029286440   0   0   0 # h*
   1603      1   1 -0.820000    24.406342327    14.772033931    27.290380816   0   0   0 # o*
   1604      1   2  0.410000    24.973473136    13.961401425    27.497419555   0   0   0 # h*
   1605      1   2  0.410000    24.400886536    14.595185357    26.325181159   0   0   0 # h*
   1606      1   1 -0.820000    33.931041531    21.646651947     2.882598545   0  -1   0 # o*
   1607      1   2  0.410000    33.439822482    22.413782730     2.658946790   0  -1   0 # h*
   1608      1   2  0.410000    34.823947105    21.948213289     3.114260947   0  -1   0 # h*
   1609      1   1 -0.820000    23.335568839    12.443520086    12.108610768   0   0   0 # o*
   1610      1   2  0.410000    24.105952953    12.903029317    11.610238750   0   0   0 # h*
   1611      1   2  0.410000    23.729282573    11.592726294    12.192309247   0   0   0 # h*
   1612      1   1 -0.820000    27.081167281     2.633256800    10.646815878   0   0   0 # o*
   1613      1   2  0.410000    27.005137397     1.756381570    11.107491436   0   0   0 # h*
   1614      1   2  0.410000    27.834432043     2.428268904    10.074316080   0   0   0 # h*
   1615      1   1 -0.820000    13.829909575     1.686974760     5.041217277   0   0   0 # o*
   1616      1   2  0.410000    14.239490979     1.916264089     5.879906413   0   0   0 # h*
   1617      1   2  0.410000    14.558257284     1.268113739     4.566282830   0   0   0 # h*
   1618      1   1 -0.820000    40.848175613    13.532409680    12.717138154   0   0   0 # o*
   1619      1   2  0.410000    41.552586984    14.071434648    12.333325195   0   0   0 # h*
   1620      1   2  0.410000    40.043987942    13.816149583    12.179072740   0   0   0 # h*
   1621      1   1 -0.820000    28.323846690    22.383172638     1.366921594   0  -1   0 # o*
   1622      1   2  0.410000    28.871400824    21.584827014     1.382480324   0  -1   0 # h*
   1623      1   2  0.410000    27.501271249    21.951653371     1.095856953   0  -1   0 # h*
   1624      1   1 -0.820000    36.164748357     5.360188499     7.437511275   0   0   0 # o*
   1625      1   2  0.410000    36.716462972     5.962271369     6.959403114   0   0   0 # h*
   1626      1   2  0.410000    36.063599954     5.958872905     8.196248469   0   0   0 # h*
   1627      1   1 -0.820000    37.900311028     2.677909167     1.173868958   0   0   0 # o*
   1628      1   2  0.410000    38.898650770     2.717394338     1.244882353   0   0   0 # h*
   1629      1   2  0.410000    37.679341555     1.732419663     0.885055950   0   0   0 # h*
   1630      1   1 -0.820000    24.586266149    16.185499064     5.663904060   0   0   0 # o*
   1631      1   2  0.410000    24.021984762    15.382217763     5.440577076   0   0   0 # h*
   1632      1   2  0.410000    23.991360283    16.899251768     5.343332135   0   0   0 # h*
   1633      1   1 -0.820000     8.325650500    20.018791120    13.934965806   0   0   0 # o*
   1634      1   2  0.410000     7.869387853    20.674801863    14.493290767   0   0   0 # h*
   1635      1   2  0.410000     8.455608395    20.526461923    13.100855123   0   0   0 # h*
   1636      1   1 -0.820000    30.958089598    12.523352250    20.875547737   0   0   0 # o*
   1637      1   2  0.410000    30.115964392    12.205656152    20.454682317   0   0   0 # h*
   1638      1   2  0.410000    30.994813043    13.415146883    20.415743336   0   0   0 # h*
   1639      1   1 -0.820000    30.371294785     7.091275962     2.808854023   0   0   1 # o*
   1640      1   2  0.410000    30.884093165     7.735988876     2.301984139   0   0   1 # h*
   1641      1   2  0.410000    29.928823844     7.751546152     3.347907750   0   0   1 # h*
   1642      1   1 -0.820000     4.393054838    22.137047519     6.552926886   0   0   0 # o*
   1643      1   2  0.410000     3.473816382    22.031197929     6.885486995   0   0   0 # h*
   1644      1   2  0.410000     4.346972817    22.106309481     5.578412175   0   0   0 # h*
   1645      1   1 -0.820000    16.510047965     5.710969335     4.637561900   0   0   0 # o*
   1646      1   2  0.410000    16.782494876     5.516149685     5.513550548   0   0   0 # h*
   1647      1   2  0.410000    16.718406122     6.672927111     4.551939547   0   0   0 # h*
   1648      1   1 -0.820000    33.240815147     6.993900888    11.990454685   0   0   0 # o*
   1649      1   2  0.410000    33.722772581     7.391171179    12.798682551   0   0   0 # h*
   1650      1   2  0.410000    32.310634478     6.967278572    12.298758691   0   0   0 # h*
   1651      1   1 -0.820000    25.571692253    10.790627125    17.047783146   0   0   0 # o*
   1652      1   2  0.410000    25.817389747    11.562644867    17.620307246   0   0   0 # h*
   1653      1   2  0.410000    25.906181761    11.187179198    16.206265724   0   0   0 # h*
   1654      1   1 -0.820000    28.133755384     8.192037337    20.568177870   0   0   0 # o*
   1655      1   2  0.410000    27.681423772     7.912189554    21.413980106   0   0   0 # h*
   1656      1   2  0.410000    27.369441353     8.639417578    20.229197059   0   0   0 # h*
   1657      1   1 -0.820000     1.257964457     9.591732418    16.079956507   0   0   0 # o*
   1658      1   2  0.410000     1.746305914    10.161082951    15.450241632   0   0   0 # h*
   1659      1   2  0.410000     0.782204369    10.239688862    16.631744224   0   0   0 # h*
   1660      1   1 -0.820000    47.579115599     8.257980530    23.654651451  -1   0   0 # o*
   1661      1   2  0.410000    47.690836888     7.368683526    24.059271264  -1   0   0 # h*
   1662      1   2  0.410000     0.524875848     8.395829494    23.265681738   0   0   0 # h*
   1663      1   1 -0.820000    28.328804655     6.086050492    11.193055509   0   0   0 # o*
   1664      1   2  0.410000    27.687143798     6.772405427    11.451433685   0   0   0 # h*
   1665      1   2  0.410000    27.851958722     5.276306374    11.305649552   0   0   0 # h*
   1666      1   1 -0.820000     9.725042101    19.901688475     6.850856621   0   0   0 # o*
   1667      1   2  0.410000    10.013558257    20.653817629     6.330622352   0   0   0 # h*
   1668      1   2  0.410000    10.549543294    19.471817382     7.195444886   0   0   0 # h*
   1669      1   1 -0.820000    40.731130519    14.240511404    20.577401814   0   0   0 # o*
   1670      1   2  0.410000    39.851181513    14.092762190    20.112871164   0   0   0 # h*
   1671      1   2  0.410000    41.260807341    14.261532224    19.747674991   0   0   0 # h*
   1672      1   1 -0.820000    36.951237047    13.179089899    23.059105038   0   0   0 # o*
   1673      1   2  0.410000    36.262259124    13.464479623    23.705932298   0   0   0 # h*
   1674      1   2  0.410000    36.360980180    13.291435056    22.297935612   0   0   0 # h*
   1675      1   1 -0.820000    10.914132255     0.619330581    21.901063975   0   0   0 # o*
   1676      1   2  0.410000    11.203628774     1.374452691    22.442867660   0   0   0 # h*
   1677      1   2  0.410000    10.090433530     1.068711265    21.406162803   0   0   0 # h*
   1678      1   1 -0.820000    13.925367586     0.372971042    22.916213272   0   0   0 # o*
   1679      1   2  0.410000    14.427202019    22.019986630    23.431357782   0  -1   0 # h*
   1680      1   2  0.410000    12.994257221    22.414602114    23.154723739   0  -1   0 # h*
   1681      1   1 -0.820000    10.752437515     2.490414293    14.854806310   0   0   0 # o*
   1682      1   2  0.410000    11.281934120     1.982219947    15.426355403   0   0   0 # h*
   1683      1   2  0.410000    11.177061733     2.106186968    14.056672389   0   0   0 # h*
   1684      1   1 -0.820000    45.698142534    12.553232876     5.262135405   0   0   0 # o*
   1685      1   2  0.410000    45.989939960    11.766096167     4.724819213   0   0   0 # h*
   1686      1   2  0.410000    44.693104603    12.533980143     5.106941457   0   0   0 # h*
   1687      1   1 -0.820000     5.633192069    10.651984393    18.431966639   0   0   0 # o*
   1688      1   2  0.410000     6.402106867    10.749886608    17.811827615   0   0   0 # h*
   1689      1   2  0.410000     5.570809370     9.651196463    18.410213515   0   0   0 # h*
   1690      1   1 -0.820000     9.360610333    11.230579176    23.531321859   0   0   0 # o*
   1691      1   2  0.410000     8.375548442    11.402902942    23.698568591   0   0   0 # h*
   1692      1   2  0.410000     9.583421447    11.746666950    24.342791404   0   0   0 # h*
   1693      1   1 -0.820000    17.460093170    10.526480162    19.507334377   0   0   0 # o*
   1694      1   2  0.410000    16.850075954    10.376411803    20.240831851   0   0   0 # h*
   1695      1   2  0.410000    17.421358770     9.628681260    19.087109352   0   0   0 # h*
   1696      1   1 -0.820000    15.842211066    11.805522541    25.700489192   0   0   0 # o*
   1697      1   2  0.410000    15.263274674    11.857887520    26.509755137   0   0   0 # h*
   1698      1   2  0.410000    16.745197180    11.806433880    26.027450088   0   0   0 # h*
   1699      1   1 -0.820000    16.399486750    16.345864758    16.461557215   0   0   0 # o*
   1700      1   2  0.410000    16.064873750    15.634061031    17.006514678   0   0   0 # h*
   1701      1   2  0.410000    16.373703804    15.909810931    15.508827985   0   0   0 # h*
   1702      1   1 -0.820000    15.528851982    14.144713971     8.942921833   0   0   0 # o*
   1703      1   2  0.410000    15.630970888    13.950799797     7.985837359   0   0   0 # h*
   1704      1   2  0.410000    16.092874522    14.940146765     8.930091893   0   0   0 # h*
   1705      1   1 -0.820000    26.172585161     9.107580202     8.429201336   0   0   0 # o*
   1706      1   2  0.410000    25.670678555     8.267589560     8.671275567   0   0   0 # h*
   1707      1   2  0.410000    25.310733816     9.593561036     8.429145353   0   0   0 # h*
   1708      1   1 -0.820000    15.336940119     9.137432413    21.560296505   0   0   0 # o*
   1709      1   2  0.410000    15.776582893     8.462136357    21.006544241   0   0   0 # h*
   1710      1   2  0.410000    14.350571220     9.108712257    21.244662693   0   0   0 # h*
   1711      1   1 -0.820000    17.865901714    10.295622932    27.920980279   0   0   0 # o*
   1712      1   2  0.410000    18.407604839     9.680920305     0.460855816   0   0   1 # h*
   1713      1   2  0.410000    18.500409446    10.856628233    27.542289457   0   0   0 # h*
   1714      1   1 -0.820000    43.115476309    14.944777640     5.733344460   0   0   0 # o*
   1715      1   2  0.410000    43.739535407    15.346900465     6.359207242   0   0   0 # h*
   1716      1   2  0.410000    43.178380432    15.598669321     4.988038388   0   0   0 # h*
   1717      1   1 -0.820000    22.207551638     6.385736166     1.629696367   0   0   0 # o*
   1718      1   2  0.410000    22.727603719     6.460618837     0.747735172   0   0   0 # h*
   1719      1   2  0.410000    21.534482490     5.760015243     1.347646701   0   0   0 # h*
   1720      1   1 -0.820000    30.348080151    22.330977766    22.483439956   0   0   0 # o*
   1721      1   2  0.410000    29.623131817    22.075140756    23.006295395   0   0   0 # h*
   1722      1   2  0.410000    30.768732469    21.419136839    22.423886558   0   0   0 # h*
   1723      1   1 -0.820000    31.660217335    22.401454255    25.097084573   0   0   0 # o*
   1724      1   2  0.410000    31.279885329    21.547199129    25.383294003   0   0   0 # h*
   1725      1   2  0.410000    30.959588665     0.524435633    24.535261830   0   1   0 # h*
   1726      1   1 -0.820000     6.916146614    21.212487633     5.575161533   0  -1   0 # o*
   1727      1   2  0.410000     7.091974975    21.935691338     4.944262997   0  -1   0 # h*
   1728      1   2  0.410000     5.965327796    21.236819646     5.770470844   0  -1   0 # h*
   1729      1   1 -0.820000    13.193460708    20.364149614     9.368399394   0   0   0 # o*
   1730      1   2  0.410000    12.376525551    19.915675130     9.532420080   0   0   0 # h*
   1731      1   2  0.410000    13.671070996    19.600453363     9.031370246   0   0   0 # h*
   1732      1   1 -0.820000    19.038859142    15.994570775     4.969357212   0   0   0 # o*
   1733      1   2  0.410000    18.591148021    15.162569354     4.750457876   0   0   0 # h*
   1734      1   2  0.410000    18.251254802    16.620027876     4.960200230   0   0   0 # h*
   1735      1   1 -0.820000    41.660004131     4.736600872    14.234704084   0   0   0 # o*
   1736      1   2  0.410000    41.829715549     5.203138605    15.102243402   0   0   0 # h*
   1737      1   2  0.410000    42.206407470     5.254468770    13.642457428   0   0   0 # h*
   1738      1   1 -0.820000     0.107050004     4.164653771     2.645958967   1   0   0 # o*
   1739      1   2  0.410000     0.575414081     3.592923699     2.036944475   1   0   0 # h*
   1740      1   2  0.410000     0.890544525     4.565085546     3.100476470   1   0   0 # h*
   1741      1   1 -0.820000    17.588386027    22.021706649     8.410271160   0   0   0 # o*
   1742      1   2  0.410000    18.536880460    22.216080981     8.269945256   0   0   0 # h*
   1743      1   2  0.410000    17.220819636    22.073156540     7.519223276   0   0   0 # h*
   1744      1   1 -0.820000    25.728520118     8.627891271     1.217600021   0   0   0 # o*
   1745      1   2  0.410000    26.308603189     7.907723755     1.485501218   0   0   0 # h*
   1746      1   2  0.410000    24.960275166     8.011702839     1.133944592   0   0   0 # h*
   1747      1   1 -0.820000     5.144681972    10.472717269    21.230234520   0   0   0 # o*
   1748      1   2  0.410000     5.174144257    11.271874769    21.739194752   0   0   0 # h*
   1749      1   2  0.410000     5.133709345    10.877743509    20.324124591   0   0   0 # h*
   1750      1   1 -0.820000     2.704329066     3.585844356     0.861218168   0   0   1 # o*
   1751      1   2  0.410000     3.459245599     3.421941925     1.444593357   0   0   1 # h*
   1752      1   2  0.410000     2.685140127     2.664707789     0.462744647   0   0   1 # h*
   1753      1   1 -0.820000    26.214324619    11.074152819     3.691964189   0   0   0 # o*
   1754      1   2  0.410000    26.994786285    11.013474332     3.157452941   0   0   0 # h*
   1755      1   2  0.410000    26.104220228    10.081891945     3.940872589   0   0   0 # h*
   1756      1   1 -0.820000    37.376517397     5.307712921     0.989437675   0   0   0 # o*
   1757      1   2  0.410000    37.303073602     4.382126944     1.337926187   0   0   0 # h*
   1758      1   2  0.410000    36.974196827     5.198004580    28.103358460   0   0  -1 # h*
   1759      1   1 -0.820000    21.007534448    18.973345745     8.780880011   0   0   0 # o*
   1760      1   2  0.410000    20.771368546    18.002079789     8.743910700   0   0   0 # h*
   1761      1   2  0.410000    20.960194314    19.190724717     9.737121443   0   0   0 # h*
   1762      1   1 -0.820000     4.453191365     2.761752069     6.841221823   0   0   0 # o*
   1763      1   2  0.410000     3.876178045     2.707540319     5.991500978   0   0   0 # h*
   1764      1   2  0.410000     4.976702475     1.948292227     6.788364618   0   0   0 # h*
   1765      1   1 -0.820000    32.551813293    17.350494187    20.271567448   0   0   0 # o*
   1766      1   2  0.410000    32.296385273    18.213585411    19.898625355   0   0   0 # h*
   1767      1   2  0.410000    32.999785167    17.002393122    19.462021978   0   0   0 # h*
   1768      1   1 -0.820000    35.147777538    17.803938649    25.018390597   0   0   0 # o*
   1769      1   2  0.410000    34.563225189    17.749252998    24.195967747   0   0   0 # h*
   1770      1   2  0.410000    34.851033250    18.721552985    25.289168420   0   0   0 # h*
   1771      1   1 -0.820000    28.341546503     4.256288126    22.841643146   0   0   0 # o*
   1772      1   2  0.410000    28.671039750     4.784500718    23.613869281   0   0   0 # h*
   1773      1   2  0.410000    28.958445908     3.570176225    22.649010709   0   0   0 # h*
   1774      1   1 -0.820000    29.674054517     1.856424550    27.421297075   0   0   0 # o*
   1775      1   2  0.410000    29.329275329     2.557140754    28.017088692   0   0   0 # h*
   1776      1   2  0.410000    29.576780784     1.108361419    28.098916188   0   0   0 # h*
   1777      1   1 -0.820000    19.850106134    10.594320157    12.239946704   0   0   0 # o*
   1778      1   2  0.410000    20.265632287    11.163098076    11.548853875   0   0   0 # h*
   1779      1   2  0.410000    19.595602943     9.815504380    11.694585346   0   0   0 # h*
   1780      1   1 -0.820000    38.117612326    17.543866757    23.557266154   0   0   0 # o*
   1781      1   2  0.410000    38.804481291    16.905959440    23.397602657   0   0   0 # h*
   1782      1   2  0.410000    37.517452471    17.008439219    24.137310354   0   0   0 # h*
   1783      1   1 -0.820000    32.997093242    15.554223119    27.275097075   0   0   0 # o*
   1784      1   2  0.410000    32.364856660    15.492680630    27.994334651   0   0   0 # h*
   1785      1   2  0.410000    33.835513431    15.792619580    27.758396989   0   0   0 # h*
   1786      1   1 -0.820000    41.675612372     7.757257656     6.437193338   0   0   0 # o*
   1787      1   2  0.410000    41.997490096     8.617253884     6.722186417   0   0   0 # h*
   1788      1   2  0.410000    42.327355421     7.492295948     5.716964367   0   0   0 # h*
   1789      1   1 -0.820000    42.043834719     3.408885673     4.260691697   0   0   0 # o*
   1790      1   2  0.410000    41.414332128     3.348550768     5.042074392   0   0   0 # h*
   1791      1   2  0.410000    42.945078011     3.404177751     4.681053050   0   0   0 # h*
   1792      1   1 -0.820000     7.817867331     2.277961706    14.010418534   0   1   0 # o*
   1793      1   2  0.410000     8.829495869     2.128729236    14.001444519   0   1   0 # h*
   1794      1   2  0.410000     7.933978317     3.206114749    13.982400604   0   1   0 # h*
   1795      1   1 -0.820000     2.670943495    13.833698882     8.228687829   0   0   0 # o*
   1796      1   2  0.410000     3.005040526    12.950567985     8.045624644   0   0   0 # h*
   1797      1   2  0.410000     3.118758745    14.160992485     9.038350006   0   0   0 # h*
   1798      1   1 -0.820000    20.091773633    16.460511575     8.772105597   0   0   0 # o*
   1799      1   2  0.410000    20.124751619    15.636184199     9.304846431   0   0   0 # h*
   1800      1   2  0.410000    19.362461277    16.916867595     9.341863231   0   0   0 # h*
   1801      1   1 -0.820000    36.820297982    16.636704809    12.783807148   0   0   0 # o*
   1802      1   2  0.410000    37.513501962    17.310652162    12.528801734   0   0   0 # h*
   1803      1   2  0.410000    36.491669571    17.159849812    13.504236542   0   0   0 # h*
   1804      1   1 -0.820000    36.371938638    14.765827990    16.257471285   0   0   0 # o*
   1805      1   2  0.410000    37.211670078    14.262045774    16.171191977   0   0   0 # h*
   1806      1   2  0.410000    35.704849290    14.076945329    15.928691692   0   0   0 # h*
   1807      1   1 -0.820000    26.760166831     2.865323701     1.375397609   0   0   0 # o*
   1808      1   2  0.410000    26.115838033     2.936885453     2.124165900   0   0   0 # h*
   1809      1   2  0.410000    27.187996298     2.049291840     1.534626719   0   0   0 # h*
   1810      1   1 -0.820000    46.182465515    12.021506059     0.385010979   0   0   0 # o*
   1811      1   2  0.410000    45.841184384    12.334706789    27.528602263   0   0  -1 # h*
   1812      1   2  0.410000    47.046131921    11.848292637    28.064255577   0   0  -1 # h*
   1813      1   1 -0.820000    44.793599171     9.487926819     4.146856077   0   0   0 # o*
   1814      1   2  0.410000    44.251228401     9.873773111     3.389620021   0   0   0 # h*
   1815      1   2  0.410000    44.489698391     8.544700103     4.126398774   0   0   0 # h*
   1816      1   1 -0.820000     0.960289106    13.772136819    23.886308433   0   0   0 # o*
   1817      1   2  0.410000     0.412778077    14.574720518    24.119446535   0   0   0 # h*
   1818      1   2  0.410000     1.147918763    13.320144238    24.713468641   0   0   0 # h*
   1819      1   1 -0.820000     4.670291626    16.576112022    25.987906883   0   0   0 # o*
   1820      1   2  0.410000     4.888948884    15.744649663    25.449108768   0   0   0 # h*
   1821      1   2  0.410000     3.712308208    16.319443223    26.146344043   0   0   0 # h*
   1822      1   1 -0.820000    17.235854942    21.269231938    14.068749149   0   0   0 # o*
   1823      1   2  0.410000    16.856483582    20.561472221    14.569877661   0   0   0 # h*
   1824      1   2  0.410000    16.648776005    21.981665284    14.366676509   0   0   0 # h*
   1825      1   1 -0.820000    45.092089589    16.224235078     7.471405371   0   0   0 # o*
   1826      1   2  0.410000    45.971225588    16.447437856     7.824486134   0   0   0 # h*
   1827      1   2  0.410000    44.725138303    15.635496387     8.204263724   0   0   0 # h*
   1828      1   1 -0.820000    26.912421795     4.050895181    17.268203779   0   0   0 # o*
   1829      1   2  0.410000    26.665188004     4.947793290    17.294781037   0   0   0 # h*
   1830      1   2  0.410000    26.925342971     3.918828571    16.259077403   0   0   0 # h*
   1831      1   1 -0.820000     3.818085788     7.240250625    16.498391087   0   0   0 # o*
   1832      1   2  0.410000     3.144750759     7.072986929    17.221389340   0   0   0 # h*
   1833      1   2  0.410000     3.540715010     8.147177184    16.230496136   0   0   0 # h*
   1834      1   1 -0.820000     2.749807532     5.509036654    20.790763256   0   0   0 # o*
   1835      1   2  0.410000     2.242082889     4.689082457    20.688712984   0   0   0 # h*
   1836      1   2  0.410000     2.399377594     5.969947975    19.974515226   0   0   0 # h*
   1837      1   1 -0.820000     0.125095495    22.169967082     1.785999759   1   0   0 # o*
   1838      1   2  0.410000     0.544073567    21.992087059     0.926782689   1   0   0 # h*
   1839      1   2  0.410000    47.955238125     0.860483058     1.540411438   0   1   0 # h*
   1840      1   1 -0.820000    34.609312019    18.036973769    10.072237476   0   0   0 # o*
   1841      1   2  0.410000    33.909682098    18.515358604     9.578047227   0   0   0 # h*
   1842      1   2  0.410000    34.289223044    17.104325824    10.168059550   0   0   0 # h*
   1843      1   1 -0.820000    40.515982895     6.362244526    11.474801577   0   0   0 # o*
   1844      1   2  0.410000    40.314113921     5.498408269    11.909857951   0   0   0 # h*
   1845      1   2  0.410000    40.947569151     6.784056039    12.271485327   0   0   0 # h*
   1846      1   1 -0.820000    18.770962898     1.456245068     0.939957964   0   0   0 # o*
   1847      1   2  0.410000    18.520816435     2.336604797     1.230321286   0   0   0 # h*
   1848      1   2  0.410000    18.462172070     0.789773448     1.602020702   0   0   0 # h*
   1849      1   1 -0.820000    12.622906366     9.929860807    12.124169226   0   0   0 # o*
   1850      1   2  0.410000    12.389180607    10.845182980    12.110888938   0   0   0 # h*
   1851      1   2  0.410000    12.024482435     9.550125407    11.363315458   0   0   0 # h*
   1852      1   1 -0.820000    36.532034852    18.252095620    21.341156694   0   0   0 # o*
   1853      1   2  0.410000    36.684819185    17.488802029    20.688449759   0   0   0 # h*
   1854      1   2  0.410000    37.333181006    18.200663443    21.933532115   0   0   0 # h*
   1855      1   1 -0.820000    38.935965044    16.957186815    26.375506020   0   0   0 # o*
   1856      1   2  0.410000    37.950540678    16.774580617    26.623109298   0   0   0 # h*
   1857      1   2  0.410000    39.279837067    16.840944052    27.254933691   0   0   0 # h*
   1858      1   1 -0.820000    26.932542306     0.597976698    19.702047353   0   0   0 # o*
   1859      1   2  0.410000    27.748163969     0.909711403    20.212645007   0   0   0 # h*
   1860      1   2  0.410000    26.667204244    22.095775861    20.204425370   0  -1   0 # h*
   1861      1   1 -0.820000    28.182316427    22.071985722    24.702284034   0  -1   0 # o*
   1862      1   2  0.410000    28.115359648     0.377835349    25.488282848   0   0   0 # h*
   1863      1   2  0.410000    27.954608364    21.180645078    25.004802978   0  -1   0 # h*
   1864      1   1 -0.820000    42.489173919    11.196289165    19.556770818   0   0   0 # o*
   1865      1   2  0.410000    41.948968457    11.951095497    19.189890316   0   0   0 # h*
   1866      1   2  0.410000    41.885020000    10.946494150    20.281235359   0   0   0 # h*
   1867      1   1 -0.820000    46.925881397    13.497703928    25.910872393   0   0   0 # o*
   1868      1   2  0.410000    47.279588584    12.849318895    25.209172942   0   0   0 # h*
   1869      1   2  0.410000    46.051317632    13.716869218    25.574271398   0   0   0 # h*
   1870      1   1 -0.820000    35.773930244     5.449097824    15.259590887   0   0   0 # o*
   1871      1   2  0.410000    35.191351949     5.081629782    14.504836786   0   0   0 # h*
   1872      1   2  0.410000    35.455850477     6.372819698    15.359284826   0   0   0 # h*
   1873      1   1 -0.820000    34.732521636     6.869478863    24.513339979   0   0   0 # o*
   1874      1   2  0.410000    35.242605561     7.618324253    24.192767850   0   0   0 # h*
   1875      1   2  0.410000    34.741656214     7.025211686    25.523856538   0   0   0 # h*
   1876      1   1 -0.820000    38.472152731    12.033506930     0.864270012   0   0   1 # o*
   1877      1   2  0.410000    39.079605434    12.860419573     0.983868167   0   0   1 # h*
   1878      1   2  0.410000    37.889257511    12.324672316    28.164178443   0   0   0 # h*
   1879      1   1 -0.820000    34.397130777    17.160819435     4.781574946   0   0   0 # o*
   1880      1   2  0.410000    34.064005870    18.007427694     4.415534202   0   0   0 # h*
   1881      1   2  0.410000    33.977477723    16.597917907     4.140385100   0   0   0 # h*
   1882      1   1 -0.820000    20.816402065    17.959269704     2.856471760   0   0   0 # o*
   1883      1   2  0.410000    21.617249340    17.410725187     2.952466437   0   0   0 # h*
   1884      1   2  0.410000    21.152887280    18.693585416     2.293883211   0   0   0 # h*
   1885      1   1 -0.820000    31.201906834    11.413032002    15.837376697   0   0   0 # o*
   1886      1   2  0.410000    32.106320788    11.140551928    15.968600052   0   0   0 # h*
   1887      1   2  0.410000    31.433882464    12.043451456    15.116071061   0   0   0 # h*
   1888      1   1 -0.820000    12.997794406     7.771878706     9.537217083   0   0   0 # o*
   1889      1   2  0.410000    12.425750695     7.598789309     8.747845390   0   0   0 # h*
   1890      1   2  0.410000    12.850397761     6.979924762    10.083928818   0   0   0 # h*
   1891      1   1 -0.820000    17.828788684    12.472792149     9.950930637   0   0   0 # o*
   1892      1   2  0.410000    18.389562443    12.558189155     9.160290263   0   0   0 # h*
   1893      1   2  0.410000    16.989630194    12.847843984     9.595107918   0   0   0 # h*
   1894      1   1 -0.820000    16.845184406    20.182215080    10.676953385   0   0   0 # o*
   1895      1   2  0.410000    17.110241196    20.807499364     9.981414610   0   0   0 # h*
   1896      1   2  0.410000    16.509162222    20.657103977    11.428415558   0   0   0 # h*
   1897      1   1 -0.820000    47.663536428    12.614357884     8.331097541  -1   0   0 # o*
   1898      1   2  0.410000     0.117797672    11.959414955     8.930873053   0   0   0 # h*
   1899      1   2  0.410000     0.224007754    12.536622601     7.509706318   0   0   0 # h*
   1900      1   1 -0.820000    35.754036166    16.196719006    28.299608161   0   0  -1 # o*
   1901      1   2  0.410000    36.363746246    16.380183477     1.108311465   0   0   0 # h*
   1902      1   2  0.410000    35.383726878    15.323300690     0.628907919   0   0   0 # h*
   1903      1   1 -0.820000    15.292247690     2.475096254    16.168747486   0   1   0 # o*
   1904      1   2  0.410000    15.209799527     2.737648335    15.230696773   0   1   0 # h*
   1905      1   2  0.410000    14.318301047     2.235354975    16.237218037   0   1   0 # h*
   1906      1   1 -0.820000    14.358026996    20.094699001    21.340090524   0   0   0 # o*
   1907      1   2  0.410000    14.869726089    20.437421656    22.125721465   0   0   0 # h*
   1908      1   2  0.410000    14.279498662    19.133624142    21.447842029   0   0   0 # h*
   1909      1   1 -0.820000    39.387637318    20.602621061     4.415007016   0   0   0 # o*
   1910      1   2  0.410000    39.254774677    20.117914448     3.552924550   0   0   0 # h*
   1911      1   2  0.410000    39.416364415    19.837449383     5.057866201   0   0   0 # h*
   1912      1   1 -0.820000    26.006044480    19.784203622     7.198537956   0   0   0 # o*
   1913      1   2  0.410000    25.412062144    19.161609220     6.675301707   0   0   0 # h*
   1914      1   2  0.410000    26.468354431    20.269269724     6.494931128   0   0   0 # h*
   1915      1   1 -0.820000     4.024775729     1.280887964     9.711926652   0   0   0 # o*
   1916      1   2  0.410000     4.104652008     0.317722648     9.988124873   0   0   0 # h*
   1917      1   2  0.410000     3.736677908     1.196013794     8.776543152   0   0   0 # h*
   1918      1   1 -0.820000    15.261644908     9.287615891    10.906208892   0   0   0 # o*
   1919      1   2  0.410000    14.376203462     9.485439703    11.276678541   0   0   0 # h*
   1920      1   2  0.410000    15.328679934     9.770932672    10.103058906   0   0   0 # h*
   1921      1   1 -0.820000     0.236940460    15.358244138     8.427101499   0   0   0 # o*
   1922      1   2  0.410000    48.062077933    14.396264670     8.483068141  -1   0   0 # h*
   1923      1   2  0.410000     1.076550821    15.393121416     7.888657041   0   0   0 # h*
   1924      1   1 -0.820000    17.736748063    17.901138233    13.600561443   0   0   0 # o*
   1925      1   2  0.410000    17.403717161    18.256390248    14.488202509   0   0   0 # h*
   1926      1   2  0.410000    17.801381765    16.938569755    13.834126696   0   0   0 # h*
   1927      1   1 -0.820000    14.381568410     4.721066173    19.246730571   0   0   0 # o*
   1928      1   2  0.410000    13.676474883     4.099264562    19.397907792   0   0   0 # h*
   1929      1   2  0.410000    15.183738167     4.241213617    19.556090512   0   0   0 # h*
   1930      1   1 -0.820000    13.214127860     5.913218358    27.476078817   0   0   0 # o*
   1931      1   2  0.410000    12.493379399     6.204684581    26.903549226   0   0   0 # h*
   1932      1   2  0.410000    13.637319616     6.834386393    27.675075708   0   0   0 # h*
   1933      1   1 -0.820000    10.851026368    12.345170314    20.356994768   0   0   0 # o*
   1934      1   2  0.410000    10.896035809    13.104419764    19.716667361   0   0   0 # h*
   1935      1   2  0.410000    11.790940763    12.127127998    20.351826631   0   0   0 # h*
   1936      1   1 -0.820000    10.214331586    12.914298586    25.749800382   0   0   0 # o*
   1937      1   2  0.410000    11.027397693    12.505611651    26.100161590   0   0   0 # h*
   1938      1   2  0.410000    10.195388039    13.663584179    26.384468771   0   0   0 # h*
   1939      1   1 -0.820000    42.072805628     6.179708548     1.516985843   0   0   0 # o*
   1940      1   2  0.410000    42.502463892     5.486588743     0.902486988   0   0   0 # h*
   1941      1   2  0.410000    41.393917051     6.453256326     0.888349067   0   0   0 # h*
   1942      1   1 -0.820000    45.403227507     0.536830764    14.756445443   0   0   0 # o*
   1943      1   2  0.410000    44.799789097    22.067218735    14.696717578   0  -1   0 # h*
   1944      1   2  0.410000    44.786479589     1.266070610    15.001792657   0   0   0 # h*
   1945      1   1 -0.820000    13.136797386    15.706581029     5.267817815   0   0   0 # o*
   1946      1   2  0.410000    13.348719263    16.566416668     5.703127041   0   0   0 # h*
   1947      1   2  0.410000    12.420824117    15.481052727     5.936400732   0   0   0 # h*
   1948      1   1 -0.820000     6.927757773    11.973653611     3.246736768   0   0   0 # o*
   1949      1   2  0.410000     7.567613462    12.010276831     3.909813413   0   0   0 # h*
   1950      1   2  0.410000     7.438916169    11.615347689     2.479600097   0   0   0 # h*
   1951      1   1 -0.820000    18.503025154    13.269884481    19.227987436   0   0   0 # o*
   1952      1   2  0.410000    18.255605163    12.351058970    18.941903176   0   0   0 # h*
   1953      1   2  0.410000    19.227957371    12.917957165    19.846306139   0   0   0 # h*
   1954      1   1 -0.820000    19.783810794    15.633062030    21.775575901   0   0   0 # o*
   1955      1   2  0.410000    19.138405224    16.303417775    22.050225872   0   0   0 # h*
   1956      1   2  0.410000    19.322801048    14.766294079    21.881223885   0   0   0 # h*
   1957      1   1 -0.820000    47.186930335     8.547953065    18.633762554   0   0   0 # o*
   1958      1   2  0.410000    46.918847720     8.877913411    19.484085623   0   0   0 # h*
   1959      1   2  0.410000    46.333817225     8.613298527    18.090704581   0   0   0 # h*
   1960      1   1 -0.820000    47.313580240     2.069931780     0.420531216   0   0   1 # o*
   1961      1   2  0.410000    47.448133985     2.770425352    27.725631641   0   0   0 # h*
   1962      1   2  0.410000    46.704568039     1.507944484    27.851419103   0   0   0 # h*
   1963      1   1 -0.820000    17.127952360    11.955660006     2.046056868   0   0   0 # o*
   1964      1   2  0.410000    17.492215744    12.832141807     1.629719097   0   0   0 # h*
   1965      1   2  0.410000    17.066122429    11.410073457     1.194093354   0   0   0 # h*
   1966      1   1 -0.820000    10.332316080     8.450312730    10.980517514   0   0   0 # o*
   1967      1   2  0.410000    10.142578723     8.479819289     9.994893350   0   0   0 # h*
   1968      1   2  0.410000     9.408932750     8.166563375    11.325922340   0   0   0 # h*
   1969      1   1 -0.820000    26.164008856    19.392277462    12.956417729   0   0   0 # o*
   1970      1   2  0.410000    25.404403889    20.037946695    13.145156790   0   0   0 # h*
   1971      1   2  0.410000    25.823536063    18.657412061    13.487675607   0   0   0 # h*
   1972      1   1 -0.820000    38.776507639     5.213649376    15.684558756   0   0   0 # o*
   1973      1   2  0.410000    38.107954806     5.888930642    15.576853269   0   0   0 # h*
   1974      1   2  0.410000    38.434150060     4.748566564    16.478329065   0   0   0 # h*
   1975      1   1 -0.820000    37.684937253     1.403006706    21.754482060   0   0   0 # o*
   1976      1   2  0.410000    37.950538157     0.806919025    20.995979188   0   0   0 # h*
   1977      1   2  0.410000    37.412404258     2.127640371    21.129076455   0   0   0 # h*
   1978      1   1 -0.820000    32.210288024    20.097948491    16.102842039   0   0   0 # o*
   1979      1   2  0.410000    32.601011304    19.384419893    15.605854979   0   0   0 # h*
   1980      1   2  0.410000    32.741690893    20.845484957    15.788701110   0   0   0 # h*
   1981      1   1 -0.820000    37.900003382    10.180736977     8.945160872   0   0   0 # o*
   1982      1   2  0.410000    38.605043718     9.534683919     8.818529815   0   0   0 # h*
   1983      1   2  0.410000    38.326721416    11.047963541     8.976152940   0   0   0 # h*
   1984      1   1 -0.820000    29.119553001    22.308594266    14.240512229   0   0   0 # o*
   1985      1   2  0.410000    29.544620032    21.542398842    14.777047363   0   0   0 # h*
   1986      1   2  0.410000    29.978399748     0.383343334    14.025508537   0   1   0 # h*
   1987      1   1 -0.820000    47.454232806     8.122634421     3.645400330  -1   0   0 # o*
   1988      1   2  0.410000    47.131831906     8.435863943     2.801258455  -1   0   0 # h*
   1989      1   2  0.410000    46.622846278     8.267620871     4.132782786  -1   0   0 # h*
   1990      1   1 -0.820000     6.603045447     4.729928211    16.080333718   0   0   0 # o*
   1991      1   2  0.410000     5.703888388     4.544044351    15.712851688   0   0   0 # h*
   1992      1   2  0.410000     6.729394379     5.572339806    15.625096889   0   0   0 # h*
   1993      1   1 -0.820000    10.025039663     4.420343613     8.779902188   0   0   0 # o*
   1994      1   2  0.410000    10.277701213     4.909042299     9.565976150   0   0   0 # h*
   1995      1   2  0.410000    10.403183841     5.092509125     8.151919653   0   0   0 # h*
   1996      1   1 -0.820000    43.006794243     5.973430164     8.502503687   0   0   0 # o*
   1997      1   2  0.410000    42.626488087     6.518149397     7.735684510   0   0   0 # h*
   1998      1   2  0.410000    42.777964708     6.558639912     9.254376213   0   0   0 # h*
   1999      1   1 -0.820000    23.232155217     0.986528664    16.058581475   0   1   0 # o*
   2000      1   2  0.410000    23.324538603     0.968765548    17.027304208   0   1   0 # h*
   2001      1   2  0.410000    22.247624490     1.164885676    16.004876703   0   1   0 # h*
   2002      1   1 -0.820000    20.273993785     0.833322358    23.604309206   0   1   0 # o*
   2003      1   2  0.410000    20.962824535    22.354099878    23.817512645   0   0   0 # h*
   2004      1   2  0.410000    19.642130739    22.437364047    23.279994072   0   0   0 # h*
   2005      1   1 -0.820000     6.617015493    10.008446529    13.942282671   0   0   0 # o*
   2006      1   2  0.410000     7.145226474     9.402812548    13.362094931   0   0   0 # h*
   2007      1   2  0.410000     7.345668907    10.477871014    14.390129123   0   0   0 # h*
   2008      1   1 -0.820000    39.407097203     8.778016235    19.881307886   0   0   0 # o*
   2009      1   2  0.410000    39.383017094     8.425493146    18.947532019   0   0   0 # h*
   2010      1   2  0.410000    39.254835894     7.963482901    20.371039170   0   0   0 # h*
   2011      1   1 -0.820000    44.680172028    15.864306530    27.168451866   0   0  -1 # o*
   2012      1   2  0.410000    45.603675618    15.453489990    27.377609611   0   0  -1 # h*
   2013      1   2  0.410000    45.054297844    16.655746377    26.698526975   0   0  -1 # h*
   2014      1   1 -0.820000    36.216313667    18.927870219    14.531355276   0   0   0 # o*
   2015      1   2  0.410000    36.598741176    19.837347915    14.523889491   0   0   0 # h*
   2016      1   2  0.410000    36.410178890    18.671712864    15.482702072   0   0   0 # h*
   2017      1   1 -0.820000     1.958229173    13.345946887     3.520481814   0   0   0 # o*
   2018      1   2  0.410000     2.590249410    12.661432605     3.699061785   0   0   0 # h*
   2019      1   2  0.410000     1.260444201    13.047908480     4.084082978   0   0   0 # h*
   2020      1   1 -0.820000    10.078263469    12.672486580    16.900477420   0   0   0 # o*
   2021      1   2  0.410000    10.140386951    13.654084548    17.068128405   0   0   0 # h*
   2022      1   2  0.410000    10.481275393    12.776024019    15.987973820   0   0   0 # h*
   2023      1   1 -0.820000    11.451157046    20.162765836    14.693955857   0   0   0 # o*
   2024      1   2  0.410000    10.686431059    19.896780251    15.201040140   0   0   0 # h*
   2025      1   2  0.410000    11.041675833    20.449496040    13.791264523   0   0   0 # h*
   2026      1   1 -0.820000    22.233465224     9.101061435    23.423376200   0   0   0 # o*
   2027      1   2  0.410000    23.080556997     8.654883437    23.649205597   0   0   0 # h*
   2028      1   2  0.410000    22.281665204     9.316563370    22.423578080   0   0   0 # h*
   2029      1   1 -0.820000    21.115442167    10.327944580     1.952021276   0   0   1 # o*
   2030      1   2  0.410000    20.383324095     9.652848296     2.059051373   0   0   1 # h*
   2031      1   2  0.410000    21.839535806     9.872220204     2.447054413   0   0   1 # h*
   2032      1   1 -0.820000     4.999835540    10.279342148     2.307973428   0   0   0 # o*
   2033      1   2  0.410000     5.551736154    10.952769124     2.824780323   0   0   0 # h*
   2034      1   2  0.410000     4.208870438    10.402885350     2.910559901   0   0   0 # h*
   2035      1   1 -0.820000     6.042872567    18.918522106     9.310685120   0   0   0 # o*
   2036      1   2  0.410000     5.109179370    18.770397037     8.985732422   0   0   0 # h*
   2037      1   2  0.410000     6.165093454    19.845110729     9.364596383   0   0   0 # h*
   2038      1   1 -0.820000     1.779094869    19.133311808     4.795688557   0   0   0 # o*
   2039      1   2  0.410000     1.346796372    18.237819053     4.745629180   0   0   0 # h*
   2040      1   2  0.410000     1.972245689    19.171669869     3.879393776   0   0   0 # h*
   2041      1   1 -0.820000    21.869822721    10.585365524    14.383314735   0   0   0 # o*
   2042      1   2  0.410000    21.511101663    10.483394547    13.507730104   0   0   0 # h*
   2043      1   2  0.410000    22.569960010    11.253985505    14.290731692   0   0   0 # h*
   2044      1   1 -0.820000    25.517286474    14.535945652     2.709754927   0   0   0 # o*
   2045      1   2  0.410000    25.893227224    14.214320369     1.857776083   0   0   0 # h*
   2046      1   2  0.410000    24.804279726    13.852412219     2.720365214   0   0   0 # h*
   2047      1   1 -0.820000    24.141950475     0.823722242     6.107983849   0   0   0 # o*
   2048      1   2  0.410000    23.649435645     0.440651710     6.881103148   0   0   0 # h*
   2049      1   2  0.410000    25.073188989     0.868567063     6.363233382   0   0   0 # h*
   2050      1   1 -0.820000    44.213839724    12.666153566    13.920400020   0   0   0 # o*
   2051      1   2  0.410000    44.411875169    11.709729921    14.020870683   0   0   0 # h*
   2052      1   2  0.410000    43.983037555    12.660852196    12.986396574   0   0   0 # h*
   2053      1   1 -0.820000    38.989871162     0.698271185    17.449208062   0   0   0 # o*
   2054      1   2  0.410000    38.356326162     1.400160626    17.457746153   0   0   0 # h*
   2055      1   2  0.410000    39.824612420     1.050156662    17.073576673   0   0   0 # h*
   2056      1   1 -0.820000    33.361873480     2.584532680    25.975860151   0   0   0 # o*
   2057      1   2  0.410000    34.236273335     2.339450746    25.701294434   0   0   0 # h*
   2058      1   2  0.410000    32.879514931     1.781506411    25.665918520   0   0   0 # h*
   2059      1   1 -0.820000     0.275138109    17.057590420    20.040118965   1   0   0 # o*
   2060      1   2  0.410000     0.366193253    16.073907919    20.178146777   1   0   0 # h*
   2061      1   2  0.410000     1.138536272    17.199891982    19.555985218   1   0   0 # h*
   2062      1   1 -0.820000    47.489598647    16.112745418    24.231410570   0   0   0 # o*
   2063      1   2  0.410000    47.769220724    16.708630715    23.562380165   0   0   0 # h*
   2064      1   2  0.410000    46.531572318    16.368479582    24.394919368   0   0   0 # h*
   2065      1   1 -0.820000     9.600815893    14.313119394    22.048164654   0   0   0 # o*
   2066      1   2  0.410000    10.009922968    13.539003719    21.677328186   0   0   0 # h*
   2067      1   2  0.410000     8.670702445    13.906885636    22.214270837   0   0   0 # h*
   2068      1   1 -0.820000     1.543704988    12.791229845    15.454043848   0   0   0 # o*
   2069      1   2  0.410000     2.480782271    12.778912176    15.097253563   0   0   0 # h*
   2070      1   2  0.410000     1.625246918    13.659428617    15.881651689   0   0   0 # h*
   2071      1   1 -0.820000     7.742720717     4.303567394    22.750830142   0   0   0 # o*
   2072      1   2  0.410000     7.917510838     5.122767951    22.153878106   0   0   0 # h*
   2073      1   2  0.410000     7.056227993     4.755122490    23.343894642   0   0   0 # h*
   2074      1   1 -0.820000     8.617443070    22.099592993    24.775409873   0  -1   0 # o*
   2075      1   2  0.410000     8.183460072    21.246926262    24.402916446   0  -1   0 # h*
   2076      1   2  0.410000     8.132834341     0.526808775    24.288948265   0   0   0 # h*
   2077      1   1 -0.820000    44.363129070    12.536106861     8.032110849   0   0   0 # o*
   2078      1   2  0.410000    44.647722473    13.015767143     7.161043669   0   0   0 # h*
   2079      1   2  0.410000    44.001684648    11.684706912     7.642223859   0   0   0 # h*
   2080      1   1 -0.820000    19.582389633     5.385243303     3.701492355   0   0   0 # o*
   2081      1   2  0.410000    20.560711707     5.684170544     3.933127970   0   0   0 # h*
   2082      1   2  0.410000    19.130451771     6.031115223     4.259368661   0   0   0 # h*
   2083      1   1 -0.820000    33.846986639    17.623898556    15.163277021   0   0   0 # o*
   2084      1   2  0.410000    33.409665712    17.018802789    14.495722445   0   0   0 # h*
   2085      1   2  0.410000    34.660700065    17.906566416    14.621002689   0   0   0 # h*
   2086      1   1 -0.820000     0.764257847     1.350175498    18.449205076   0   0   0 # o*
   2087      1   2  0.410000     0.741771044     1.070092275    17.502682450   0   0   0 # h*
   2088      1   2  0.410000     0.251320079     0.665512340    18.952032821   0   0   0 # h*
   2089      1   1 -0.820000     2.438750030     2.756478848    25.860573976   0   0   0 # o*
   2090      1   2  0.410000     2.332122968     2.025056876    26.546302213   0   0   0 # h*
   2091      1   2  0.410000     1.514781996     2.909122461    25.672021483   0   0   0 # h*
   2092      1   1 -0.820000    35.144199661     7.310336844     9.813882196   0   0   0 # o*
   2093      1   2  0.410000    34.355328204     7.293992314    10.444830363   0   0   0 # h*
   2094      1   2  0.410000    35.231836668     8.302610183     9.765392253   0   0   0 # h*
   2095      1   1 -0.820000    31.532431874    19.781952046    21.977073175   0   0   0 # o*
   2096      1   2  0.410000    31.857128153    18.863913784    22.103493152   0   0   0 # h*
   2097      1   2  0.410000    32.258647765    20.069481256    21.409444855   0   0   0 # h*
   2098      1   1 -0.820000    18.821741561     6.818181754    27.603409442   0   0  -1 # o*
   2099      1   2  0.410000    18.365665076     5.929030065    27.451710094   0   0  -1 # h*
   2100      1   2  0.410000    18.804271693     7.104191782    26.678336883   0   0  -1 # h*
   2101      1   1 -0.820000     6.728348455    19.338276610     2.583756752   0   0   0 # o*
   2102      1   2  0.410000     6.573949635    18.904629919     3.437724464   0   0   0 # h*
   2103      1   2  0.410000     7.081169738    20.246865162     2.886290384   0   0   0 # h*
   2104      1   1 -0.820000    29.300902738    19.862658794    16.168240154   0   0   0 # o*
   2105      1   2  0.410000    28.990369419    20.453265397    16.903074931   0   0   0 # h*
   2106      1   2  0.410000    30.262999713    19.994581797    16.066194509   0   0   0 # h*
   2107      1   1 -0.820000    31.228080398    16.739201430    25.370910624   0   0   0 # o*
   2108      1   2  0.410000    31.601410912    16.322002093    24.542652404   0   0   0 # h*
   2109      1   2  0.410000    32.017294097    16.616236429    25.931705768   0   0   0 # h*
   2110      1   1 -0.820000     2.363952678    15.195271548    14.014627905   1   0   0 # o*
   2111      1   2  0.410000     2.015325947    15.577677034    13.140441752   1   0   0 # h*
   2112      1   2  0.410000     2.649171175    14.304090188    13.619556080   1   0   0 # h*
   2113      1   1 -0.820000     9.928649561    13.694496610     6.606112120   0   0   0 # o*
   2114      1   2  0.410000     9.329100447    14.370627867     6.158473565   0   0   0 # h*
   2115      1   2  0.410000    10.621768073    14.249511182     6.948120327   0   0   0 # h*
   2116      1   1 -0.820000    41.542650791    21.748815111    15.323501931   0   0   0 # o*
   2117      1   2  0.410000    42.392140357    21.916054290    15.750762778   0   0   0 # h*
   2118      1   2  0.410000    41.351519117    20.859372835    15.738854280   0   0   0 # h*
   2119      1   1 -0.820000    46.596326238    21.579151347     7.139985939   0   0   0 # o*
   2120      1   2  0.410000    45.749504893    21.094336836     6.976376591   0   0   0 # h*
   2121      1   2  0.410000    46.733863298    22.144919768     6.408024800   0   0   0 # h*
   2122      1   1 -0.820000     1.033147845     3.248267906     7.081050396   0   0   0 # o*
   2123      1   2  0.410000     1.738949311     2.543411260     6.977999088   0   0   0 # h*
   2124      1   2  0.410000     1.424281124     3.887555628     7.723010228   0   0   0 # h*
   2125      1   1 -0.820000    33.465959436    10.796453850    18.718019281   0   0   0 # o*
   2126      1   2  0.410000    33.249977183    11.765644220    18.704372238   0   0   0 # h*
   2127      1   2  0.410000    32.600820216    10.487729621    19.176681023   0   0   0 # h*
   2128      1   1 -0.820000    38.207667540    10.666702142    24.066944802   0   0   0 # o*
   2129      1   2  0.410000    38.312520819    11.597634656    24.451836971   0   0   0 # h*
   2130      1   2  0.410000    37.945917123    10.969218220    23.135627943   0   0   0 # h*
   2131      1   1 -0.820000    45.709661773    14.696929137    14.883561023   0   0   0 # o*
   2132      1   2  0.410000    45.389226408    13.770713532    14.868533444   0   0   0 # h*
   2133      1   2  0.410000    45.427147793    14.969760665    13.989397354   0   0   0 # h*
   2134      1   1 -0.820000    22.883671443     5.113787834    15.581481852   0   0   0 # o*
   2135      1   2  0.410000    21.994039650     5.315925226    15.132929829   0   0   0 # h*
   2136      1   2  0.410000    22.540596029     5.106131486    16.479530360   0   0   0 # h*
   2137      1   1 -0.820000    32.573826447     7.274189433    21.809938121   0   0   0 # o*
   2138      1   2  0.410000    32.480909665     6.297027060    21.932006102   0   0   0 # h*
   2139      1   2  0.410000    31.897875136     7.382092056    21.133279571   0   0   0 # h*
   2140      1   1 -0.820000    34.578429972     9.767059110    27.807951501   0   0   0 # o*
   2141      1   2  0.410000    34.809461296    10.510388536    27.218382539   0   0   0 # h*
   2142      1   2  0.410000    34.510644060    10.147511745     0.732701427   0   0   1 # h*
   2143      1   1 -0.820000    26.600955514     4.563538567     8.886668888   0   0   0 # o*
   2144      1   2  0.410000    26.861877785     4.034998069     9.700066822   0   0   0 # h*
   2145      1   2  0.410000    26.270900689     5.384188234     9.295959235   0   0   0 # h*
   2146      1   1 -0.820000    33.615573028    14.549873072     4.168172092   0   0   0 # o*
   2147      1   2  0.410000    32.762883664    14.754718517     3.807089806   0   0   0 # h*
   2148      1   2  0.410000    33.399326356    13.638254628     4.579862011   0   0   0 # h*
   2149      1   1 -0.820000    32.702154121     7.855219015     7.895748146   0   0   0 # o*
   2150      1   2  0.410000    33.430263464     7.438276503     8.395296367   0   0   0 # h*
   2151      1   2  0.410000    32.199944008     8.290754173     8.647961377   0   0   0 # h*
   2152      1   1 -0.820000    36.633421074    19.129888911    27.556103415   0  -1   0 # o*
   2153      1   2  0.410000    36.045211943    18.340337596    27.577555732   0  -1   0 # h*
   2154      1   2  0.410000    36.077346742    19.663033971    26.912656898   0  -1   0 # h*
   2155      1   1 -0.820000    38.564191631    22.374445391     0.465221589   0  -1   1 # o*
   2156      1   2  0.410000    38.514032809    21.374355721     0.497858991   0  -1   1 # h*
   2157      1   2  0.410000    39.559417498    22.527274439     0.642748878   0  -1   1 # h*
   2158      1   1 -0.820000    31.738766784    18.957855847    11.821314910   0   0   0 # o*
   2159      1   2  0.410000    32.138367225    19.504600299    11.149575161   0   0   0 # h*
   2160      1   2  0.410000    31.132266243    19.699375669    12.074583948   0   0   0 # h*
   2161      1   1 -0.820000    11.794422745     5.278653683    13.681341019   0   0   0 # o*
   2162      1   2  0.410000    11.181296060     4.693691001    14.242995621   0   0   0 # h*
   2163      1   2  0.410000    12.678030683     5.040211663    14.078232197   0   0   0 # h*
   2164      1   1 -0.820000    33.507659002     7.942875803    14.478540364   0   0   0 # o*
   2165      1   2  0.410000    33.633249934     8.696909005    15.157406967   0   0   0 # h*
   2166      1   2  0.410000    32.666117614     7.567124036    14.822264562   0   0   0 # h*
   2167      1   1 -0.820000    40.841607788     0.661644774     3.524115176   0   1   0 # o*
   2168      1   2  0.410000    40.379725413    22.154341809     3.986070450   0   0   0 # h*
   2169      1   2  0.410000    41.697315034     0.719822627     4.024050643   0   1   0 # h*
   2170      1   1 -0.820000    46.475299117    16.459335348     4.033045098   0   0   0 # o*
   2171      1   2  0.410000    46.904847392    15.726158554     3.554525071   0   0   0 # h*
   2172      1   2  0.410000    45.490671025    16.137073685     4.085625728   0   0   0 # h*
   2173      1   1 -0.820000    22.640013768    14.880628024     1.357884877   0   0   0 # o*
   2174      1   2  0.410000    21.861779499    15.270373772     0.939103005   0   0   0 # h*
   2175      1   2  0.410000    23.324110459    14.921636052     0.636378662   0   0   0 # h*
   2176      1   1 -0.820000    15.604674185    21.306301659     2.745505062   0  -1   0 # o*
   2177      1   2  0.410000    16.356656732    21.006088090     2.216183286   0  -1   0 # h*
   2178      1   2  0.410000    15.815339287    22.261889592     2.905081076   0  -1   0 # h*
   2179      1   1 -0.820000    16.148819761     5.558656369     8.111072761   0   0   0 # o*
   2180      1   2  0.410000    15.182972880     5.437979077     8.032974961   0   0   0 # h*
   2181      1   2  0.410000    16.099214392     6.556610261     7.864670104   0   0   0 # h*
   2182      1   1 -0.820000    41.605372414    16.876439421    22.290456373   0   0   0 # o*
   2183      1   2  0.410000    42.404557598    16.496518548    21.848746793   0   0   0 # h*
   2184      1   2  0.410000    40.897490415    16.223925643    22.058424597   0   0   0 # h*
   2185      1   1 -0.820000    41.997506877    16.002759604    27.637750020   0   0   0 # o*
   2186      1   2  0.410000    42.929535001    15.708669857    27.644901549   0   0   0 # h*
   2187      1   2  0.410000    41.888563709    16.027456367    26.676555734   0   0   0 # h*
   2188      1   1 -0.820000    14.675075533    18.963975845    12.944450286   0   0   0 # o*
   2189      1   2  0.410000    14.407039451    18.531533558    13.849662543   0   0   0 # h*
   2190      1   2  0.410000    15.455869622    18.339107243    12.856428375   0   0   0 # h*
   2191      1   1 -0.820000    38.848413801     6.887382500     6.354278700   0   0   0 # o*
   2192      1   2  0.410000    38.752922554     6.718355935     7.267787188   0   0   0 # h*
   2193      1   2  0.410000    39.705315846     7.288250393     6.221017683   0   0   0 # h*
   2194      1   1 -0.820000    11.340848416    19.204481514    23.811031045   0   0   0 # o*
   2195      1   2  0.410000    11.042262216    20.092213300    23.909346395   0   0   0 # h*
   2196      1   2  0.410000    11.568548312    19.214664837    24.732315258   0   0   0 # h*
   2197      1   1 -0.820000    11.704356459    22.456014288    28.040012274   0   0   0 # o*
   2198      1   2  0.410000    11.561705872     0.996062574     0.554139998   0   1   1 # h*
   2199      1   2  0.410000    12.638198901    22.256303151    28.183108058   0   0   0 # h*
   2200      1   1 -0.820000    26.711234203     2.422574316     7.009223984   0   0   0 # o*
   2201      1   2  0.410000    26.590102293     1.677339911     7.664887218   0   0   0 # h*
   2202      1   2  0.410000    26.831076088     3.150121814     7.654612870   0   0   0 # h*
   2203      1   1 -0.820000    16.306653102     9.155802560    17.332903023   0   0   0 # o*
   2204      1   2  0.410000    16.123464509    10.077170358    16.914506795   0   0   0 # h*
   2205      1   2  0.410000    15.698002292     8.596745488    16.852399406   0   0   0 # h*
   2206      1   1 -0.820000    29.717165675    16.182561437    12.172999410   0   0   0 # o*
   2207      1   2  0.410000    29.014821447    15.705398578    12.696825579   0   0   0 # h*
   2208      1   2  0.410000    29.489330435    17.123135939    12.464081278   0   0   0 # h*
   2209      1   1 -0.820000    37.279139742     9.196580523    27.560729115   0   0  -1 # o*
   2210      1   2  0.410000    37.322352957     9.525303859     0.496774200   0   0   0 # h*
   2211      1   2  0.410000    36.333189253     8.988765665    27.447754666   0   0  -1 # h*
   2212      1   1 -0.820000     6.471432095    13.555660751    17.532301173   0   0   0 # o*
   2213      1   2  0.410000     7.103630610    14.347058071    17.609808899   0   0   0 # h*
   2214      1   2  0.410000     6.585094167    13.196273750    18.426260539   0   0   0 # h*
   2215      1   1 -0.820000     7.347694311    11.258630776    26.730730699   0   0   0 # o*
   2216      1   2  0.410000     7.739969517    12.093991864    26.342704539   0   0   0 # h*
   2217      1   2  0.410000     6.386840999    11.346804058    26.746489354   0   0   0 # h*
   2218      1   1 -0.820000    38.778380651    20.085209011    16.640997634   0   0   0 # o*
   2219      1   2  0.410000    38.760604751    20.935011615    17.124219571   0   0   0 # h*
   2220      1   2  0.410000    38.903405996    19.447546112    17.357015948   0   0   0 # h*
   2221      1   1 -0.820000    36.058460914    19.490309361    17.956673498   0   0   0 # o*
   2222      1   2  0.410000    35.579490439    18.618474705    18.306161805   0   0   0 # h*
   2223      1   2  0.410000    36.957368476    19.245314537    17.667720753   0   0   0 # h*
   2224      1   1 -0.820000     9.777466082     2.000832823     7.378894928   0   0   0 # o*
   2225      1   2  0.410000     9.653940359     2.835300665     7.884996893   0   0   0 # h*
   2226      1   2  0.410000    10.409537362     1.507352289     7.983003737   0   0   0 # h*
   2227      1   1 -0.820000    27.383411523    18.177920696    17.390199873   0   0   0 # o*
   2228      1   2  0.410000    27.707021971    19.003426669    16.898651994   0   0   0 # h*
   2229      1   2  0.410000    27.053761138    18.680335682    18.133512019   0   0   0 # h*
   2230      1   1 -0.820000    23.475165050    19.566373365     1.556331415   0   0   1 # o*
   2231      1   2  0.410000    23.879876824    20.226318526     2.220955838   0   0   1 # h*
   2232      1   2  0.410000    23.842340043    18.720967132     1.916041047   0   0   1 # h*
   2233      1   1 -0.820000     6.156725961    10.960347158    10.875056091   0   0   0 # o*
   2234      1   2  0.410000     5.985017105    10.211367809    11.429838728   0   0   0 # h*
   2235      1   2  0.410000     6.121810033    10.588814368     9.934693326   0   0   0 # h*
   2236      1   1 -0.820000    10.580134389     9.460361750    14.767811220   0   0   0 # o*
   2237      1   2  0.410000    10.285290681    10.330344421    15.120242146   0   0   0 # h*
   2238      1   2  0.410000    10.291514415     9.491428158    13.862101891   0   0   0 # h*
   2239      1   1 -0.820000    23.963279237     6.730505304    22.265927450   0   0   0 # o*
   2240      1   2  0.410000    23.128055473     6.291959173    22.036287629   0   0   0 # h*
   2241      1   2  0.410000    24.645479838     6.555251942    21.502622287   0   0   0 # h*
   2242      1   1 -0.820000    25.173246079     5.077351718    25.245217123   0   0   0 # o*
   2243      1   2  0.410000    24.526054031     4.369236415    25.109142592   0   0   0 # h*
   2244      1   2  0.410000    25.134794944     5.667509175    24.501637654   0   0   0 # h*
   2245      1   1 -0.820000     5.320664783    15.984884550    13.497767023   0   0   0 # o*
   2246      1   2  0.410000     5.693601602    15.198032920    13.022068520   0   0   0 # h*
   2247      1   2  0.410000     4.351420003    15.886909634    13.620847676   0   0   0 # h*
   2248      1   1 -0.820000    32.137580709    15.980716568    22.724645878   0   0   0 # o*
   2249      1   2  0.410000    32.241077702    16.440297675    21.897292389   0   0   0 # h*
   2250      1   2  0.410000    33.198254523    15.858195238    22.923189292   0   0   0 # h*
   2251      1   1 -0.820000    30.261416872    16.326428968     0.647567265   0   0   1 # o*
   2252      1   2  0.410000    30.284611689    17.331117002     0.678551253   0   0   1 # h*
   2253      1   2  0.410000    29.710274855    16.227887412    27.799912711   0   0   0 # h*
   2254      1   1 -0.820000     6.667669245    21.780962526    15.572762921   0   0   0 # o*
   2255      1   2  0.410000     5.979864239    21.401070375    16.230472167   0   0   0 # h*
   2256      1   2  0.410000     6.259898366     0.413145747    15.421529063   0   1   0 # h*
   2257      1   1 -0.820000     8.182355995    15.706364506     6.203789449   0   0   0 # o*
   2258      1   2  0.410000     8.041204306    16.608103406     5.615240147   0   0   0 # h*
   2259      1   2  0.410000     8.070855447    16.196850046     7.081085972   0   0   0 # h*
   2260      1   1 -0.820000    46.117766036    18.866894261    21.402968845   0   0   0 # o*
   2261      1   2  0.410000    46.613264539    19.732339341    21.341354615   0   0   0 # h*
   2262      1   2  0.410000    46.944664654    18.313435660    21.452446359   0   0   0 # h*
   2263      1   1 -0.820000     0.834080739    17.976018789    22.531324073   1   0   0 # o*
   2264      1   2  0.410000     1.059787117    17.801426524    21.555130116   1   0   0 # h*
   2265      1   2  0.410000     1.312485094    18.847428535    22.716038766   1   0   0 # h*
   2266      1   1 -0.820000    26.929551878    12.586746645    19.051222783   0   0   0 # o*
   2267      1   2  0.410000    27.503113464    13.216589700    18.585703282   0   0   0 # h*
   2268      1   2  0.410000    26.686169696    13.049060941    19.892742396   0   0   0 # h*
   2269      1   1 -0.820000    28.734765848    15.585325355    26.053738379   0   0   0 # o*
   2270      1   2  0.410000    29.251771948    14.797777530    26.249913780   0   0   0 # h*
   2271      1   2  0.410000    29.414194319    16.222147522    25.651864642   0   0   0 # h*
   2272      1   1 -0.820000    35.685026397     2.412116398    11.489173964   0   0   0 # o*
   2273      1   2  0.410000    35.809043768     2.717069503    10.546041432   0   0   0 # h*
   2274      1   2  0.410000    35.402089527     3.213701950    11.886085861   0   0   0 # h*
   2275      1   1 -0.820000    28.649580537     1.511660471     8.804391688   0   1   0 # o*
   2276      1   2  0.410000    28.873512084     0.523117972     8.909395074   0   1   0 # h*
   2277      1   2  0.410000    28.486599955     1.591228304     7.816161919   0   1   0 # h*
   2278      1   1 -0.820000    38.317929338    14.146390862    11.425306339   0   0   0 # o*
   2279      1   2  0.410000    37.458525854    14.152511407    10.948937819   0   0   0 # h*
   2280      1   2  0.410000    37.968470106    14.677173928    12.199069898   0   0   0 # h*
   2281      1   1 -0.820000     7.704221692     2.850891335    18.054318000   0   0   0 # o*
   2282      1   2  0.410000     7.394127472     3.333543897    17.272862891   0   0   0 # h*
   2283      1   2  0.410000     8.231727695     3.604596229    18.395637205   0   0   0 # h*
   2284      1   1 -0.820000    26.721539286    19.171103565    10.043544183   0   0   0 # o*
   2285      1   2  0.410000    26.093518278    18.779858670    10.782600665   0   0   0 # h*
   2286      1   2  0.410000    26.047466388    19.257924070     9.280361729   0   0   0 # h*
   2287      1   1 -0.820000     8.337910972    17.224713415     8.787850582   0   0   0 # o*
   2288      1   2  0.410000     7.768737854    17.968053192     9.037159461   0   0   0 # h*
   2289      1   2  0.410000     7.882463398    16.413125386     9.169853823   0   0   0 # h*
   2290      1   1 -0.820000     3.436715672    11.266109361     4.738805623   0   0   0 # o*
   2291      1   2  0.410000     3.009371243    11.234463497     5.633259396   0   0   0 # h*
   2292      1   2  0.410000     2.785713320    10.588921218     4.307807524   0   0   0 # h*
   2293      1   1 -0.820000    42.250924743    22.521528492     7.511419617   0   0   0 # o*
   2294      1   2  0.410000    42.543132779     1.138856925     7.228748552   0   1   0 # h*
   2295      1   2  0.410000    42.577503061    21.986686503     6.743283525   0   0   0 # h*
   2296      1   1 -0.820000     1.366942041    16.078108494     1.742296974   0   0   0 # o*
   2297      1   2  0.410000     1.230974978    15.985074700     0.761249709   0   0   0 # h*
   2298      1   2  0.410000     0.855461141    15.408721934     2.181687129   0   0   0 # h*
   2299      1   1 -0.820000    41.138842829     2.578314286    16.851275590   0   0   0 # o*
   2300      1   2  0.410000    40.795070115     3.298368163    17.408172384   0   0   0 # h*
   2301      1   2  0.410000    41.671263557     2.080870510    17.481880365   0   0   0 # h*
   2302      1   1 -0.820000    37.208378330    20.886768009    24.556565994   0  -1   0 # o*
   2303      1   2  0.410000    36.800250149    21.387513723    23.866866840   0  -1   0 # h*
   2304      1   2  0.410000    36.875488248    20.006079011    24.315469999   0  -1   0 # h*
   2305      1   1 -0.820000     5.328644881     5.173297321    19.860581876   0   0   0 # o*
   2306      1   2  0.410000     5.256406152     4.407948345    19.295898742   0   0   0 # h*
   2307      1   2  0.410000     4.504281906     5.127477507    20.359379584   0   0   0 # h*
   2308      1   1 -0.820000     8.358789318     3.691885188    26.457292140   0   0   0 # o*
   2309      1   2  0.410000     8.570860935     4.651916389    26.296556468   0   0   0 # h*
   2310      1   2  0.410000     9.256010503     3.291086267    26.563240585   0   0   0 # h*
   2311      1   1 -0.820000    24.217577949     8.644263070    16.008579389   0   0   0 # o*
   2312      1   2  0.410000    24.637694474     9.509474953    16.339325538   0   0   0 # h*
   2313      1   2  0.410000    23.519823821     9.038061245    15.416426405   0   0   0 # h*
   2314      1   1 -0.820000    30.371038274    15.785981382     3.682016737   0   0   0 # o*
   2315      1   2  0.410000    29.869806740    16.585726389     4.060142276   0   0   0 # h*
   2316      1   2  0.410000    30.795441800    16.324047950     3.019390268   0   0   0 # h*
   2317      1   1 -0.820000    19.295449576    22.275799891     3.531513446   0  -1   0 # o*
   2318      1   2  0.410000    20.006674279    21.972872727     2.957839639   0  -1   0 # h*
   2319      1   2  0.410000    19.781719904     0.681304243     4.041345724   0   0   0 # h*
   2320      1   1 -0.820000    24.796218433    17.069657842    18.210807986   0   0   0 # o*
   2321      1   2  0.410000    25.771305255    17.262825546    18.060878359   0   0   0 # h*
   2322      1   2  0.410000    24.492877783    17.024771805    17.256225924   0   0   0 # h*
   2323      1   1 -0.820000    23.678446402    19.189984535    25.499448787   0   0   0 # o*
   2324      1   2  0.410000    22.981965141    19.348399025    26.143576285   0   0   0 # h*
   2325      1   2  0.410000    24.118495080    18.323936305    25.780417122   0   0   0 # h*
   2326      1   1 -0.820000    34.930171205     7.481899812     2.281095288   0   0   0 # o*
   2327      1   2  0.410000    35.734446157     6.867433029     2.564711562   0   0   0 # h*
   2328      1   2  0.410000    35.459706747     8.270296787     2.068382692   0   0   0 # h*
   2329      1   1 -0.820000    25.826100285    14.825897541    16.069225355   0   0   0 # o*
   2330      1   2  0.410000    25.465807622    14.643688223    16.993527410   0   0   0 # h*
   2331      1   2  0.410000    25.558625095    13.955601657    15.683212837   0   0   0 # h*
   2332      1   1 -0.820000    27.140721307    16.027494685    20.062377815   0   0   0 # o*
   2333      1   2  0.410000    27.591153195    15.320833169    20.517440198   0   0   0 # h*
   2334      1   2  0.410000    27.186650909    16.749184968    20.757508940   0   0   0 # h*
   2335      1   1 -0.820000    43.760435538     2.789494695    15.577090318   0   0   0 # o*
   2336      1   2  0.410000    42.862653844     3.203787942    15.478069114   0   0   0 # h*
   2337      1   2  0.410000    43.618635013     2.489534890    16.506793967   0   0   0 # h*
   2338      1   1 -0.820000    42.754484756    12.882377226     1.756786841   0   0   0 # o*
   2339      1   2  0.410000    41.977829386    13.518897957     1.643922228   0   0   0 # h*
   2340      1   2  0.410000    43.349516447    13.035170796     1.046945777   0   0   0 # h*
   2341      1   1 -0.820000     9.183712368    10.202219316     8.941874523   0   0   0 # o*
   2342      1   2  0.410000     8.823586473     9.335440926     9.228570727   0   0   0 # h*
   2343      1   2  0.410000     8.435790602    10.665014341     8.538441544   0   0   0 # h*
   2344      1   1 -0.820000    12.557635015    12.520843052     4.684536151   0   0   0 # o*
   2345      1   2  0.410000    11.826531091    12.755696456     5.266868790   0   0   0 # h*
   2346      1   2  0.410000    12.966953415    13.434474462     4.773824019   0   0   0 # h*
   2347      1   1 -0.820000    44.205801740    16.146312717    21.318737583   0   0   0 # o*
   2348      1   2  0.410000    44.709257900    15.306774184    21.143479313   0   0   0 # h*
   2349      1   2  0.410000    44.867132463    16.769792966    21.677974231   0   0   0 # h*
   2350      1   1 -0.820000    46.728046111    18.102524057    27.545284091   0   0   0 # o*
   2351      1   2  0.410000    47.674469358    18.294676838    27.630728834   0   0   0 # h*
   2352      1   2  0.410000    46.383775214    18.000694317     0.488713189   0   0   1 # h*
   2353      1   1 -0.820000    10.409751455    12.715183684     9.761318041   0   0   0 # o*
   2354      1   2  0.410000    10.279246405    11.782359930     9.612156470   0   0   0 # h*
   2355      1   2  0.410000     9.615597156    13.035014722     9.266262448   0   0   0 # h*
   2356      1   1 -0.820000    33.206579343    18.582486132     7.500561347   0   0   0 # o*
   2357      1   2  0.410000    32.978993498    17.644690901     7.108666525   0   0   0 # h*
   2358      1   2  0.410000    33.577703825    19.057642838     6.657813853   0   0   0 # h*
   2359      1   1 -0.820000     8.885653154    17.403306204    23.945113009   0   0   0 # o*
   2360      1   2  0.410000     9.427530410    18.038457368    23.473236194   0   0   0 # h*
   2361      1   2  0.410000     9.635961551    16.735849428    24.081158309   0   0   0 # h*
   2362      1   1 -0.820000    11.746356655    16.375059212    25.258350835   0   0   0 # o*
   2363      1   2  0.410000    12.280860885    16.465525434    24.480624737   0   0   0 # h*
   2364      1   2  0.410000    11.903768559    17.239077713    25.696478149   0   0   0 # h*
   2365      1   1 -0.820000     1.938076074     7.591517101    18.830836577   0   0   0 # o*
   2366      1   2  0.410000     0.999845090     7.619123991    18.497935672   0   0   0 # h*
   2367      1   2  0.410000     1.895024310     8.384166291    19.426224930   0   0   0 # h*
   2368      1   1 -0.820000     4.760592048     6.854285028    26.736189548   0   0   0 # o*
   2369      1   2  0.410000     5.016694749     7.803220257    26.875518034   0   0   0 # h*
   2370      1   2  0.410000     4.515038378     6.607034913    27.647987710   0   0   0 # h*
   2371      1   1 -0.820000    11.169672526     2.534845869     4.927297973   0   0   0 # o*
   2372      1   2  0.410000    12.125947734     2.624663506     5.137333652   0   0   0 # h*
   2373      1   2  0.410000    10.931216069     2.002199375     5.664616027   0   0   0 # h*
   2374      1   1 -0.820000    42.941520850    12.136953648     5.463689341   0   0   0 # o*
   2375      1   2  0.410000    42.040876793    12.071276339     5.042337370   0   0   0 # h*
   2376      1   2  0.410000    42.748442363    12.943497022     6.030473452   0   0   0 # h*
   2377      1   1 -0.820000    24.133399581    17.906676946    11.206248030   0   0   0 # o*
   2378      1   2  0.410000    24.148094912    17.419122593    12.119864473   0   0   0 # h*
   2379      1   2  0.410000    23.312138959    18.439330428    11.227059777   0   0   0 # h*
   2380      1   1 -0.820000     7.951262555    22.426664413    11.947709270   0  -1   0 # o*
   2381      1   2  0.410000     7.492058257     0.670129895    11.224926677   0   0   0 # h*
   2382      1   2  0.410000     7.630170669     0.655689266    12.700949605   0   0   0 # h*
   2383      1   1 -0.820000    26.032129436    11.681786842    11.979267284   0   0   0 # o*
   2384      1   2  0.410000    25.927085305    10.735509915    12.331965959   0   0   0 # h*
   2385      1   2  0.410000    26.339645518    11.597178711    11.084079018   0   0   0 # h*
   2386      1   1 -0.820000    47.511058043    18.191966805     2.218358677   0   0   0 # o*
   2387      1   2  0.410000    47.096975088    17.753170313     3.063849044   0   0   0 # h*
   2388      1   2  0.410000     0.371594688    17.734330212     2.032200919   1   0   0 # h*
   2389      1   1 -0.820000    45.799518255     4.465446424    13.717561914   0   0   0 # o*
   2390      1   2  0.410000    45.470193798     3.920796157    12.924036343   0   0   0 # h*
   2391      1   2  0.410000    45.327182260     4.085777679    14.481923595   0   0   0 # h*
   2392      1   1 -0.820000    16.210311213    17.035542994     4.627686244   0   0   0 # o*
   2393      1   2  0.410000    15.458887687    17.359079572     5.190692104   0   0   0 # h*
   2394      1   2  0.410000    16.519413452    17.867474560     4.229267738   0   0   0 # h*
   2395      1   1 -0.820000    45.213983217     5.873155613    16.808281250   0   0   0 # o*
   2396      1   2  0.410000    45.441884513     4.995610758    17.100260179   0   0   0 # h*
   2397      1   2  0.410000    46.107315262     6.288740659    16.724030416   0   0   0 # h*
   2398      1   1 -0.820000    43.577851383     2.973850024    24.590823735   0   0   0 # o*
   2399      1   2  0.410000    43.307286574     2.471608757    25.387420050   0   0   0 # h*
   2400      1   2  0.410000    43.560238765     2.288385887    23.913527823   0   0   0 # h*
   2401      1   1 -0.820000    22.950912895    13.615179611    15.802161848   0   0   0 # o*
   2402      1   2  0.410000    23.225861522    13.614364282    16.717286085   0   0   0 # h*
   2403      1   2  0.410000    22.290752873    12.935139943    15.969467606   0   0   0 # h*
   2404      1   1 -0.820000    23.538178525    17.311738391    20.656627998   0   0   0 # o*
   2405      1   2  0.410000    23.776550509    17.498894193    19.726827597   0   0   0 # h*
   2406      1   2  0.410000    24.313845217    16.833866553    21.036747147   0   0   0 # h*
   2407      1   1 -0.820000    32.752364099    20.771584005    27.933373675   0   0  -1 # o*
   2408      1   2  0.410000    32.947532928    21.671217562    28.228135195   0   0  -1 # h*
   2409      1   2  0.410000    32.302405407    20.941815144    27.115588165   0   0  -1 # h*
   2410      1   1 -0.820000     2.841193367    17.594931437    11.851207283   0   0   0 # o*
   2411      1   2  0.410000     3.658706235    17.832048253    12.323851515   0   0   0 # h*
   2412      1   2  0.410000     2.449968681    18.491855944    11.639747532   0   0   0 # h*
   2413      1   1 -0.820000    18.079146478     3.022852298    14.246208831   0   0   0 # o*
   2414      1   2  0.410000    17.661337112     3.509786998    15.016226460   0   0   0 # h*
   2415      1   2  0.410000    17.268044433     2.654306264    13.887738955   0   0   0 # h*
   2416      1   1 -0.820000    34.978950277    22.343040412     7.986751284   0  -1   0 # o*
   2417      1   2  0.410000    35.784588990    22.310346342     8.542508229   0  -1   0 # h*
   2418      1   2  0.410000    35.391182448    22.438403074     7.110512790   0  -1   0 # h*
   2419      1   1 -0.820000    30.832820317     8.163398160    12.928115785   0   0   0 # o*
   2420      1   2  0.410000    30.582623540     7.854459436    13.864618991   0   0   0 # h*
   2421      1   2  0.410000    30.377506318     8.994673844    12.934009658   0   0   0 # h*
   2422      1   1 -0.820000     0.797200127     1.205702014     9.659326576   0   0   0 # o*
   2423      1   2  0.410000    48.055481578     1.098657424    10.279110810  -1   0   0 # h*
   2424      1   2  0.410000     1.496659115     1.285361215    10.346661702   0   0   0 # h*
   2425      1   1 -0.820000    35.317516525     4.713549191    22.868161936   0   0   0 # o*
   2426      1   2  0.410000    34.953489497     4.449670972    22.005975613   0   0   0 # h*
   2427      1   2  0.410000    34.648993852     5.347956591    23.198641621   0   0   0 # h*
   2428      1   1 -0.820000    37.037512791     5.081785095    25.371835741   0   0   0 # o*
   2429      1   2  0.410000    37.016968268     4.245676864    24.819118495   0   0   0 # h*
   2430      1   2  0.410000    36.163279181     5.393996966    25.187040858   0   0   0 # h*
   2431      1   1 -0.820000    18.191279197    18.857259990     8.157174537   0   0   0 # o*
   2432      1   2  0.410000    18.255189234    19.865553330     8.308140354   0   0   0 # h*
   2433      1   2  0.410000    19.024826566    18.618762586     7.749595609   0   0   0 # h*
   2434      1   1 -0.820000    30.299541452     6.622161021     6.681897422   0   0   0 # o*
   2435      1   2  0.410000    30.321463458     5.997661818     7.476604502   0   0   0 # h*
   2436      1   2  0.410000    31.149929916     7.051632013     6.920252153   0   0   0 # h*
   2437      1   1 -0.820000    43.114334662     6.848819037     4.227232962   0   0   0 # o*
   2438      1   2  0.410000    43.900961527     6.313623159     4.340972652   0   0   0 # h*
   2439      1   2  0.410000    42.889462876     6.680564482     3.259289097   0   0   0 # h*
   2440      1   1 -0.820000    10.766349603    16.835136616    21.499745229   0   0   0 # o*
   2441      1   2  0.410000    10.273578302    16.932348562    20.633676828   0   0   0 # h*
   2442      1   2  0.410000    10.654865571    15.871222181    21.672809617   0   0   0 # h*
   2443      1   1 -0.820000     9.683080536    15.876303234    27.222332058   0   0   0 # o*
   2444      1   2  0.410000    10.497743457    16.114779273    26.706461968   0   0   0 # h*
   2445      1   2  0.410000     9.854528761    16.532291118    27.928487580   0   0   0 # h*
   2446      1   1 -0.820000    13.702134246    12.411780004    14.848181841   0   0   0 # o*
   2447      1   2  0.410000    13.418589432    11.637182491    15.454579438   0   0   0 # h*
   2448      1   2  0.410000    12.916091307    12.377536426    14.292161691   0   0   0 # h*
   2449      1   1 -0.820000     7.587040260    18.777204980    26.263426635   0   0  -1 # o*
   2450      1   2  0.410000     7.994316773    18.636020453    25.395111153   0   0  -1 # h*
   2451      1   2  0.410000     7.802045484    17.979733412    26.762735116   0   0  -1 # h*
   2452      1   1 -0.820000    29.490665849     9.932972205    22.476270660   0   0   0 # o*
   2453      1   2  0.410000    29.612578034     9.088199853    22.916396576   0   0   0 # h*
   2454      1   2  0.410000    29.426889225     9.672062408    21.523621439   0   0   0 # h*
   2455      1   1 -0.820000    30.002230019    13.227897788    26.970539412   0   0   0 # o*
   2456      1   2  0.410000    29.636284612    12.398670936    27.489454659   0   0   0 # h*
   2457      1   2  0.410000    30.688676234    12.771650196    26.413220086   0   0   0 # h*
   2458      1   1 -0.820000    35.754473252    22.104846232    17.075499293   0   0   0 # o*
   2459      1   2  0.410000    35.858913432    21.162374184    17.204307920   0   0   0 # h*
   2460      1   2  0.410000    36.653515388    22.338925357    16.695126068   0   0   0 # h*
   2461      1   1 -0.820000    34.468070354    21.710930652    22.426079493   0   0   0 # o*
   2462      1   2  0.410000    35.019633274    21.836081513    21.577214184   0   0   0 # h*
   2463      1   2  0.410000    34.385462693     0.405863605    22.636843615   0   1   0 # h*
   2464      1   1 -0.820000    27.419140363    16.699175732     2.093263732   0   0   0 # o*
   2465      1   2  0.410000    26.840295184    15.976079567     2.280293752   0   0   0 # h*
   2466      1   2  0.410000    28.314331738    16.287190154     2.179307396   0   0   0 # h*
   2467      1   1 -0.820000    15.131267331    14.814563418     2.885203186   0   0   0 # o*
   2468      1   2  0.410000    15.697453272    15.601828257     2.980526998   0   0   0 # h*
   2469      1   2  0.410000    14.215272516    15.185301578     2.950375462   0   0   0 # h*
   2470      1   1 -0.820000    44.133130529    17.903838917    12.401138148   0   0   0 # o*
   2471      1   2  0.410000    44.551511567    18.332343652    11.634981523   0   0   0 # h*
   2472      1   2  0.410000    44.026465977    18.752429266    12.917684697   0   0   0 # h*
   2473      1   1 -0.820000    22.105208801    19.997800306    20.516032516   0   0   0 # o*
   2474      1   2  0.410000    21.213498029    19.731019038    20.308081849   0   0   0 # h*
   2475      1   2  0.410000    22.415564609    19.053447059    20.694814291   0   0   0 # h*
   2476      1   1 -0.820000    17.854170036    21.522282902    25.895878503   0   0   0 # o*
   2477      1   2  0.410000    18.692903215    21.223016053    26.316731087   0   0   0 # h*
   2478      1   2  0.410000    18.099369964    21.237485781    24.975662138   0   0   0 # h*
   2479      1   1 -0.820000    31.621113989     6.659879305    18.366175890   0   0   0 # o*
   2480      1   2  0.410000    30.937535572     6.085417706    18.793238316   0   0   0 # h*
   2481      1   2  0.410000    32.385588248     6.054206569    18.259163171   0   0   0 # h*
   2482      1   1 -0.820000    26.667087323     7.978770321    23.021816038   0   0   0 # o*
   2483      1   2  0.410000    25.765905872     7.854751492    23.339384935   0   0   0 # h*
   2484      1   2  0.410000    27.089291473     7.254882445    23.635434946   0   0   0 # h*
   2485      1   1 -0.820000    19.025932004     5.846088253     7.316925354   0   0   0 # o*
   2486      1   2  0.410000    19.603397493     5.667723567     8.088020905   0   0   0 # h*
   2487      1   2  0.410000    18.167345629     6.050005911     7.652189261   0   0   0 # h*
   2488      1   1 -0.820000    28.452822696     7.814857038     5.130061671   0   0   0 # o*
   2489      1   2  0.410000    28.028540866     6.923600422     4.786376871   0   0   0 # h*
   2490      1   2  0.410000    29.166023591     7.398865542     5.650735042   0   0   0 # h*
   2491      1   1 -0.820000     6.403871213    10.699032794     7.639765786   0   0   0 # o*
   2492      1   2  0.410000     5.728054788    10.218270584     7.128170899   0   0   0 # h*
   2493      1   2  0.410000     6.324198211    11.637982725     7.240815408   0   0   0 # h*
   2494      1   1 -0.820000    43.545568709    16.549137727     3.446308000   0   0   0 # o*
   2495      1   2  0.410000    44.128085841    16.644682041     2.652700752   0   0   0 # h*
   2496      1   2  0.410000    42.705331919    16.890483769     3.075351133   0   0   0 # h*
   2497      1   1 -0.820000     7.299291604    20.616680377    22.560849568   0  -1   0 # o*
   2498      1   2  0.410000     7.997406014    20.434673823    21.923450636   0  -1   0 # h*
   2499      1   2  0.410000     6.772703418    19.763550393    22.507878256   0  -1   0 # h*
   2500      1   1 -0.820000    10.530655458     3.210746056    23.123513764   0   0   0 # o*
   2501      1   2  0.410000     9.716045967     3.695580973    23.107857366   0   0   0 # h*
   2502      1   2  0.410000    10.657244973     2.991370875    24.057365265   0   0   0 # h*
   2503      1   1 -0.820000    41.658265363    10.293476955     9.940631106   0   0   0 # o*
   2504      1   2  0.410000    41.475707393    10.108795617     8.974891296   0   0   0 # h*
   2505      1   2  0.410000    40.920636922    10.900200192    10.114068824   0   0   0 # h*
   2506      1   1 -0.820000    23.510729648    10.839754206     7.765684883   0   0   0 # o*
   2507      1   2  0.410000    22.920063752    10.925751805     6.967691364   0   0   0 # h*
   2508      1   2  0.410000    24.281262992    11.414674342     7.562442517   0   0   0 # h*
   2509      1   1 -0.820000    30.560005889    16.740135606    15.054705741   0   0   0 # o*
   2510      1   2  0.410000    30.271554028    17.638004834    15.188869178   0   0   0 # h*
   2511      1   2  0.410000    31.050394161    16.773989800    14.174351531   0   0   0 # h*
   2512      1   1 -0.820000    40.002396094     7.438858780    17.013207150   0   0   0 # o*
   2513      1   2  0.410000    40.938823099     7.784340259    16.964743672   0   0   0 # h*
   2514      1   2  0.410000    40.191680132     6.568087640    16.594707226   0   0   0 # h*
   2515      1   1 -0.820000    39.099877133     3.897435794    23.182452622   0   0   0 # o*
   2516      1   2  0.410000    38.835458325     3.214568289    23.870213813   0   0   0 # h*
   2517      1   2  0.410000    39.481022865     3.314922591    22.430529471   0   0   0 # h*
   2518      1   1 -0.820000    33.610047959    22.126507999    11.875623362   0  -1   0 # o*
   2519      1   2  0.410000    34.265154995     0.417645220    11.432494676   0   0   0 # h*
   2520      1   2  0.410000    33.234196904    21.611654131    11.110167423   0  -1   0 # h*
   2521      1   1 -0.820000    15.728608320     7.255086306    19.494368699   0   0   0 # o*
   2522      1   2  0.410000    15.174459589     6.512056950    19.202662847   0   0   0 # h*
   2523      1   2  0.410000    15.515717580     7.947190197    18.717591842   0   0   0 # h*
   2524      1   1 -0.820000    16.831208148     5.263154551    22.502892773   0   0   0 # o*
   2525      1   2  0.410000    16.813911714     4.312860256    22.314136998   0   0   0 # h*
   2526      1   2  0.410000    15.849313624     5.535717723    22.422542505   0   0   0 # h*
   2527      1   1 -0.820000    16.994335533    15.273501056    23.153365625   0   0   0 # o*
   2528      1   2  0.410000    16.498341647    14.750386314    23.762131102   0   0   0 # h*
   2529      1   2  0.410000    16.384770623    15.387795217    22.366149544   0   0   0 # h*
   2530      1   1 -0.820000    15.401681805    13.748408281    28.116080496   0   0   0 # o*
   2531      1   2  0.410000    15.195100969    14.301336597     0.875621501   0   0   1 # h*
   2532      1   2  0.410000    16.344471955    13.923899958    28.026876242   0   0   0 # h*
   2533      1   1 -0.820000    31.264328197    13.040354845     2.268155790   0   0   0 # o*
   2534      1   2  0.410000    30.943784579    13.938557897     2.286530918   0   0   0 # h*
   2535      1   2  0.410000    30.487873296    12.578185757     1.839287843   0   0   0 # h*
   2536      1   1 -0.820000    18.443739404    20.725880041    22.892853734   0   0   0 # o*
   2537      1   2  0.410000    18.514931132    19.966822016    22.255193261   0   0   0 # h*
   2538      1   2  0.410000    18.035305739    21.441979841    22.310583113   0   0   0 # h*
   2539      1   1 -0.820000    21.576036293    19.761850750    27.330256522   0   0   0 # o*
   2540      1   2  0.410000    21.882712411    19.847714986    28.283591799   0   0   0 # h*
   2541      1   2  0.410000    21.308963750    20.688762077    27.242809845   0   0   0 # h*
   2542      1   1 -0.820000    47.142881888    14.162362129     2.089109937  -1   0   0 # o*
   2543      1   2  0.410000    47.924029119    13.588053836     1.827137167  -1   0   0 # h*
   2544      1   2  0.410000    46.448491417    13.684181470     1.564242331  -1   0   0 # h*
   2545      1   1 -0.820000    34.780962390     4.559463365    27.539216954   0   0  -1 # o*
   2546      1   2  0.410000    34.293940821     3.934478363    26.990543886   0   0  -1 # h*
   2547      1   2  0.410000    34.159050024     4.627351979    28.264467685   0   0  -1 # h*
   2548      1   1 -0.820000    11.123761141     3.207178843    25.933843724   0   0  -1 # o*
   2549      1   2  0.410000    11.829399987     3.811579029    25.587146944   0   0  -1 # h*
   2550      1   2  0.410000    11.586850206     2.815962949    26.662047360   0   0  -1 # h*
   2551      1   1 -0.820000    33.808632682    21.864308409    14.607018537   0  -1   0 # o*
   2552      1   2  0.410000    34.610855869    22.397183443    14.612213017   0  -1   0 # h*
   2553      1   2  0.410000    33.760140760    21.735159235    13.574892004   0  -1   0 # h*
   2554      1   1 -0.820000    17.806071705    13.469874042    12.675027250   0   0   0 # o*
   2555      1   2  0.410000    17.478044103    12.597516138    12.968131304   0   0   0 # h*
   2556      1   2  0.410000    17.675847068    13.353967073    11.702788226   0   0   0 # h*
   2557      1   1 -0.820000    48.101811267     6.901786773    16.447458633   0   0   0 # o*
   2558      1   2  0.410000     0.306394988     6.770951349    15.502592169   1   0   0 # h*
   2559      1   2  0.410000     0.247442684     7.859392339    16.418070805   1   0   0 # h*
   2560      1   1 -0.820000    27.480496348    16.606257479     5.576070654   0   0   0 # o*
   2561      1   2  0.410000    26.581307506    16.345232055     5.851920923   0   0   0 # h*
   2562      1   2  0.410000    27.242334923    17.017859493     4.743418541   0   0   0 # h*
   2563      1   1 -0.820000    39.449650520    17.002359095    20.045421575   0   0   0 # o*
   2564      1   2  0.410000    40.326741964    16.741573622    19.809452964   0   0   0 # h*
   2565      1   2  0.410000    38.959172941    16.163059147    20.232919049   0   0   0 # h*
   2566      1   1 -0.820000    39.647248162    19.554941328    25.218523614   0   0   0 # o*
   2567      1   2  0.410000    38.769228402    20.030181117    25.250963923   0   0   0 # h*
   2568      1   2  0.410000    39.266483633    18.666298233    25.295184236   0   0   0 # h*
   2569      1   1 -0.820000     8.312175310     4.866399521    12.487739296   0   0   0 # o*
   2570      1   2  0.410000     7.629720628     4.389003604    12.054161722   0   0   0 # h*
   2571      1   2  0.410000     9.055713323     4.450754317    12.025777473   0   0   0 # h*
   2572      1   1 -0.820000     8.102301047     2.500322172    10.141598164   0   0   0 # o*
   2573      1   2  0.410000     8.913307089     1.958101015    10.231333104   0   0   0 # h*
   2574      1   2  0.410000     8.188988201     3.186336062     9.474518268   0   0   0 # h*
   2575      1   1 -0.820000    25.123536016    13.275727116    21.255001184   0   0   0 # o*
   2576      1   2  0.410000    25.441893846    12.651765923    21.986707950   0   0   0 # h*
   2577      1   2  0.410000    24.235802705    13.587310461    21.544018415   0   0   0 # h*
   2578      1   1 -0.820000    27.719433332    13.960541412     0.686250230   0   0   1 # o*
   2579      1   2  0.410000    28.652232626    14.027046306     0.414574173   0   0   1 # h*
   2580      1   2  0.410000    27.282350095    13.619524756    27.836301316   0   0   0 # h*
   2581      1   1 -0.820000    32.660267700    16.344605699    12.803290905   0   0   0 # o*
   2582      1   2  0.410000    32.126545433    17.028044168    12.447304288   0   0   0 # h*
   2583      1   2  0.410000    33.042293048    15.987736377    11.966051544   0   0   0 # h*
   2584      1   1 -0.820000    10.789998736    15.943464612    15.412056187   0   0   0 # o*
   2585      1   2  0.410000    10.202718608    16.733376889    15.558779793   0   0   0 # h*
   2586      1   2  0.410000    11.429236950    15.960966506    16.189048155   0   0   0 # h*
   2587      1   1 -0.820000    43.523069900    12.185087405    11.119738386   0   0   0 # o*
   2588      1   2  0.410000    43.835700192    12.350347838    10.208902666   0   0   0 # h*
   2589      1   2  0.410000    42.801120650    11.584165081    10.947836538   0   0   0 # h*
   2590      1   1 -0.820000    22.331234134    19.836779109    12.126027706   0   0   0 # o*
   2591      1   2  0.410000    21.358475439    19.851984136    12.142271213   0   0   0 # h*
   2592      1   2  0.410000    22.522047650    20.421207021    12.937372374   0   0   0 # h*
   2593      1   1 -0.820000    15.368719035    15.195532772    14.352786541   0   0   0 # o*
   2594      1   2  0.410000    14.520630126    14.673221060    14.451994469   0   0   0 # h*
   2595      1   2  0.410000    15.436951137    15.294367894    13.334969412   0   0   0 # h*
   2596      1   1 -0.820000     1.202663123    11.388882927    22.175179285   1   0   0 # o*
   2597      1   2  0.410000     0.218927255    11.448083951    22.385041156   1   0   0 # h*
   2598      1   2  0.410000     1.532519173    11.291771756    23.116080090   1   0   0 # h*
   2599      1   1 -0.820000     2.003584622     8.562373518    27.168639053   1   0   0 # o*
   2600      1   2  0.410000     2.899534273     8.159656883    27.218996859   1   0   0 # h*
   2601      1   2  0.410000     1.584220797     7.828325024    26.623040504   1   0   0 # h*
   2602      1   1 -0.820000     8.326530951     6.483019727     6.934295113   0   0   0 # o*
   2603      1   2  0.410000     7.445113359     6.119518922     6.967737483   0   0   0 # h*
   2604      1   2  0.410000     8.610861923     5.920779685     6.181453341   0   0   0 # h*
   2605      1   1 -0.820000    19.156055155     9.496287981     8.604464203   0   0   0 # o*
   2606      1   2  0.410000    18.769324912     9.699602302     7.747005132   0   0   0 # h*
   2607      1   2  0.410000    19.649052984    10.328209250     8.775257046   0   0   0 # h*
   2608      1   1 -0.820000    23.698842457    19.012439447     5.508990856   0   0   0 # o*
   2609      1   2  0.410000    22.862205789    18.675066515     5.198747462   0   0   0 # h*
   2610      1   2  0.410000    23.916844637    19.641452965     4.752512469   0   0   0 # h*
   2611      1   1 -0.820000    15.384548529    19.718049703     5.091293398   0   0   0 # o*
   2612      1   2  0.410000    16.280974792    20.089285194     5.283870050   0   0   0 # h*
   2613      1   2  0.410000    15.416467029    20.091526399     4.165163887   0   0   0 # h*
   2614      1   1 -0.820000    13.022181457    17.449833420     0.920420219   0   0   0 # o*
   2615      1   2  0.410000    12.649365073    16.743687668     1.511771581   0   0   0 # h*
   2616      1   2  0.410000    12.580966216    18.197878044     1.416000251   0   0   0 # h*
   2617      1   1 -0.820000    31.517391340     1.649752213     9.551085635   0   0   0 # o*
   2618      1   2  0.410000    30.551407305     1.656997289     9.741578192   0   0   0 # h*
   2619      1   2  0.410000    31.666088516     2.054100281     8.708645026   0   0   0 # h*
   2620      1   1 -0.820000    41.803039695    13.350688085    23.410561276   0   0   0 # o*
   2621      1   2  0.410000    41.986369620    12.808799915    22.625334343   0   0   0 # h*
   2622      1   2  0.410000    41.672587263    12.610810514    24.069948876   0   0   0 # h*
   2623      1   1 -0.820000     1.997557903    13.139728098     0.366364344   1   0   1 # o*
   2624      1   2  0.410000     1.711702817    14.017325254    27.968843354   1   0   0 # h*
   2625      1   2  0.410000     2.114654521    13.384523697     1.300975049   1   0   1 # h*
   2626      1   1 -0.820000    20.486187333     7.205284917    14.010809089   0   0   0 # o*
   2627      1   2  0.410000    20.090127719     6.647983746    14.723634711   0   0   0 # h*
   2628      1   2  0.410000    19.698630125     7.531859897    13.500702357   0   0   0 # h*
   2629      1   1 -0.820000    13.008363280    14.215926356    17.065320542   0   0   0 # o*
   2630      1   2  0.410000    13.982193634    14.353015951    17.372206994   0   0   0 # h*
   2631      1   2  0.410000    13.124117522    13.572594273    16.308485647   0   0   0 # h*
   2632      1   1 -0.820000    25.473608782     6.384118005    14.886809209   0   0   0 # o*
   2633      1   2  0.410000    25.203463947     7.327050746    15.065059421   0   0   0 # h*
   2634      1   2  0.410000    24.600305038     5.927465407    14.978244734   0   0   0 # h*
   2635      1   1 -0.820000     1.977385330    14.273931341    21.244953099   0   0   0 # o*
   2636      1   2  0.410000     1.740017434    14.339228339    22.258012967   0   0   0 # h*
   2637      1   2  0.410000     1.618259844    13.332275839    21.168348198   0   0   0 # h*
   2638      1   1 -0.820000     5.091431248    14.572445431    28.268922077   0   0   0 # o*
   2639      1   2  0.410000     5.013244950    15.450433019    27.805335387   0   0   0 # h*
   2640      1   2  0.410000     5.534985135    14.872731349     1.137644281   0   0   1 # h*
   2641      1   1 -0.820000    16.666835099    10.040426025    13.726582999   0   0   0 # o*
   2642      1   2  0.410000    15.773678589     9.706591132    13.918352693   0   0   0 # h*
   2643      1   2  0.410000    16.502905472    10.212968885    12.779344227   0   0   0 # h*
   2644      1   1 -0.820000    13.681692320    19.986018589     0.711990148   0   0   0 # o*
   2645      1   2  0.410000    14.273118411    20.479500174     1.321933668   0   0   0 # h*
   2646      1   2  0.410000    14.247570208    20.002118207    27.885618966   0   0  -1 # h*
   2647      1   1 -0.820000    30.926998154     8.729424882    20.073077643   0   0   0 # o*
   2648      1   2  0.410000    29.882126402     8.579737084    20.105592548   0   0   0 # h*
   2649      1   2  0.410000    31.127286916     8.209066238    19.298417427   0   0   0 # h*
   2650      1   1 -0.820000    28.810414363     6.816400160    24.049817880   0   0   0 # o*
   2651      1   2  0.410000    29.067039395     7.213311546    24.935754544   0   0   0 # h*
   2652      1   2  0.410000    29.657254239     6.535471880    23.688839773   0   0   0 # h*
   2653      1   1 -0.820000    31.796327292    19.844591079    18.917002807   0   0   0 # o*
   2654      1   2  0.410000    32.021543493    19.746227257    17.938985572   0   0   0 # h*
   2655      1   2  0.410000    31.021090727    20.501610237    18.907803276   0   0   0 # h*
   2656      1   1 -0.820000    34.076823439    18.763243159    22.667022319   0   0   0 # o*
   2657      1   2  0.410000    34.114427927    19.735887661    22.586614936   0   0   0 # h*
   2658      1   2  0.410000    34.825348614    18.593763868    22.066325520   0   0   0 # h*
   2659      1   1 -0.820000    38.636853176    10.412381669     4.780892154   0   0   0 # o*
   2660      1   2  0.410000    38.913873327    11.313467764     4.628115570   0   0   0 # h*
   2661      1   2  0.410000    37.641906242    10.562610400     4.968377155   0   0   0 # h*
   2662      1   1 -0.820000     0.614596962     4.646147429    11.358722807   0   0   0 # o*
   2663      1   2  0.410000    47.634551864     5.004332297    11.378993571  -1   0   0 # h*
   2664      1   2  0.410000     0.624427511     4.098605643    12.154023331   0   0   0 # h*
   2665      1   1 -0.820000     5.600666221     7.829939329    18.735326096   0   0   0 # o*
   2666      1   2  0.410000     5.713512664     6.953612222    18.284559880   0   0   0 # h*
   2667      1   2  0.410000     4.814815024     7.694058976    19.319423413   0   0   0 # h*
   2668      1   1 -0.820000     5.685808102     4.775696987    25.426904414   0   0   0 # o*
   2669      1   2  0.410000     5.309184948     5.513706014    25.957806892   0   0   0 # h*
   2670      1   2  0.410000     6.577674562     4.759232086    25.873263945   0   0   0 # h*
   2671      1   1 -0.820000    18.241387546    13.015682766     4.429402646   0   0   0 # o*
   2672      1   2  0.410000    17.615229188    12.683275098     3.764894272   0   0   0 # h*
   2673      1   2  0.410000    19.108549413    13.099128078     3.917535046   0   0   0 # h*
   2674      1   1 -0.820000    15.070528515    15.660462298    11.687537818   0   0   0 # o*
   2675      1   2  0.410000    14.271530240    15.487486076    11.162617669   0   0   0 # h*
   2676      1   2  0.410000    15.671743077    15.949304843    10.980208295   0   0   0 # h*
   2677      1   1 -0.820000     0.202251105     9.593081553     6.942790812   0   0   0 # o*
   2678      1   2  0.410000    47.537595790     9.043884662     7.403095754  -1   0   0 # h*
   2679      1   2  0.410000     0.953349489     8.975339408     6.828411979   0   0   0 # h*
   2680      1   1 -0.820000    28.058561180    13.516525506    12.242186648   0   0   0 # o*
   2681      1   2  0.410000    27.664171957    14.210848684    12.766811027   0   0   0 # h*
   2682      1   2  0.410000    27.223374461    13.229492344    11.785844387   0   0   0 # h*
   2683      1   1 -0.820000    28.252894486     7.266997633    14.576012875   0   0   0 # o*
   2684      1   2  0.410000    27.332982969     6.864305270    14.795298060   0   0   0 # h*
   2685      1   2  0.410000    28.056294147     8.212566863    14.622266608   0   0   0 # h*
   2686      1   1 -0.820000    32.384880234    11.625465803    10.205587768   0   0   0 # o*
   2687      1   2  0.410000    31.867383502    12.476099150    10.201851005   0   0   0 # h*
   2688      1   2  0.410000    33.256446482    12.001655800     9.954991873   0   0   0 # h*
   2689      1   1 -0.820000    26.946979174    21.052653014    17.475218064   0   0   0 # o*
   2690      1   2  0.410000    26.433756919    21.590888317    18.180470151   0   0   0 # h*
   2691      1   2  0.410000    26.690084714    21.545631106    16.694037165   0   0   0 # h*
   2692      1   1 -0.820000    24.426672340     1.638850857    27.306696334   0   1   0 # o*
   2693      1   2  0.410000    24.371883694     2.673479075    27.515785263   0   1   0 # h*
   2694      1   2  0.410000    23.678501557     1.447188320    27.926333395   0   1   0 # h*
   2695      1   1 -0.820000    19.604163713     7.610081678    10.747436405   0   0   0 # o*
   2696      1   2  0.410000    18.788309583     7.478538461    11.239510787   0   0   0 # h*
   2697      1   2  0.410000    19.214602853     8.164968364     9.947121937   0   0   0 # h*
   2698      1   1 -0.820000    13.914858213    12.146319648    20.033787046   0   0   0 # o*
   2699      1   2  0.410000    14.396782801    11.319481367    19.974426710   0   0   0 # h*
   2700      1   2  0.410000    13.698952223    12.394509572    19.097657876   0   0   0 # h*
   2701      1   1 -0.820000    12.697625101    10.716040877    24.213566008   0   0   0 # o*
   2702      1   2  0.410000    11.892062997    10.490864567    23.679750598   0   0   0 # h*
   2703      1   2  0.410000    12.799659375    11.683188740    24.097589497   0   0   0 # h*
   2704      1   1 -0.820000    46.594716562    14.344459291    20.599848902   0   0   0 # o*
   2705      1   2  0.410000    46.150638425    13.493318816    20.529240893   0   0   0 # h*
   2706      1   2  0.410000    47.297219552    14.074049377    21.200932655   0   0   0 # h*
   2707      1   1 -0.820000     1.006026406    15.464061603    26.990709918   1   0   0 # o*
   2708      1   2  0.410000     1.023127151    16.088379050    26.243592149   1   0   0 # h*
   2709      1   2  0.410000     0.302733424    14.861301677    26.657086130   1   0   0 # h*
   2710      1   1 -0.820000    29.713841592    15.866402825     7.597793787   0   0   0 # o*
   2711      1   2  0.410000    28.921346914    16.107795915     7.080318782   0   0   0 # h*
   2712      1   2  0.410000    29.940980009    16.793421459     7.940634573   0   0   0 # h*
   2713      1   1 -0.820000    15.813034014    17.013910121    19.929948597   0   0   0 # o*
   2714      1   2  0.410000    15.134519586    16.869193264    20.589685932   0   0   0 # h*
   2715      1   2  0.410000    15.788730396    16.067886624    19.565012747   0   0   0 # h*
   2716      1   1 -0.820000    15.112283548    17.017199805    26.990501011   0   0   0 # o*
   2717      1   2  0.410000    14.304887141    17.203425236    27.467931510   0   0   0 # h*
   2718      1   2  0.410000    15.560515490    17.913718289    27.074477369   0   0   0 # h*
   2719      1   1 -0.820000    43.063017748     3.163252031     7.382268119   0   0   0 # o*
   2720      1   2  0.410000    42.089049828     3.414514229     7.340615784   0   0   0 # h*
   2721      1   2  0.410000    43.340824594     4.010423861     7.847248800   0   0   0 # h*
   2722      1   1 -0.820000    39.717419782     4.704175619    18.679578206   0   0   0 # o*
   2723      1   2  0.410000    39.044630328     5.390438657    18.777595173   0   0   0 # h*
   2724      1   2  0.410000    39.617037306     4.231574517    19.525974278   0   0   0 # h*
   2725      1   1 -0.820000    40.621853681     2.712076781    20.769267979   0   0   0 # o*
   2726      1   2  0.410000    40.594355112     1.731410353    20.984612524   0   0   0 # h*
   2727      1   2  0.410000    41.147518205     2.528436918    19.942159744   0   0   0 # h*
   2728      1   1 -0.820000    39.627224935     0.910317431     8.033183107   0   0   0 # o*
   2729      1   2  0.410000    40.569401292     0.719219690     8.117912444   0   0   0 # h*
   2730      1   2  0.410000    39.504112958     1.428581359     8.879725289   0   0   0 # h*
   2731      1   1 -0.820000    40.767072814    21.735161877    11.588337028   0   0   0 # o*
   2732      1   2  0.410000    40.297074937     0.328729548    11.782127739   0   1   0 # h*
   2733      1   2  0.410000    39.946090395    21.113222888    11.687980533   0   0   0 # h*
   2734      1   1 -0.820000    45.825825633    10.636309596     9.752425641   0   0   0 # o*
   2735      1   2  0.410000    45.858495309    11.509989522     9.242066101   0   0   0 # h*
   2736      1   2  0.410000    44.883819243    10.738982276    10.079229322   0   0   0 # h*
   2737      1   1 -0.820000    40.118621564    19.144900923    22.185927245   0   0   0 # o*
   2738      1   2  0.410000    40.656219999    18.284909848    22.279669264   0   0   0 # h*
   2739      1   2  0.410000    39.515956535    18.927229459    22.895526709   0   0   0 # h*
   2740      1   1 -0.820000    40.593585960    18.368953859    28.239585781   0   0   0 # o*
   2741      1   2  0.410000    40.498042934    18.377418501    27.282709702   0   0   0 # h*
   2742      1   2  0.410000    41.167014006    17.503836902     0.367964416   0   0   1 # h*
   2743      1   1 -0.820000    44.199725179     9.347198173    27.419044543   0   0  -1 # o*
   2744      1   2  0.410000    44.017577154     9.081098238    28.309347672   0   0  -1 # h*
   2745      1   2  0.410000    44.831675456    10.099660844    27.531632250   0   0  -1 # h*
   2746      1   1 -0.820000    19.620212092    21.919466083    12.718394706   0   0   0 # o*
   2747      1   2  0.410000    18.795903389    21.674142070    13.268473706   0   0   0 # h*
   2748      1   2  0.410000    19.240600094    22.420372306    12.002438060   0   0   0 # h*
   2749      1   1 -0.820000    25.099257128     8.616952510     5.061539995   0   0   0 # o*
   2750      1   2  0.410000    24.398649676     8.060096375     5.441366019   0   0   0 # h*
   2751      1   2  0.410000    25.871425272     8.138706210     5.453548769   0   0   0 # h*
   2752      1   1 -0.820000    39.799896950    15.851338028    14.179099727   0   0   0 # o*
   2753      1   2  0.410000    39.007639368    16.483388831    13.993005979   0   0   0 # h*
   2754      1   2  0.410000    40.350187382    16.664762131    14.384158502   0   0   0 # h*
   2755      1   1 -0.820000    27.957865192     6.657332160     1.217316793   0   0   0 # o*
   2756      1   2  0.410000    28.522768004     6.668718585     1.963589887   0   0   0 # h*
   2757      1   2  0.410000    28.235233145     5.861951353     0.705550878   0   0   0 # h*
   2758      1   1 -0.820000    27.933914684     3.560636925    14.386786578   0   0   0 # o*
   2759      1   2  0.410000    28.714244404     3.943498275    13.894705161   0   0   0 # h*
   2760      1   2  0.410000    27.626660461     2.900367635    13.722187866   0   0   0 # h*
   2761      1   1 -0.820000    46.253923032     4.368787809    21.920232727   0   0   0 # o*
   2762      1   2  0.410000    45.306003813     4.214118790    21.554485939   0   0   0 # h*
   2763      1   2  0.410000    46.301719032     5.333758291    21.608210936   0   0   0 # h*
   2764      1   1 -0.820000    40.686054887     2.865205767     1.894758958   0   0   1 # o*
   2765      1   2  0.410000    40.738232329     1.997245333     2.421341408   0   0   1 # h*
   2766      1   2  0.410000    41.190515270     3.445322606     2.576585754   0   0   1 # h*
   2767      1   1 -0.820000     5.553291725    18.848716387    12.566214519   0   0   0 # o*
   2768      1   2  0.410000     5.802306742    17.992661493    13.002250348   0   0   0 # h*
   2769      1   2  0.410000     6.096083344    19.361054174    13.225519270   0   0   0 # h*
   2770      1   1 -0.820000    39.926399880    15.847018733     4.875359212   0   0   0 # o*
   2771      1   2  0.410000    40.284469608    16.498202207     4.209075642   0   0   0 # h*
   2772      1   2  0.410000    39.147961504    16.439424270     5.211738319   0   0   0 # h*
   2773      1   1 -0.820000     2.373828081    22.325040143    14.571847566   0   0   0 # o*
   2774      1   2  0.410000     3.051311960     0.609647024    14.146018090   0   1   0 # h*
   2775      1   2  0.410000     2.916149753    21.523401955    14.892459110   0   0   0 # h*
   2776      1   1 -0.820000    14.593194769    21.913204497    12.270606990   0   0   0 # o*
   2777      1   2  0.410000    14.208534306    21.693477873    11.406420414   0   0   0 # h*
   2778      1   2  0.410000    14.157917795    21.146566276    12.752321690   0   0   0 # h*
   2779      1   1 -0.820000     3.813895620    22.095372910     3.330333447   0  -1   0 # o*
   2780      1   2  0.410000     3.326889612    21.289831205     3.029472553   0  -1   0 # h*
   2781      1   2  0.410000     4.306543278    22.295700537     2.520723911   0  -1   0 # h*
   2782      1   1 -0.820000    20.432905531    18.381377495    15.746255665   0   0   0 # o*
   2783      1   2  0.410000    20.076272937    17.710443597    15.062447193   0   0   0 # h*
   2784      1   2  0.410000    19.879905595    19.171111883    15.488079455   0   0   0 # h*
   2785      1   1 -0.820000    37.357060425     8.149755502    15.711481340   0   0   0 # o*
   2786      1   2  0.410000    37.394694344     9.099648802    15.705465164   0   0   0 # h*
   2787      1   2  0.410000    38.138312507     8.018995253    16.338608629   0   0   0 # h*
   2788      1   1 -0.820000    45.852325769    19.813818997    10.555959174   0   0   0 # o*
   2789      1   2  0.410000    46.051743534    18.876042586    10.664855908   0   0   0 # h*
   2790      1   2  0.410000    45.174283352    19.904090011     9.813400960   0   0   0 # h*
   2791      1   1 -0.820000     2.055904189    17.590715686    15.507284456   1   0   0 # o*
   2792      1   2  0.410000     2.794419619    16.974300560    15.719982529   1   0   0 # h*
   2793      1   2  0.410000     1.502712541    16.858162326    15.104768358   1   0   0 # h*
   2794      1   1 -0.820000    20.977530920     6.861823519     5.490921024   0   0   0 # o*
   2795      1   2  0.410000    20.329804432     6.542146326     6.203304862   0   0   0 # h*
   2796      1   2  0.410000    21.543632029     7.518952251     5.977860950   0   0   0 # h*
   2797      1   1 -0.820000    16.312364831     3.254759741     9.946790064   0   0   0 # o*
   2798      1   2  0.410000    16.204068040     4.199221457     9.759733031   0   0   0 # h*
   2799      1   2  0.410000    16.721280183     2.922702610     9.093572917   0   0   0 # h*
   2800      1   1 -0.820000     5.340997505     2.164311771    15.439864945   0   0   0 # o*
   2801      1   2  0.410000     4.884217640     2.229386653    14.575342416   0   0   0 # h*
   2802      1   2  0.410000     6.296803284     2.223959779    15.152917230   0   0   0 # h*
   2803      1   1 -0.820000     7.881205044     6.187713335    20.401532716   0   0   0 # o*
   2804      1   2  0.410000     7.575326379     6.894965565    21.020640710   0   0   0 # h*
   2805      1   2  0.410000     7.044787375     5.685674782    20.243832391   0   0   0 # h*
   2806      1   1 -0.820000    10.489987766     5.710082681     0.743535898   0   0   1 # o*
   2807      1   2  0.410000    10.777534728     5.538160579     1.671149037   0   0   1 # h*
   2808      1   2  0.410000    10.798497279     4.860419658    28.257604524   0   0   0 # h*
   2809      1   1 -0.820000     2.920662287    20.073182215    22.994258040   0   0   0 # o*
   2810      1   2  0.410000     3.359862520    20.958927757    22.923414248   0   0   0 # h*
   2811      1   2  0.410000     2.967764695    19.832809593    22.059013869   0   0   0 # h*
   2812      1   1 -0.820000     4.784951929    19.656701178    27.760403554   0   0   0 # o*
   2813      1   2  0.410000     5.293227558    20.169858125     0.456657744   0   0   1 # h*
   2814      1   2  0.410000     4.829973507    20.188903357    26.931125010   0   0   0 # h*
   2815      1   1 -0.820000    45.393106116    11.783447384    19.937832093   0   0   0 # o*
   2816      1   2  0.410000    45.472508562    10.784654278    20.139665576   0   0   0 # h*
   2817      1   2  0.410000    44.392007657    11.698563407    19.681254124   0   0   0 # h*
   2818      1   1 -0.820000    44.295874494     9.889760222    24.740075429   0   0   0 # o*
   2819      1   2  0.410000    44.253131769     9.851240966    25.658754795   0   0   0 # h*
   2820      1   2  0.410000    43.924657465     9.008307634    24.525464831   0   0   0 # h*
   2821      1   1 -0.820000    39.968998349    16.840854705     8.660967824   0   0   0 # o*
   2822      1   2  0.410000    39.216391598    16.971827752     9.251366683   0   0   0 # h*
   2823      1   2  0.410000    39.500368912    17.216652885     7.906245320   0   0   0 # h*
   2824      1   1 -0.820000    12.801958589     1.076044941    16.492596692   0   0   0 # o*
   2825      1   2  0.410000    13.491870432     0.507551435    16.126613991   0   0   0 # h*
   2826      1   2  0.410000    12.468531777     0.591160012    17.264893748   0   0   0 # h*
   2827      1   1 -0.820000    43.780512447    19.927175266    22.443155464   0   0   0 # o*
   2828      1   2  0.410000    44.695115055    19.646242663    22.387820482   0   0   0 # h*
   2829      1   2  0.410000    43.410213264    19.763953092    21.566154680   0   0   0 # h*
   2830      1   1 -0.820000    44.566076215    20.329370345    26.709020118   0   0   0 # o*
   2831      1   2  0.410000    43.794249698    20.107425255    26.161085411   0   0   0 # h*
   2832      1   2  0.410000    45.137310829    19.535009184    26.597570706   0   0   0 # h*
   2833      1   1 -0.820000    12.486678399     4.626452392     2.764731408   0   0   0 # o*
   2834      1   2  0.410000    12.779399970     5.530356459     2.583909124   0   0   0 # h*
   2835      1   2  0.410000    13.002972270     4.414941847     3.600152145   0   0   0 # h*
   2836      1   1 -0.820000    42.092133364     7.827439492    13.583030091   0   0   0 # o*
   2837      1   2  0.410000    42.079711016     7.380259466    14.438839530   0   0   0 # h*
   2838      1   2  0.410000    41.884200192     8.756383328    13.766110992   0   0   0 # h*
   2839      1   1 -0.820000     4.368521933    20.300791306    17.655748815   0  -1   0 # o*
   2840      1   2  0.410000     4.684639884    21.101344761    18.157352610   0  -1   0 # h*
   2841      1   2  0.410000     4.999560326    19.549614330    17.818942690   0  -1   0 # h*
   2842      1   1 -0.820000     1.044668118    21.584303313    24.783877713   0  -1   0 # o*
   2843      1   2  0.410000     1.826880283    20.987718749    24.760575000   0  -1   0 # h*
   2844      1   2  0.410000     1.248571791    22.200020099    24.043370710   0  -1   0 # h*
   2845      1   1 -0.820000    47.987014905     0.959161062    15.572214805  -1   0   0 # o*
   2846      1   2  0.410000     0.457818888     0.347078958    14.933846151   0   0   0 # h*
   2847      1   2  0.410000    47.096828586     0.821394064    15.118359911  -1   0   0 # h*
   2848      1   1 -0.820000    43.309037563     3.957296469    20.792693589   0   0   0 # o*
   2849      1   2  0.410000    42.494002368     3.805748531    21.242907561   0   0   0 # h*
   2850      1   2  0.410000    43.425068431     4.924042441    20.878343859   0   0   0 # h*
   2851      1   1 -0.820000    38.991841184     1.882593698    25.407564207   0   0   0 # o*
   2852      1   2  0.410000    38.111236007     1.471972716    25.516611292   0   0   0 # h*
   2853      1   2  0.410000    39.520902466     1.093083667    25.443902351   0   0   0 # h*
   2854      1   1 -0.820000    16.564134597     8.550304049     3.877643000   0   0   0 # o*
   2855      1   2  0.410000    15.749559026     8.548052055     3.270212261   0   0   0 # h*
   2856      1   2  0.410000    17.339953513     8.609473066     3.345901825   0   0   0 # h*
   2857      1   1 -0.820000     4.815515012    18.997213182     5.279361303   0   0   0 # o*
   2858      1   2  0.410000     4.199179607    18.861410146     4.559919780   0   0   0 # h*
   2859      1   2  0.410000     4.287081684    18.821579716     6.046856665   0   0   0 # h*
   2860      1   1 -0.820000    15.348313733     7.627982453    27.239409735   0   0   0 # o*
   2861      1   2  0.410000    15.420718707     7.193473828    26.338789869   0   0   0 # h*
   2862      1   2  0.410000    15.254332151     8.551565203    26.943818726   0   0   0 # h*
   2863      1   1 -0.820000    23.389742499    16.882032454     3.164681876   0   0   0 # o*
   2864      1   2  0.410000    24.211541117    16.475758699     3.518637678   0   0   0 # h*
   2865      1   2  0.410000    23.085871664    16.049275637     2.648219060   0   0   0 # h*
   2866      1   1 -0.820000    33.186550586    15.559164810     9.926936999   0   0   0 # o*
   2867      1   2  0.410000    32.375257320    15.057044092     9.588451738   0   0   0 # h*
   2868      1   2  0.410000    33.492645110    15.903024588     9.052836445   0   0   0 # h*
   2869      1   1 -0.820000    25.301199489     2.863435837    19.553826792   0   0   0 # o*
   2870      1   2  0.410000    25.899928855     3.083432801    18.831074936   0   0   0 # h*
   2871      1   2  0.410000    25.753057816     1.972731551    19.795901947   0   0   0 # h*
   2872      1   1 -0.820000    26.079231475     5.315291430    20.847088309   0   0   0 # o*
   2873      1   2  0.410000    25.889761884     4.495453289    20.393817180   0   0   0 # h*
   2874      1   2  0.410000    26.604078974     5.007050833    21.596293258   0   0   0 # h*
   2875      1   1 -0.820000    12.354778611    11.217444178     2.321381580   0   0   0 # o*
   2876      1   2  0.410000    12.811257298    11.603230198     3.156263277   0   0   0 # h*
   2877      1   2  0.410000    11.705924422    10.615035758     2.802530589   0   0   0 # h*
   2878      1   1 -0.820000    22.736244869     1.443238479     9.508112168   0   0   0 # o*
   2879      1   2  0.410000    23.426391085     0.736580908     9.523905972   0   0   0 # h*
   2880      1   2  0.410000    22.468573944     1.455845601    10.463918960   0   0   0 # h*
   2881      1   1 -0.820000    33.732947189     4.339826628     2.256456569   0   0   0 # o*
   2882      1   2  0.410000    33.975222563     5.171875720     2.622014911   0   0   0 # h*
   2883      1   2  0.410000    34.156170988     3.678961989     2.780218726   0   0   0 # h*
   2884      1   1 -0.820000    48.002027123     6.423990368     6.228706629  -1   0   0 # o*
   2885      1   2  0.410000    47.755029029     6.420176704     5.263805396  -1   0   0 # h*
   2886      1   2  0.410000     0.939707616     6.162175554     6.150268079   0   0   0 # h*
   2887      1   1 -0.820000    31.369206281     3.024523481     7.149321624   0   0   0 # o*
   2888      1   2  0.410000    31.974618601     3.853785743     6.944860628   0   0   0 # h*
   2889      1   2  0.410000    30.502024393     3.403426039     7.391193824   0   0   0 # h*
   2890      1   1 -0.820000    10.879866287    12.413871107    13.555376029   0   0   0 # o*
   2891      1   2  0.410000    10.548451824    13.263757002    13.190303569   0   0   0 # h*
   2892      1   2  0.410000    10.096931037    11.888552299    13.289121013   0   0   0 # h*
   2893      1   1 -0.820000    14.384127935    14.761162554    21.577283692   0   0   0 # o*
   2894      1   2  0.410000    14.174126333    14.294838499    22.429005927   0   0   0 # h*
   2895      1   2  0.410000    14.206873062    13.973257272    20.944954454   0   0   0 # h*
   2896      1   1 -0.820000    24.996467679    14.691582916    10.959440988   0   0   0 # o*
   2897      1   2  0.410000    25.093395447    15.421124541    11.575816105   0   0   0 # h*
   2898      1   2  0.410000    24.309631789    14.964356251    10.302585060   0   0   0 # h*
   2899      1   1 -0.820000     6.149862635    17.206981075    16.004954520   0   0   0 # o*
   2900      1   2  0.410000     5.564202324    16.875768186    16.774636315   0   0   0 # h*
   2901      1   2  0.410000     5.807320999    16.863415742    15.153012322   0   0   0 # h*
   2902      1   1 -0.820000    12.800035849    13.651564182    11.338820439   0   0   0 # o*
   2903      1   2  0.410000    13.065632246    14.285243056    12.060055228   0   0   0 # h*
   2904      1   2  0.410000    11.852419251    13.878936728    11.306558802   0   0   0 # h*
   2905      1   1 -0.820000    21.328388126    17.008827357     6.063899295   0   0   0 # o*
   2906      1   2  0.410000    21.072773061    16.700861815     6.942218844   0   0   0 # h*
   2907      1   2  0.410000    20.651539138    16.497458752     5.580802966   0   0   0 # h*
   2908      1   1 -0.820000    41.973354730    13.818860170    15.106964516   0   0   0 # o*
   2909      1   2  0.410000    41.535628681    13.770668754    14.255617444   0   0   0 # h*
   2910      1   2  0.410000    42.859648367    13.406530351    14.789104104   0   0   0 # h*
   2911      1   1 -0.820000    39.777550326     2.952278267    10.025380250   0   0   0 # o*
   2912      1   2  0.410000    39.370962869     3.367274028    10.809492952   0   0   0 # h*
   2913      1   2  0.410000    40.740780163     3.384885550    10.030173607   0   0   0 # h*
   2914      1   1 -0.820000    29.576701773     5.911930551    20.242079050   0   0   0 # o*
   2915      1   2  0.410000    29.364426811     5.340011588    21.039573955   0   0   0 # h*
   2916      1   2  0.410000    29.196567040     6.733246975    20.488196629   0   0   0 # h*
   2917      1   1 -0.820000    42.217887491     2.699341358    12.108013214   0   0   0 # o*
   2918      1   2  0.410000    42.761420906     3.509868380    12.016809260   0   0   0 # h*
   2919      1   2  0.410000    41.375084021     3.092169783    12.477535777   0   0   0 # h*
   2920      1   1 -0.820000    15.458422322    10.954253397     7.322638678   0   0   0 # o*
   2921      1   2  0.410000    14.641540375    11.372831897     7.637737976   0   0   0 # h*
   2922      1   2  0.410000    15.395512558    11.058775551     6.362844317   0   0   0 # h*
   2923      1   1 -0.820000     2.871138531    10.700643383     8.011759451   0   0   0 # o*
   2924      1   2  0.410000     3.095529244    10.059667641     8.697911545   0   0   0 # h*
   2925      1   2  0.410000     1.864332514    10.716406925     8.177874844   0   0   0 # h*
   2926      1   1 -0.820000     7.971738145    18.456586455     5.455641452   0   0   0 # o*
   2927      1   2  0.410000     7.129500356    18.983701164     5.615742409   0   0   0 # h*
   2928      1   2  0.410000     8.550101548    19.069152023     6.020162691   0   0   0 # h*
   2929      1   1 -0.820000    24.878795641     2.894119106     3.548612515   0   0   0 # o*
   2930      1   2  0.410000    23.959886651     2.664887216     3.325633863   0   0   0 # h*
   2931      1   2  0.410000    24.887719341     2.727859771     4.521965092   0   0   0 # h*
   2932      1   1 -0.820000     8.877388186    11.523919416     5.410527527   0   0   0 # o*
   2933      1   2  0.410000     9.231743400    12.285825794     5.926573772   0   0   0 # h*
   2934      1   2  0.410000     8.149329811    11.236170432     6.021574064   0   0   0 # h*
   2935      1   1 -0.820000    36.248406120    10.317331824    19.942980727   0   0   0 # o*
   2936      1   2  0.410000    36.377054881     9.313334519    20.297909723   0   0   0 # h*
   2937      1   2  0.410000    35.248114578    10.337972529    20.106106731   0   0   0 # h*
   2938      1   1 -0.820000    35.073710010    13.014357256    20.883830161   0   0   0 # o*
   2939      1   2  0.410000    34.156863468    13.312342730    20.577580610   0   0   0 # h*
   2940      1   2  0.410000    35.094123592    12.052495214    20.639682507   0   0   0 # h*
   2941      1   1 -0.820000    39.628525811     1.192766905    14.463505347   0   1   0 # o*
   2942      1   2  0.410000    40.329567609     0.477608638    14.656202443   0   1   0 # h*
   2943      1   2  0.410000    40.159953315     2.041829426    14.600757874   0   1   0 # h*
   2944      1   1 -0.820000     3.668326022    19.819095070    14.928601667   0   0   0 # o*
   2945      1   2  0.410000     3.223712148    18.981026334    14.779178473   0   0   0 # h*
   2946      1   2  0.410000     3.922060330    19.682098358    15.849025632   0   0   0 # h*
   2947      1   1 -0.820000     2.668372038    19.930067769    20.384808382   0   0   0 # o*
   2948      1   2  0.410000     3.127797506    20.756780241    20.104777530   0   0   0 # h*
   2949      1   2  0.410000     2.706872515    19.457568583    19.531389526   0   0   0 # h*
   2950      1   1 -0.820000    19.074536393    12.896105192     7.139655507   0   0   0 # o*
   2951      1   2  0.410000    19.793380221    13.480168940     7.297130570   0   0   0 # h*
   2952      1   2  0.410000    18.665320871    13.126896560     6.270413521   0   0   0 # h*
   2953      1   1 -0.820000    37.546073578    21.528929919    14.468857783   0   0   0 # o*
   2954      1   2  0.410000    38.158962461    22.248909396    14.239975514   0   0   0 # h*
   2955      1   2  0.410000    38.129901114    21.095888906    15.120289367   0   0   0 # h*
   2956      1   1 -0.820000     8.613552488    15.301935877    17.501235147   0   0   0 # o*
   2957      1   2  0.410000     8.871746017    16.202327648    17.284706153   0   0   0 # h*
   2958      1   2  0.410000     9.095698618    15.258634115    18.397477073   0   0   0 # h*
   2959      1   1 -0.820000    12.702160657    13.479629254    23.688291090   0   0   0 # o*
   2960      1   2  0.410000    13.349362580    14.074229061    24.168021865   0   0   0 # h*
   2961      1   2  0.410000    11.935889029    13.901603054    24.091329056   0   0   0 # h*
   2962      1   1 -0.820000    43.825596889    20.804267585    13.203325299   0   0   0 # o*
   2963      1   2  0.410000    42.898789202    21.190463838    13.166432479   0   0   0 # h*
   2964      1   2  0.410000    44.146485575    21.320495827    12.403042182   0   0   0 # h*
   2965      1   1 -0.820000    43.877867878     0.604029037     2.352376368   0   0   0 # o*
   2966      1   2  0.410000    44.564716452    22.195710840     2.492524421   0  -1   0 # h*
   2967      1   2  0.410000    44.238643906     1.455389194     2.651832733   0   0   0 # h*
   2968      1   1 -0.820000    47.394512317    21.887476723    12.456487587  -1  -1   0 # o*
   2969      1   2  0.410000    46.819737689    21.207692091    12.948238404  -1  -1   0 # h*
   2970      1   2  0.410000    46.695410681    22.461436714    12.168948537  -1  -1   0 # h*
   2971      1   1 -0.820000    45.887585896     1.584820463     8.901681644  -1   0   0 # o*
   2972      1   2  0.410000    46.394571224     1.239814833     8.145833062  -1   0   0 # h*
   2973      1   2  0.410000    45.405683712     0.838597754     9.346570146  -1   0   0 # h*
   2974      1   1 -0.820000    33.119085762    15.786786765     6.994208153   0   0   0 # o*
   2975      1   2  0.410000    33.384770647    15.935828257     6.100125941   0   0   0 # h*
   2976      1   2  0.410000    32.405388122    15.166938181     6.777223356   0   0   0 # h*
   2977      1   1 -0.820000    27.010290185    19.617982252     1.888819737   0   0   0 # o*
   2978      1   2  0.410000    27.240726404    18.688854894     2.003583847   0   0   0 # h*
   2979      1   2  0.410000    26.666831341    19.701681761     0.932224804   0   0   0 # h*
   2980      1   1 -0.820000    15.789813344     5.770366967     1.225798428   0   0   0 # o*
   2981      1   2  0.410000    15.593351277     6.313938123     0.441044598   0   0   0 # h*
   2982      1   2  0.410000    16.514619838     5.197474160     0.966230965   0   0   0 # h*
   2983      1   1 -0.820000    43.980487569    18.540694849     8.961620083   0   0   0 # o*
   2984      1   2  0.410000    43.102315644    18.802686238     9.201035481   0   0   0 # h*
   2985      1   2  0.410000    43.784035689    17.708482554     8.465528411   0   0   0 # h*
   2986      1   1 -0.820000    14.166961812    21.387914346    15.103233749   0   0   0 # o*
   2987      1   2  0.410000    13.290957913    21.073203949    14.762951140   0   0   0 # h*
   2988      1   2  0.410000    14.490144270    20.474916009    15.286841228   0   0   0 # h*
   2989      1   1 -0.820000    16.095006440     1.706632392    25.076297540   0   1   0 # o*
   2990      1   2  0.410000    15.914178376     1.816678963    24.116288094   0   1   0 # h*
   2991      1   2  0.410000    16.537463347     0.820978797    25.227627650   0   1   0 # h*
   2992      1   1 -0.820000    20.564592015     3.415797301    12.588922285   0   1   0 # o*
   2993      1   2  0.410000    19.752374610     3.938443192    12.854170347   0   1   0 # h*
   2994      1   2  0.410000    20.213404177     2.478523846    12.729869651   0   1   0 # h*
   2995      1   1 -0.820000    32.359583114     0.545684556     6.357705842   0   0   0 # o*
   2996      1   2  0.410000    31.899259169     1.276876908     6.878745588   0   0   0 # h*
   2997      1   2  0.410000    33.248511678     0.482869747     6.793711421   0   0   0 # h*
   2998      1   1 -0.820000    28.821581857     9.923178801     3.229467887   0   0   0 # o*
   2999      1   2  0.410000    28.634276264     9.593515070     4.111524275   0   0   0 # h*
   3000      1   2  0.410000    29.800937383    10.168082450     3.444953131   0   0   0 # h*

Bonds

     1   1      1      3
     2   1      1      2
     3   1      4      6
     4   1      4      5
     5   1      7      9
     6   1      7      8
     7   1     10     12
     8   1     10     11
     9   1     13     15
    10   1     13     14
    11   1     16     18
    12   1     16     17
    13   1     19     21
    14   1     19     20
    15   1     22     24
    16   1     22     23
    17   1     25     27
    18   1     25     26
    19   1     28     30
    20   1     28     29
    21   1     31     33
    22   1     31     32
    23   1     34     36
    24   1     34     35
    25   1     37     39
    26   1     37     38
    27   1     40     42
    28   1     40     41
    29   1     43     45
    30   1     43     44
    31   1     46     48
    32   1     46     47
    33   1     49     51
    34   1     49     50
    35   1     52     54
    36   1     52     53
    37   1     55     57
    38   1     55     56
    39   1     58     60
    40   1     58     59
    41   1     61     63
    42   1     61     62
    43   1     64     66
    44   1     64     65
    45   1     67     69
    46   1     67     68
    47   1     70     72
    48   1     70     71
    49   1     73     75
    50   1     73     74
    51   1     76     78
    52   1     76     77
    53   1     79     81
    54   1     79     80
    55   1     82     84
    56   1     82     83
    57   1     85     87
    58   1     85     86
    59   1     88     90
    60   1     88     89
    61   1     91     93
    62   1     91     92
    63   1     94     96
    64   1     94     95
    65   1     97     99
    66   1     97     98
    67   1    100    102
    68   1    100    101
    69   1    103    105
    70   1    103    104
    71   1    106    108
    72   1    106    107
    73   1    109    111
    74   1    109    110
    75   1    112    114
    76   1    112    113
    77   1    115    117
    78   1    115    116
    79   1    118    120
    80   1    118    119
    81   1    121    123
    82   1    121    122
    83   1    124    126
    84   1    124    125
    85   1    127    129
    86   1    127    128
    87   1    130    132
    88   1    130    131
    89   1    133    135
    90   1    133    134
    91   1    136    138
    92   1    136    137
    93   1    139    141
    94   1    139    140
    95   1    142    144
    96   1    142    143
    97   1    145    147
    98   1    145    146
    99   1    148    150
   100   1    148    149
   101   1    151    153
   102   1    151    152
   103   1    154    156
   104   1    154    155
   105   1    157    159
   106   1    157    158
   107   1    160    162
   108   1    160    161
   109   1    163    165
   110   1    163    164
   111   1    166    168
   112   1    166    167
   113   1    169    171
   114   1    169    170
   115   1    172    174
   116   1    172    173
   117   1    175    177
   118   1    175    176
   119   1    178    180
   120   1    178    179
   121   1    181    183
   122   1    181    182
   123   1    184    186
   124   1    184    185
   125   1    187    189
   126   1    187    188
   127   1    190    192
   128   1    190    191
   129   1    193    195
   130   1    193    194
   131   1    196    198
   132   1    196    197
   133   1    199    201
   134   1    199    200
   135   1    202    204
   136   1    202    203
   137   1    205    207
   138   1    205    206
   139   1    208    210
   140   1    208    209
   141   1    211    213
   142   1    211    212
   143   1    214    216
   144   1    214    215
   145   1    217    219
   146   1    217    218
   147   1    220    222
   148   1    220    221
   149   1    223    225
   150   1    223    224
   151   1    226    228
   152   1    226    227
   153   1    229    231
   154   1    229    230
   155   1    232    234
   156   1    232    233
   157   1    235    237
   158   1    235    236
   159   1    238    240
   160   1    238    239
   161   1    241    243
   162   1    241    242
   163   1    244    246
   164   1    244    245
   165   1    247    249
   166   1    247    248
   167   1    250    252
   168   1    250    251
   169   1    253    255
   170   1    253    254
   171   1    256    258
   172   1    256    257
   173   1    259    261
   174   1    259    260
   175   1    262    264
   176   1    262    263
   177   1    265    267
   178   1    265    266
   179   1    268    270
   180   1    268    269
   181   1    271    273
   182   1    271    272
   183   1    274    276
   184   1    274    275
   185   1    277    279
   186   1    277    278
   187   1    280    282
   188   1    280    281
   189   1    283    285
   190   1    283    284
   191   1    286    288
   192   1    286    287
   193   1    289    291
   194   1    289    290
   195   1    292    294
   196   1    292    293
   197   1    295    297
   198   1    295    296
   199   1    298    300
   200   1    298    299
   201   1    301    303
   202   1    301    302
   203   1    304    306
   204   1    304    305
   205   1    307    309
   206   1    307    308
   207   1    310    312
   208   1    310    311
   209   1    313    315
   210   1    313    314
   211   1    316    318
   212   1    316    317
   213   1    319    321
   214   1    319    320
   215   1    322    324
   216   1    322    323
   217   1    325    327
   218   1    325    326
   219   1    328    330
   220   1    328    329
   221   1    331    333
   222   1    331    332
   223   1    334    336
   224   1    334    335
   225   1    337    339
   226   1    337    338
   227   1    340    342
   228   1    340    341
   229   1    343    345
   230   1    343    344
   231   1    346    348
   232   1    346    347
   233   1    349    351
   234   1    349    350
   235   1    352    354
   236   1    352    353
   237   1    355    357
   238   1    355    356
   239   1    358    360
   240   1    358    359
   241   1    361    363
   242   1    361    362
   243   1    364    366
   244   1    364    365
   245   1    367    369
   246   1    367    368
   247   1    370    372
   248   1    370    371
   249   1    373    375
   250   1    373    374
   251   1    376    378
   252   1    376    377
   253   1    379    381
   254   1    379    380
   255   1    382    384
   256   1    382    383
   257   1    385    387
   258   1    385    386
   259   1    388    390
   260   1    388    389
   261   1    391    393
   262   1    391    392
   263   1    394    396
   264   1    394    395
   265   1    397    399
   266   1    397    398
   267   1    400    402
   268   1    400    401
   269   1    403    405
   270   1    403    404
   271   1    406    408
   272   1    406    407
   273   1    409    411
   274   1    409    410
   275   1    412    414
   276   1    412    413
   277   1    415    417
   278   1    415    416
   279   1    418    420
   280   1    418    419
   281   1    421    423
   282   1    421    422
   283   1    424    426
   284   1    424    425
   285   1    427    429
   286   1    427    428
   287   1    430    432
   288   1    430    431
   289   1    433    435
   290   1    433    434
   291   1    436    438
   292   1    436    437
   293   1    439    441
   294   1    439    440
   295   1    442    444
   296   1    442    443
   297   1    445    447
   298   1    445    446
   299   1    448    450
   300   1    448    449
   301   1    451    453
   302   1    451    452
   303   1    454    456
   304   1    454    455
   305   1    457    459
   306   1    457    458
   307   1    460    462
   308   1    460    461
   309   1    463    465
   310   1    463    464
   311   1    466    468
   312   1    466    467
   313   1    469    471
   314   1    469    470
   315   1    472    474
   316   1    472    473
   317   1    475    477
   318   1    475    476
   319   1    478    480
   320   1    478    479
   321   1    481    483
   322   1    481    482
   323   1    484    486
   324   1    484    485
   325   1    487    489
   326   1    487    488
   327   1    490    492
   328   1    490    491
   329   1    493    495
   330   1    493    494
   331   1    496    498
   332   1    496    497
   333   1    499    501
   334   1    499    500
   335   1    502    504
   336   1    502    503
   337   1    505    507
   338   1    505    506
   339   1    508    510
   340   1    508    509
   341   1    511    513
   342   1    511    512
   343   1    514    516
   344   1    514    515
   345   1    517    519
   346   1    517    518
   347   1    520    522
   348   1    520    521
   349   1    523    525
   350   1    523    524
   351   1    526    528
   352   1    526    527
   353   1    529    531
   354   1    529    530
   355   1    532    534
   356   1    532    533
   357   1    535    537
   358   1    535    536
   359   1    538    540
   360   1    538    539
   361   1    541    543
   362   1    541    542
   363   1    544    546
   364   1    544    545
   365   1    547    549
   366   1    547    548
   367   1    550    552
   368   1    550    551
   369   1    553    555
   370   1    553    554
   371   1    556    558
   372   1    556    557
   373   1    559    561
   374   1    559    560
   375   1    562    564
   376   1    562    563
   377   1    565    567
   378   1    565    566
   379   1    568    570
   380   1    568    569
   381   1    571    573
   382   1    571    572
   383   1    574    576
   384   1    574    575
   385   1    577    579
   386   1    577    578
   387   1    580    582
   388   1    580    581
   389   1    583    585
   390   1    583    584
   391   1    586    588
   392   1    586    587
   393   1    589    591
   394   1    589    590
   395   1    592    594
   396   1    592    593
   397   1    595    597
   398   1    595    596
   399   1    598    600
   400   1    598    599
   401   1    601    603
   402   1    601    602
   403   1    604    606
   404   1    604    605
   405   1    607    609
   406   1    607    608
   407   1    610    612
   408   1    610    611
   409   1    613    615
   410   1    613    614
   411   1    616    618
   412   1    616    617
   413   1    619    621
   414   1    619    620
   415   1    622    624
   416   1    622    623
   417   1    625    627
   418   1    625    626
   419   1    628    630
   420   1    628    629
   421   1    631    633
   422   1    631    632
   423   1    634    636
   424   1    634    635
   425   1    637    639
   426   1    637    638
   427   1    640    642
   428   1    640    641
   429   1    643    645
   430   1    643    644
   431   1    646    648
   432   1    646    647
   433   1    649    651
   434   1    649    650
   435   1    652    654
   436   1    652    653
   437   1    655    657
   438   1    655    656
   439   1    658    660
   440   1    658    659
   441   1    661    663
   442   1    661    662
   443   1    664    666
   444   1    664    665
   445   1    667    669
   446   1    667    668
   447   1    670    672
   448   1    670    671
   449   1    673    675
   450   1    673    674
   451   1    676    678
   452   1    676    677
   453   1    679    681
   454   1    679    680
   455   1    682    684
   456   1    682    683
   457   1    685    687
   458   1    685    686
   459   1    688    690
   460   1    688    689
   461   1    691    693
   462   1    691    692
   463   1    694    696
   464   1    694    695
   465   1    697    699
   466   1    697    698
   467   1    700    702
   468   1    700    701
   469   1    703    705
   470   1    703    704
   471   1    706    708
   472   1    706    707
   473   1    709    711
   474   1    709    710
   475   1    712    714
   476   1    712    713
   477   1    715    717
   478   1    715    716
   479   1    718    720
   480   1    718    719
   481   1    721    723
   482   1    721    722
   483   1    724    726
   484   1    724    725
   485   1    727    729
   486   1    727    728
   487   1    730    732
   488   1    730    731
   489   1    733    735
   490   1    733    734
   491   1    736    738
   492   1    736    737
   493   1    739    741
   494   1    739    740
   495   1    742    744
   496   1    742    743
   497   1    745    747
   498   1    745    746
   499   1    748    750
   500   1    748    749
   501   1    751    753
   502   1    751    752
   503   1    754    756
   504   1    754    755
   505   1    757    759
   506   1    757    758
   507   1    760    762
   508   1    760    761
   509   1    763    765
   510   1    763    764
   511   1    766    768
   512   1    766    767
   513   1    769    771
   514   1    769    770
   515   1    772    774
   516   1    772    773
   517   1    775    777
   518   1    775    776
   519   1    778    780
   520   1    778    779
   521   1    781    783
   522   1    781    782
   523   1    784    786
   524   1    784    785
   525   1    787    789
   526   1    787    788
   527   1    790    792
   528   1    790    791
   529   1    793    795
   530   1    793    794
   531   1    796    798
   532   1    796    797
   533   1    799    801
   534   1    799    800
   535   1    802    804
   536   1    802    803
   537   1    805    807
   538   1    805    806
   539   1    808    810
   540   1    808    809
   541   1    811    813
   542   1    811    812
   543   1    814    816
   544   1    814    815
   545   1    817    819
   546   1    817    818
   547   1    820    822
   548   1    820    821
   549   1    823    825
   550   1    823    824
   551   1    826    828
   552   1    826    827
   553   1    829    831
   554   1    829    830
   555   1    832    834
   556   1    832    833
   557   1    835    837
   558   1    835    836
   559   1    838    840
   560   1    838    839
   561   1    841    843
   562   1    841    842
   563   1    844    846
   564   1    844    845
   565   1    847    849
   566   1    847    848
   567   1    850    852
   568   1    850    851
   569   1    853    855
   570   1    853    854
   571   1    856    858
   572   1    856    857
   573   1    859    861
   574   1    859    860
   575   1    862    864
   576   1    862    863
   577   1    865    867
   578   1    865    866
   579   1    868    870
   580   1    868    869
   581   1    871    873
   582   1    871    872
   583   1    874    876
   584   1    874    875
   585   1    877    879
   586   1    877    878
   587   1    880    882
   588   1    880    881
   589   1    883    885
   590   1    883    884
   591   1    886    888
   592   1    886    887
   593   1    889    891
   594   1    889    890
   595   1    892    894
   596   1    892    893
   597   1    895    897
   598   1    895    896
   599   1    898    900
   600   1    898    899
   601   1    901    903
   602   1    901    902
   603   1    904    906
   604   1    904    905
   605   1    907    909
   606   1    907    908
   607   1    910    912
   608   1    910    911
   609   1    913    915
   610   1    913    914
   611   1    916    918
   612   1    916    917
   613   1    919    921
   614   1    919    920
   615   1    922    924
   616   1    922    923
   617   1    925    927
   618   1    925    926
   619   1    928    930
   620   1    928    929
   621   1    931    933
   622   1    931    932
   623   1    934    936
   624   1    934    935
   625   1    937    939
   626   1    937    938
   627   1    940    942
   628   1    940    941
   629   1    943    945
   630   1    943    944
   631   1    946    948
   632   1    946    947
   633   1    949    951
   634   1    949    950
   635   1    952    954
   636   1    952    953
   637   1    955    957
   638   1    955    956
   639   1    958    960
   640   1    958    959
   641   1    961    963
   642   1    961    962
   643   1    964    966
   644   1    964    965
   645   1    967    969
   646   1    967    968
   647   1    970    972
   648   1    970    971
   649   1    973    975
   650   1    973    974
   651   1    976    978
   652   1    976    977
   653   1    979    981
   654   1    979    980
   655   1    982    984
   656   1    982    983
   657   1    985    987
   658   1    985    986
   659   1    988    990
   660   1    988    989
   661   1    991    993
   662   1    991    992
   663   1    994    996
   664   1    994    995
   665   1    997    999
   666   1    997    998
   667   1   1000   1002
   668   1   1000   1001
   669   1   1003   1005
   670   1   1003   1004
   671   1   1006   1008
   672   1   1006   1007
   673   1   1009   1011
   674   1   1009   1010
   675   1   1012   1014
   676   1   1012   1013
   677   1   1015   1017
   678   1   1015   1016
   679   1   1018   1020
   680   1   1018   1019
   681   1   1021   1023
   682   1   1021   1022
   683   1   1024   1026
   684   1   1024   1025
   685   1   1027   1029
   686   1   1027   1028
   687   1   1030   1032
   688   1   1030   1031
   689   1   1033   1035
   690   1   1033   1034
   691   1   1036   1038
   692   1   1036   1037
   693   1   1039   1041
   694   1   1039   1040
   695   1   1042   1044
   696   1   1042   1043
   697   1   1045   1047
   698   1   1045   1046
   699   1   1048   1050
   700   1   1048   1049
   701   1   1051   1053
   702   1   1051   1052
   703   1   1054   1056
   704   1   1054   1055
   705   1   1057   1059
   706   1   1057   1058
   707   1   1060   1062
   708   1   1060   1061
   709   1   1063   1065
   710   1   1063   1064
   711   1   1066   1068
   712   1   1066   1067
   713   1   1069   1071
   714   1   1069   1070
   715   1   1072   1074
   716   1   1072   1073
   717   1   1075   1077
   718   1   1075   1076
   719   1   1078   1080
   720   1   1078   1079
   721   1   1081   1083
   722   1   1081   1082
   723   1   1084   1086
   724   1   1084   1085
   725   1   1087   1089
   726   1   1087   1088
   727   1   1090   1092
   728   1   1090   1091
   729   1   1093   1095
   730   1   1093   1094
   731   1   1096   1098
   732   1   1096   1097
   733   1   1099   1101
   734   1   1099   1100
   735   1   1102   1104
   736   1   1102   1103
   737   1   1105   1107
   738   1   1105   1106
   739   1   1108   1110
   740   1   1108   1109
   741   1   1111   1113
   742   1   1111   1112
   743   1   1114   1116
   744   1   1114   1115
   745   1   1117   1119
   746   1   1117   1118
   747   1   1120   1122
   748   1   1120   1121
   749   1   1123   1125
   750   1   1123   1124
   751   1   1126   1128
   752   1   1126   1127
   753   1   1129   1131
   754   1   1129   1130
   755   1   1132   1134
   756   1   1132   1133
   757   1   1135   1137
   758   1   1135   1136
   759   1   1138   1140
   760   1   1138   1139
   761   1   1141   1143
   762   1   1141   1142
   763   1   1144   1146
   764   1   1144   1145
   765   1   1147   1149
   766   1   1147   1148
   767   1   1150   1152
   768   1   1150   1151
   769   1   1153   1155
   770   1   1153   1154
   771   1   1156   1158
   772   1   1156   1157
   773   1   1159   1161
   774   1   1159   1160
   775   1   1162   1164
   776   1   1162   1163
   777   1   1165   1167
   778   1   1165   1166
   779   1   1168   1170
   780   1   1168   1169
   781   1   1171   1173
   782   1   1171   1172
   783   1   1174   1176
   784   1   1174   1175
   785   1   1177   1179
   786   1   1177   1178
   787   1   1180   1182
   788   1   1180   1181
   789   1   1183   1185
   790   1   1183   1184
   791   1   1186   1188
   792   1   1186   1187
   793   1   1189   1191
   794   1   1189   1190
   795   1   1192   1194
   796   1   1192   1193
   797   1   1195   1197
   798   1   1195   1196
   799   1   1198   1200
   800   1   1198   1199
   801   1   1201   1203
   802   1   1201   1202
   803   1   1204   1206
   804   1   1204   1205
   805   1   1207   1209
   806   1   1207   1208
   807   1   1210   1212
   808   1   1210   1211
   809   1   1213   1215
   810   1   1213   1214
   811   1   1216   1218
   812   1   1216   1217
   813   1   1219   1221
   814   1   1219   1220
   815   1   1222   1224
   816   1   1222   1223
   817   1   1225   1227
   818   1   1225   1226
   819   1   1228   1230
   820   1   1228   1229
   821   1   1231   1233
   822   1   1231   1232
   823   1   1234   1236
   824   1   1234   1235
   825   1   1237   1239
   826   1   1237   1238
   827   1   1240   1242
   828   1   1240   1241
   829   1   1243   1245
   830   1   1243   1244
   831   1   1246   1248
   832   1   1246   1247
   833   1   1249   1251
   834   1   1249   1250
   835   1   1252   1254
   836   1   1252   1253
   837   1   1255   1257
   838   1   1255   1256
   839   1   1258   1260
   840   1   1258   1259
   841   1   1261   1263
   842   1   1261   1262
   843   1   1264   1266
   844   1   1264   1265
   845   1   1267   1269
   846   1   1267   1268
   847   1   1270   1272
   848   1   1270   1271
   849   1   1273   1275
   850   1   1273   1274
   851   1   1276   1278
   852   1   1276   1277
   853   1   1279   1281
   854   1   1279   1280
   855   1   1282   1284
   856   1   1282   1283
   857   1   1285   1287
   858   1   1285   1286
   859   1   1288   1290
   860   1   1288   1289
   861   1   1291   1293
   862   1   1291   1292
   863   1   1294   1296
   864   1   1294   1295
   865   1   1297   1299
   866   1   1297   1298
   867   1   1300   1302
   868   1   1300   1301
   869   1   1303   1305
   870   1   1303   1304
   871   1   1306   1308
   872   1   1306   1307
   873   1   1309   1311
   874   1   1309   1310
   875   1   1312   1314
   876   1   1312   1313
   877   1   1315   1317
   878   1   1315   1316
   879   1   1318   1320
   880   1   1318   1319
   881   1   1321   1323
   882   1   1321   1322
   883   1   1324   1326
   884   1   1324   1325
   885   1   1327   1329
   886   1   1327   1328
   887   1   1330   1332
   888   1   1330   1331
   889   1   1333   1335
   890   1   1333   1334
   891   1   1336   1338
   892   1   1336   1337
   893   1   1339   1341
   894   1   1339   1340
   895   1   1342   1344
   896   1   1342   1343
   897   1   1345   1347
   898   1   1345   1346
   899   1   1348   1350
   900   1   1348   1349
   901   1   1351   1353
   902   1   1351   1352
   903   1   1354   1356
   904   1   1354   1355
   905   1   1357   1359
   906   1   1357   1358
   907   1   1360   1362
   908   1   1360   1361
   909   1   1363   1365
   910   1   1363   1364
   911   1   1366   1368
   912   1   1366   1367
   913   1   1369   1371
   914   1   1369   1370
   915   1   1372   1374
   916   1   1372   1373
   917   1   1375   1377
   918   1   1375   1376
   919   1   1378   1380
   920   1   1378   1379
   921   1   1381   1383
   922   1   1381   1382
   923   1   1384   1386
   924   1   1384   1385
   925   1   1387   1389
   926   1   1387   1388
   927   1   1390   1392
   928   1   1390   1391
   929   1   1393   1395
   930   1   1393   1394
   931   1   1396   1398
   932   1   1396   1397
   933   1   1399   1401
   934   1   1399   1400
   935   1   1402   1404
   936   1   1402   1403
   937   1   1405   1407
   938   1   1405   1406
   939   1   1408   1410
   940   1   1408   1409
   941   1   1411   1413
   942   1   1411   1412
   943   1   1414   1416
   944   1   1414   1415
   945   1   1417   1419
   946   1   1417   1418
   947   1   1420   1422
   948   1   1420   1421
   949   1   1423   1425
   950   1   1423   1424
   951   1   1426   1428
   952   1   1426   1427
   953   1   1429   1431
   954   1   1429   1430
   955   1   1432   1434
   956   1   1432   1433
   957   1   1435   1437
   958   1   1435   1436
   959   1   1438   1440
   960   1   1438   1439
   961   1   1441   1443
   962   1   1441   1442
   963   1   1444   1446
   964   1   1444   1445
   965   1   1447   1449
   966   1   1447   1448
   967   1   1450   1452
   968   1   1450   1451
   969   1   1453   1455
   970   1   1453   1454
   971   1   1456   1458
   972   1   1456   1457
   973   1   1459   1461
   974   1   1459   1460
   975   1   1462   1464
   976   1   1462   1463
   977   1   1465   1467
   978   1   1465   1466
   979   1   1468   1470
   980   1   1468   1469
   981   1   1471   1473
   982   1   1471   1472
   983   1   1474   1476
   984   1   1474   1475
   985   1   1477   1479
   986   1   1477   1478
   987   1   1480   1482
   988   1   1480   1481
   989   1   1483   1485
   990   1   1483   1484
   991   1   1486   1488
   992   1   1486   1487
   993   1   1489   1491
   994   1   1489   1490
   995   1   1492   1494
   996   1   1492   1493
   997   1   1495   1497
   998   1   1495   1496
   999   1   1498   1500
  1000   1   1498   1499
  1001   1   1501   1503
  1002   1   1501   1502
  1003   1   1504   1506
  1004   1   1504   1505
  1005   1   1507   1509
  1006   1   1507   1508
  1007   1   1510   1512
  1008   1   1510   1511
  1009   1   1513   1515
  1010   1   1513   1514
  1011   1   1516   1518
  1012   1   1516   1517
  1013   1   1519   1521
  1014   1   1519   1520
  1015   1   1522   1524
  1016   1   1522   1523
  1017   1   1525   1527
  1018   1   1525   1526
  1019   1   1528   1530
  1020   1   1528   1529
  1021   1   1531   1533
  1022   1   1531   1532
  1023   1   1534   1536
  1024   1   1534   1535
  1025   1   1537   1539
  1026   1   1537   1538
  1027   1   1540   1542
  1028   1   1540   1541
  1029   1   1543   1545
  1030   1   1543   1544
  1031   1   1546   1548
  1032   1   1546   1547
  1033   1   1549   1551
  1034   1   1549   1550
  1035   1   1552   1554
  1036   1   1552   1553
  1037   1   1555   1557
  1038   1   1555   1556
  1039   1   1558   1560
  1040   1   1558   1559
  1041   1   1561   1563
  1042   1   1561   1562
  1043   1   1564   1566
  1044   1   1564   1565
  1045   1   1567   1569
  1046   1   1567   1568
  1047   1   1570   1572
  1048   1   1570   1571
  1049   1   1573   1575
  1050   1   1573   1574
  1051   1   1576   1578
  1052   1   1576   1577
  1053   1   1579   1581
  1054   1   1579   1580
  1055   1   1582   1584
  1056   1   1582   1583
  1057   1   1585   1587
  1058   1   1585   1586
  1059   1   1588   1590
  1060   1   1588   1589
  1061   1   1591   1593
  1062   1   1591   1592
  1063   1   1594   1596
  1064   1   1594   1595
  1065   1   1597   1599
  1066   1   1597   1598
  1067   1   1600   1602
  1068   1   1600   1601
  1069   1   1603   1605
  1070   1   1603   1604
  1071   1   1606   1608
  1072   1   1606   1607
  1073   1   1609   1611
  1074   1   1609   1610
  1075   1   1612   1614
  1076   1   1612   1613
  1077   1   1615   1617
  1078   1   1615   1616
  1079   1   1618   1620
  1080   1   1618   1619
  1081   1   1621   1623
  1082   1   1621   1622
  1083   1   1624   1626
  1084   1   1624   1625
  1085   1   1627   1629
  1086   1   1627   1628
  1087   1   1630   1632
  1088   1   1630   1631
  1089   1   1633   1635
  1090   1   1633   1634
  1091   1   1636   1638
  1092   1   1636   1637
  1093   1   1639   1641
  1094   1   1639   1640
  1095   1   1642   1644
  1096   1   1642   1643
  1097   1   1645   1647
  1098   1   1645   1646
  1099   1   1648   1650
  1100   1   1648   1649
  1101   1   1651   1653
  1102   1   1651   1652
  1103   1   1654   1656
  1104   1   1654   1655
  1105   1   1657   1659
  1106   1   1657   1658
  1107   1   1660   1662
  1108   1   1660   1661
  1109   1   1663   1665
  1110   1   1663   1664
  1111   1   1666   1668
  1112   1   1666   1667
  1113   1   1669   1671
  1114   1   1669   1670
  1115   1   1672   1674
  1116   1   1672   1673
  1117   1   1675   1677
  1118   1   1675   1676
  1119   1   1678   1680
  1120   1   1678   1679
  1121   1   1681   1683
  1122   1   1681   1682
  1123   1   1684   1686
  1124   1   1684   1685
  1125   1   1687   1689
  1126   1   1687   1688
  1127   1   1690   1692
  1128   1   1690   1691
  1129   1   1693   1695
  1130   1   1693   1694
  1131   1   1696   1698
  1132   1   1696   1697
  1133   1   1699   1701
  1134   1   1699   1700
  1135   1   1702   1704
  1136   1   1702   1703
  1137   1   1705   1707
  1138   1   1705   1706
  1139   1   1708   1710
  1140   1   1708   1709
  1141   1   1711   1713
  1142   1   1711   1712
  1143   1   1714   1716
  1144   1   1714   1715
  1145   1   1717   1719
  1146   1   1717   1718
  1147   1   1720   1722
  1148   1   1720   1721
  1149   1   1723   1725
  1150   1   1723   1724
  1151   1   1726   1728
  1152   1   1726   1727
  1153   1   1729   1731
  1154   1   1729   1730
  1155   1   1732   1734
  1156   1   1732   1733
  1157   1   1735   1737
  1158   1   1735   1736
  1159   1   1738   1740
  1160   1   1738   1739
  1161   1   1741   1743
  1162   1   1741   1742
  1163   1   1744   1746
  1164   1   1744   1745
  1165   1   1747   1749
  1166   1   1747   1748
  1167   1   1750   1752
  1168   1   1750   1751
  1169   1   1753   1755
  1170   1   1753   1754
  1171   1   1756   1758
  1172   1   1756   1757
  1173   1   1759   1761
  1174   1   1759   1760
  1175   1   1762   1764
  1176   1   1762   1763
  1177   1   1765   1767
  1178   1   1765   1766
  1179   1   1768   1770
  1180   1   1768   1769
  1181   1   1771   1773
  1182   1   1771   1772
  1183   1   1774   1776
  1184   1   1774   1775
  1185   1   1777   1779
  1186   1   1777   1778
  1187   1   1780   1782
  1188   1   1780   1781
  1189   1   1783   1785
  1190   1   1783   1784
  1191   1   1786   1788
  1192   1   1786   1787
  1193   1   1789   1791
  1194   1   1789   1790
  1195   1   1792   1794
  1196   1   1792   1793
  1197   1   1795   1797
  1198   1   1795   1796
  1199   1   1798   1800
  1200   1   1798   1799
  1201   1   1801   1803
  1202   1   1801   1802
  1203   1   1804   1806
  1204   1   1804   1805
  1205   1   1807   1809
  1206   1   1807   1808
  1207   1   1810   1812
  1208   1   1810   1811
  1209   1   1813   1815
  1210   1   1813   1814
  1211   1   1816   1818
  1212   1   1816   1817
  1213   1   1819   1821
  1214   1   1819   1820
  1215   1   1822   1824
  1216   1   1822   1823
  1217   1   1825   1827
  1218   1   1825   1826
  1219   1   1828   1830
  1220   1   1828   1829
  1221   1   1831   1833
  1222   1   1831   1832
  1223   1   1834   1836
  1224   1   1834   1835
  1225   1   1837   1839
  1226   1   1837   1838
  1227   1   1840   1842
  1228   1   1840   1841
  1229   1   1843   1845
  1230   1   1843   1844
  1231   1   1846   1848
  1232   1   1846   1847
  1233   1   1849   1851
  1234   1   1849   1850
  1235   1   1852   1854
  1236   1   1852   1853
  1237   1   1855   1857
  1238   1   1855   1856
  1239   1   1858   1860
  1240   1   1858   1859
  1241   1   1861   1863
  1242   1   1861   1862
  1243   1   1864   1866
  1244   1   1864   1865
  1245   1   1867   1869
  1246   1   1867   1868
  1247   1   1870   1872
  1248   1   1870   1871
  1249   1   1873   1875
  1250   1   1873   1874
  1251   1   1876   1878
  1252   1   1876   1877
  1253   1   1879   1881
  1254   1   1879   1880
  1255   1   1882   1884
  1256   1   1882   1883
  1257   1   1885   1887
  1258   1   1885   1886
  1259   1   1888   1890
  1260   1   1888   1889
  1261   1   1891   1893
  1262   1   1891   1892
  1263   1   1894   1896
  1264   1   1894   1895
  1265   1   1897   1899
  1266   1   1897   1898
  1267   1   1900   1902
  1268   1   1900   1901
  1269   1   1903   1905
  1270   1   1903   1904
  1271   1   1906   1908
  1272   1   1906   1907
  1273   1   1909   1911
  1274   1   1909   1910
  1275   1   1912   1914
  1276   1   1912   1913
  1277   1   1915   1917
  1278   1   1915   1916
  1279   1   1918   1920
  1280   1   1918   1919
  1281   1   1921   1923
  1282   1   1921   1922
  1283   1   1924   1926
  1284   1   1924   1925
  1285   1   1927   1929
  1286   1   1927   1928
  1287   1   1930   1932
  1288   1   1930   1931
  1289   1   1933   1935
  1290   1   1933   1934
  1291   1   1936   1938
  1292   1   1936   1937
  1293   1   1939   1941
  1294   1   1939   1940
  1295   1   1942   1944
  1296   1   1942   1943
  1297   1   1945   1947
  1298   1   1945   1946
  1299   1   1948   1950
  1300   1   1948   1949
  1301   1   1951   1953
  1302   1   1951   1952
  1303   1   1954   1956
  1304   1   1954   1955
  1305   1   1957   1959
  1306   1   1957   1958
  1307   1   1960   1962
  1308   1   1960   1961
  1309   1   1963   1965
  1310   1   1963   1964
  1311   1   1966   1968
  1312   1   1966   1967
  1313   1   1969   1971
  1314   1   1969   1970
  1315   1   1972   1974
  1316   1   1972   1973
  1317   1   1975   1977
  1318   1   1975   1976
  1319   1   1978   1980
  1320   1   1978   1979
  1321   1   1981   1983
  1322   1   1981   1982
  1323   1   1984   1986
  1324   1   1984   1985
  1325   1   1987   1989
  1326   1   1987   1988
  1327   1   1990   1992
  1328   1   1990   1991
  1329   1   1993   1995
  1330   1   1993   1994
  1331   1   1996   1998
  1332   1   1996   1997
  1333   1   1999   2001
  1334   1   1999   2000
  1335   1   2002   2004
  1336   1   2002   2003
  1337   1   2005   2007
  1338   1   2005   2006
  1339   1   2008   2010
  1340   1   2008   2009
  1341   1   2011   2013
  1342   1   2011   2012
  1343   1   2014   2016
  1344   1   2014   2015
  1345   1   2017   2019
  1346   1   2017   2018
  1347   1   2020   2022
  1348   1   2020   2021
  1349   1   2023   2025
  1350   1   2023   2024
  1351   1   2026   2028
  1352   1   2026   2027
  1353   1   2029   2031
  1354   1   2029   2030
  1355   1   2032   2034
  1356   1   2032   2033
  1357   1   2035   2037
  1358   1   2035   2036
  1359   1   2038   2040
  1360   1   2038   2039
  1361   1   2041   2043
  1362   1   2041   2042
  1363   1   2044   2046
  1364   1   2044   2045
  1365   1   2047   2049
  1366   1   2047   2048
  1367   1   2050   2052
  1368   1   2050   2051
  1369   1   2053   2055
  1370   1   2053   2054
  1371   1   2056   2058
  1372   1   2056   2057
  1373   1   2059   2061
  1374   1   2059   2060
  1375   1   2062   2064
  1376   1   2062   2063
  1377   1   2065   2067
  1378   1   2065   2066
  1379   1   2068   2070
  1380   1   2068   2069
  1381   1   2071   2073
  1382   1   2071   2072
  1383   1   2074   2076
  1384   1   2074   2075
  1385   1   2077   2079
  1386   1   2077   2078
  1387   1   2080   2082
  1388   1   2080   2081
  1389   1   2083   2085
  1390   1   2083   2084
  1391   1   2086   2088
  1392   1   2086   2087
  1393   1   2089   2091
  1394   1   2089   2090
  1395   1   2092   2094
  1396   1   2092   2093
  1397   1   2095   2097
  1398   1   2095   2096
  1399   1   2098   2100
  1400   1   2098   2099
  1401   1   2101   2103
  1402   1   2101   2102
  1403   1   2104   2106
  1404   1   2104   2105
  1405   1   2107   2109
  1406   1   2107   2108
  1407   1   2110   2112
  1408   1   2110   2111
  1409   1   2113   2115
  1410   1   2113   2114
  1411   1   2116   2118
  1412   1   2116   2117
  1413   1   2119   2121
  1414   1   2119   2120
  1415   1   2122   2124
  1416   1   2122   2123
  1417   1   2125   2127
  1418   1   2125   2126
  1419   1   2128   2130
  1420   1   2128   2129
  1421   1   2131   2133
  1422   1   2131   2132
  1423   1   2134   2136
  1424   1   2134   2135
  1425   1   2137   2139
  1426   1   2137   2138
  1427   1   2140   2142
  1428   1   2140   2141
  1429   1   2143   2145
  1430   1   2143   2144
  1431   1   2146   2148
  1432   1   2146   2147
  1433   1   2149   2151
  1434   1   2149   2150
  1435   1   2152   2154
  1436   1   2152   2153
  1437   1   2155   2157
  1438   1   2155   2156
  1439   1   2158   2160
  1440   1   2158   2159
  1441   1   2161   2163
  1442   1   2161   2162
  1443   1   2164   2166
  1444   1   2164   2165
  1445   1   2167   2169
  1446   1   2167   2168
  1447   1   2170   2172
  1448   1   2170   2171
  1449   1   2173   2175
  1450   1   2173   2174
  1451   1   2176   2178
  1452   1   2176   2177
  1453   1   2179   2181
  1454   1   2179   2180
  1455   1   2182   2184
  1456   1   2182   2183
  1457   1   2185   2187
  1458   1   2185   2186
  1459   1   2188   2190
  1460   1   2188   2189
  1461   1   2191   2193
  1462   1   2191   2192
  1463   1   2194   2196
  1464   1   2194   2195
  1465   1   2197   2199
  1466   1   2197   2198
  1467   1   2200   2202
  1468   1   2200   2201
  1469   1   2203   2205
  1470   1   2203   2204
  1471   1   2206   2208
  1472   1   2206   2207
  1473   1   2209   2211
  1474   1   2209   2210
  1475   1   2212   2214
  1476   1   2212   2213
  1477   1   2215   2217
  1478   1   2215   2216
  1479   1   2218   2220
  1480   1   2218   2219
  1481   1   2221   2223
  1482   1   2221   2222
  1483   1   2224   2226
  1484   1   2224   2225
  1485   1   2227   2229
  1486   1   2227   2228
  1487   1   2230   2232
  1488   1   2230   2231
  1489   1   2233   2235
  1490   1   2233   2234
  1491   1   2236   2238
  1492   1   2236   2237
  1493   1   2239   2241
  1494   1   2239   2240
  1495   1   2242   2244
  1496   1   2242   2243
  1497   1   2245   2247
  1498   1   2245   2246
  1499   1   2248   2250
  1500   1   2248   2249
  1501   1   2251   2253
  1502   1   2251   2252
  1503   1   2254   2256
  1504   1   2254   2255
  1505   1   2257   2259
  1506   1   2257   2258
  1507   1   2260   2262
  1508   1   2260   2261
  1509   1   2263   2265
  1510   1   2263   2264
  1511   1   2266   2268
  1512   1   2266   2267
  1513   1   2269   2271
  1514   1   2269   2270
  1515   1   2272   2274
  1516   1   2272   2273
  1517   1   2275   2277
  1518   1   2275   2276
  1519   1   2278   2280
  1520   1   2278   2279
  1521   1   2281   2283
  1522   1   2281   2282
  1523   1   2284   2286
  1524   1   2284   2285
  1525   1   2287   2289
  1526   1   2287   2288
  1527   1   2290   2292
  1528   1   2290   2291
  1529   1   2293   2295
  1530   1   2293   2294
  1531   1   2296   2298
  1532   1   2296   2297
  1533   1   2299   2301
  1534   1   2299   2300
  1535   1   2302   2304
  1536   1   2302   2303
  1537   1   2305   2307
  1538   1   2305   2306
  1539   1   2308   2310
  1540   1   2308   2309
  1541   1   2311   2313
  1542   1   2311   2312
  1543   1   2314   2316
  1544   1   2314   2315
  1545   1   2317   2319
  1546   1   2317   2318
  1547   1   2320   2322
  1548   1   2320   2321
  1549   1   2323   2325
  1550   1   2323   2324
  1551   1   2326   2328
  1552   1   2326   2327
  1553   1   2329   2331
  1554   1   2329   2330
  1555   1   2332   2334
  1556   1   2332   2333
  1557   1   2335   2337
  1558   1   2335   2336
  1559   1   2338   2340
  1560   1   2338   2339
  1561   1   2341   2343
  1562   1   2341   2342
  1563   1   2344   2346
  1564   1   2344   2345
  1565   1   2347   2349
  1566   1   2347   2348
  1567   1   2350   2352
  1568   1   2350   2351
  1569   1   2353   2355
  1570   1   2353   2354
  1571   1   2356   2358
  1572   1   2356   2357
  1573   1   2359   2361
  1574   1   2359   2360
  1575   1   2362   2364
  1576   1   2362   2363
  1577   1   2365   2367
  1578   1   2365   2366
  1579   1   2368   2370
  1580   1   2368   2369
  1581   1   2371   2373
  1582   1   2371   2372
  1583   1   2374   2376
  1584   1   2374   2375
  1585   1   2377   2379
  1586   1   2377   2378
  1587   1   2380   2382
  1588   1   2380   2381
  1589   1   2383   2385
  1590   1   2383   2384
  1591   1   2386   2388
  1592   1   2386   2387
  1593   1   2389   2391
  1594   1   2389   2390
  1595   1   2392   2394
  1596   1   2392   2393
  1597   1   2395   2397
  1598   1   2395   2396
  1599   1   2398   2400
  1600   1   2398   2399
  1601   1   2401   2403
  1602   1   2401   2402
  1603   1   2404   2406
  1604   1   2404   2405
  1605   1   2407   2409
  1606   1   2407   2408
  1607   1   2410   2412
  1608   1   2410   2411
  1609   1   2413   2415
  1610   1   2413   2414
  1611   1   2416   2418
  1612   1   2416   2417
  1613   1   2419   2421
  1614   1   2419   2420
  1615   1   2422   2424
  1616   1   2422   2423
  1617   1   2425   2427
  1618   1   2425   2426
  1619   1   2428   2430
  1620   1   2428   2429
  1621   1   2431   2433
  1622   1   2431   2432
  1623   1   2434   2436
  1624   1   2434   2435
  1625   1   2437   2439
  1626   1   2437   2438
  1627   1   2440   2442
  1628   1   2440   2441
  1629   1   2443   2445
  1630   1   2443   2444
  1631   1   2446   2448
  1632   1   2446   2447
  1633   1   2449   2451
  1634   1   2449   2450
  1635   1   2452   2454
  1636   1   2452   2453
  1637   1   2455   2457
  1638   1   2455   2456
  1639   1   2458   2460
  1640   1   2458   2459
  1641   1   2461   2463
  1642   1   2461   2462
  1643   1   2464   2466
  1644   1   2464   2465
  1645   1   2467   2469
  1646   1   2467   2468
  1647   1   2470   2472
  1648   1   2470   2471
  1649   1   2473   2475
  1650   1   2473   2474
  1651   1   2476   2478
  1652   1   2476   2477
  1653   1   2479   2481
  1654   1   2479   2480
  1655   1   2482   2484
  1656   1   2482   2483
  1657   1   2485   2487
  1658   1   2485   2486
  1659   1   2488   2490
  1660   1   2488   2489
  1661   1   2491   2493
  1662   1   2491   2492
  1663   1   2494   2496
  1664   1   2494   2495
  1665   1   2497   2499
  1666   1   2497   2498
  1667   1   2500   2502
  1668   1   2500   2501
  1669   1   2503   2505
  1670   1   2503   2504
  1671   1   2506   2508
  1672   1   2506   2507
  1673   1   2509   2511
  1674   1   2509   2510
  1675   1   2512   2514
  1676   1   2512   2513
  1677   1   2515   2517
  1678   1   2515   2516
  1679   1   2518   2520
  1680   1   2518   2519
  1681   1   2521   2523
  1682   1   2521   2522
  1683   1   2524   2526
  1684   1   2524   2525
  1685   1   2527   2529
  1686   1   2527   2528
  1687   1   2530   2532
  1688   1   2530   2531
  1689   1   2533   2535
  1690   1   2533   2534
  1691   1   2536   2538
  1692   1   2536   2537
  1693   1   2539   2541
  1694   1   2539   2540
  1695   1   2542   2544
  1696   1   2542   2543
  1697   1   2545   2547
  1698   1   2545   2546
  1699   1   2548   2550
  1700   1   2548   2549
  1701   1   2551   2553
  1702   1   2551   2552
  1703   1   2554   2556
  1704   1   2554   2555
  1705   1   2557   2559
  1706   1   2557   2558
  1707   1   2560   2562
  1708   1   2560   2561
  1709   1   2563   2565
  1710   1   2563   2564
  1711   1   2566   2568
  1712   1   2566   2567
  1713   1   2569   2571
  1714   1   2569   2570
  1715   1   2572   2574
  1716   1   2572   2573
  1717   1   2575   2577
  1718   1   2575   2576
  1719   1   2578   2580
  1720   1   2578   2579
  1721   1   2581   2583
  1722   1   2581   2582
  1723   1   2584   2586
  1724   1   2584   2585
  1725   1   2587   2589
  1726   1   2587   2588
  1727   1   2590   2592
  1728   1   2590   2591
  1729   1   2593   2595
  1730   1   2593   2594
  1731   1   2596   2598
  1732   1   2596   2597
  1733   1   2599   2601
  1734   1   2599   2600
  1735   1   2602   2604
  1736   1   2602   2603
  1737   1   2605   2607
  1738   1   2605   2606
  1739   1   2608   2610
  1740   1   2608   2609
  1741   1   2611   2613
  1742   1   2611   2612
  1743   1   2614   2616
  1744   1   2614   2615
  1745   1   2617   2619
  1746   1   2617   2618
  1747   1   2620   2622
  1748   1   2620   2621
  1749   1   2623   2625
  1750   1   2623   2624
  1751   1   2626   2628
  1752   1   2626   2627
  1753   1   2629   2631
  1754   1   2629   2630
  1755   1   2632   2634
  1756   1   2632   2633
  1757   1   2635   2637
  1758   1   2635   2636
  1759   1   2638   2640
  1760   1   2638   2639
  1761   1   2641   2643
  1762   1   2641   2642
  1763   1   2644   2646
  1764   1   2644   2645
  1765   1   2647   2649
  1766   1   2647   2648
  1767   1   2650   2652
  1768   1   2650   2651
  1769   1   2653   2655
  1770   1   2653   2654
  1771   1   2656   2658
  1772   1   2656   2657
  1773   1   2659   2661
  1774   1   2659   2660
  1775   1   2662   2664
  1776   1   2662   2663
  1777   1   2665   2667
  1778   1   2665   2666
  1779   1   2668   2670
  1780   1   2668   2669
  1781   1   2671   2673
  1782   1   2671   2672
  1783   1   2674   2676
  1784   1   2674   2675
  1785   1   2677   2679
  1786   1   2677   2678
  1787   1   2680   2682
  1788   1   2680   2681
  1789   1   2683   2685
  1790   1   2683   2684
  1791   1   2686   2688
  1792   1   2686   2687
  1793   1   2689   2691
  1794   1   2689   2690
  1795   1   2692   2694
  1796   1   2692   2693
  1797   1   2695   2697
  1798   1   2695   2696
  1799   1   2698   2700
  1800   1   2698   2699
  1801   1   2701   2703
  1802   1   2701   2702
  1803   1   2704   2706
  1804   1   2704   2705
  1805   1   2707   2709
  1806   1   2707   2708
  1807   1   2710   2712
  1808   1   2710   2711
  1809   1   2713   2715
  1810   1   2713   2714
  1811   1   2716   2718
  1812   1   2716   2717
  1813   1   2719   2721
  1814   1   2719   2720
  1815   1   2722   2724
  1816   1   2722   2723
  1817   1   2725   2727
  1818   1   2725   2726
  1819   1   2728   2730
  1820   1   2728   2729
  1821   1   2731   2733
  1822   1   2731   2732
  1823   1   2734   2736
  1824   1   2734   2735
  1825   1   2737   2739
  1826   1   2737   2738
  1827   1   2740   2742
  1828   1   2740   2741
  1829   1   2743   2745
  1830   1   2743   2744
  1831   1   2746   2748
  1832   1   2746   2747
  1833   1   2749   2751
  1834   1   2749   2750
  1835   1   2752   2754
  1836   1   2752   2753
  1837   1   2755   2757
  1838   1   2755   2756
  1839   1   2758   2760
  1840   1   2758   2759
  1841   1   2761   2763
  1842   1   2761   2762
  1843   1   2764   2766
  1844   1   2764   2765
  1845   1   2767   2769
  1846   1   2767   2768
  1847   1   2770   2772
  1848   1   2770   2771
  1849   1   2773   2775
  1850   1   2773   2774
  1851   1   2776   2778
  1852   1   2776   2777
  1853   1   2779   2781
  1854   1   2779   2780
  1855   1   2782   2784
  1856   1   2782   2783
  1857   1   2785   2787
  1858   1   2785   2786
  1859   1   2788   2790
  1860   1   2788   2789
  1861   1   2791   2793
  1862   1   2791   2792
  1863   1   2794   2796
  1864   1   2794   2795
  1865   1   2797   2799
  1866   1   2797   2798
  1867   1   2800   2802
  1868   1   2800   2801
  1869   1   2803   2805
  1870   1   2803   2804
  1871   1   2806   2808
  1872   1   2806   2807
  1873   1   2809   2811
  1874   1   2809   2810
  1875   1   2812   2814
  1876   1   2812   2813
  1877   1   2815   2817
  1878   1   2815   2816
  1879   1   2818   2820
  1880   1   2818   2819
  1881   1   2821   2823
  1882   1   2821   2822
  1883   1   2824   2826
  1884   1   2824   2825
  1885   1   2827   2829
  1886   1   2827   2828
  1887   1   2830   2832
  1888   1   2830   2831
  1889   1   2833   2835
  1890   1   2833   2834
  1891   1   2836   2838
  1892   1   2836   2837
  1893   1   2839   2841
  1894   1   2839   2840
  1895   1   2842   2844
  1896   1   2842   2843
  1897   1   2845   2847
  1898   1   2845   2846
  1899   1   2848   2850
  1900   1   2848   2849
  1901   1   2851   2853
  1902   1   2851   2852
  1903   1   2854   2856
  1904   1   2854   2855
  1905   1   2857   2859
  1906   1   2857   2858
  1907   1   2860   2862
  1908   1   2860   2861
  1909   1   2863   2865
  1910   1   2863   2864
  1911   1   2866   2868
  1912   1   2866   2867
  1913   1   2869   2871
  1914   1   2869   2870
  1915   1   2872   2874
  1916   1   2872   2873
  1917   1   2875   2877
  1918   1   2875   2876
  1919   1   2878   2880
  1920   1   2878   2879
  1921   1   2881   2883
  1922   1   2881   2882
  1923   1   2884   2886
  1924   1   2884   2885
  1925   1   2887   2889
  1926   1   2887   2888
  1927   1   2890   2892
  1928   1   2890   2891
  1929   1   2893   2895
  1930   1   2893   2894
  1931   1   2896   2898
  1932   1   2896   2897
  1933   1   2899   2901
  1934   1   2899   2900
  1935   1   2902   2904
  1936   1   2902   2903
  1937   1   2905   2907
  1938   1   2905   2906
  1939   1   2908   2910
  1940   1   2908   2909
  1941   1   2911   2913
  1942   1   2911   2912
  1943   1   2914   2916
  1944   1   2914   2915
  1945   1   2917   2919
  1946   1   2917   2918
  1947   1   2920   2922
  1948   1   2920   2921
  1949   1   2923   2925
  1950   1   2923   2924
  1951   1   2926   2928
  1952   1   2926   2927
  1953   1   2929   2931
  1954   1   2929   2930
  1955   1   2932   2934
  1956   1   2932   2933
  1957   1   2935   2937
  1958   1   2935   2936
  1959   1   2938   2940
  1960   1   2938   2939
  1961   1   2941   2943
  1962   1   2941   2942
  1963   1   2944   2946
  1964   1   2944   2945
  1965   1   2947   2949
  1966   1   2947   2948
  1967   1   2950   2952
  1968   1   2950   2951
  1969   1   2953   2955
  1970   1   2953   2954
  1971   1   2956   2958
  1972   1   2956   2957
  1973   1   2959   2961
  1974   1   2959   2960
  1975   1   2962   2964
  1976   1   2962   2963
  1977   1   2965   2967
  1978   1   2965   2966
  1979   1   2968   2970
  1980   1   2968   2969
  1981   1   2971   2973
  1982   1   2971   2972
  1983   1   2974   2976
  1984   1   2974   2975
  1985   1   2977   2979
  1986   1   2977   2978
  1987   1   2980   2982
  1988   1   2980   2981
  1989   1   2983   2985
  1990   1   2983   2984
  1991   1   2986   2988
  1992   1   2986   2987
  1993   1   2989   2991
  1994   1   2989   2990
  1995   1   2992   2994
  1996   1   2992   2993
  1997   1   2995   2997
  1998   1   2995   2996
  1999   1   2998   3000
  2000   1   2998   2999

Angles

     1   1      3      1      2
     2   1      6      4      5
     3   1      9      7      8
     4   1     12     10     11
     5   1     15     13     14
     6   1     18     16     17
     7   1     21     19     20
     8   1     24     22     23
     9   1     27     25     26
    10   1     30     28     29
    11   1     33     31     32
    12   1     36     34     35
    13   1     39     37     38
    14   1     42     40     41
    15   1     45     43     44
    16   1     48     46     47
    17   1     51     49     50
    18   1     54     52     53
    19   1     57     55     56
    20   1     60     58     59
    21   1     63     61     62
    22   1     66     64     65
    23   1     69     67     68
    24   1     72     70     71
    25   1     75     73     74
    26   1     78     76     77
    27   1     81     79     80
    28   1     84     82     83
    29   1     87     85     86
    30   1     90     88     89
    31   1     93     91     92
    32   1     96     94     95
    33   1     99     97     98
    34   1    102    100    101
    35   1    105    103    104
    36   1    108    106    107
    37   1    111    109    110
    38   1    114    112    113
    39   1    117    115    116
    40   1    120    118    119
    41   1    123    121    122
    42   1    126    124    125
    43   1    129    127    128
    44   1    132    130    131
    45   1    135    133    134
    46   1    138    136    137
    47   1    141    139    140
    48   1    144    142    143
    49   1    147    145    146
    50   1    150    148    149
    51   1    153    151    152
    52   1    156    154    155
    53   1    159    157    158
    54   1    162    160    161
    55   1    165    163    164
    56   1    168    166    167
    57   1    171    169    170
    58   1    174    172    173
    59   1    177    175    176
    60   1    180    178    179
    61   1    183    181    182
    62   1    186    184    185
    63   1    189    187    188
    64   1    192    190    191
    65   1    195    193    194
    66   1    198    196    197
    67   1    201    199    200
    68   1    204    202    203
    69   1    207    205    206
    70   1    210    208    209
    71   1    213    211    212
    72   1    216    214    215
    73   1    219    217    218
    74   1    222    220    221
    75   1    225    223    224
    76   1    228    226    227
    77   1    231    229    230
    78   1    234    232    233
    79   1    237    235    236
    80   1    240    238    239
    81   1    243    241    242
    82   1    246    244    245
    83   1    249    247    248
    84   1    252    250    251
    85   1    255    253    254
    86   1    258    256    257
    87   1    261    259    260
    88   1    264    262    263
    89   1    267    265    266
    90   1    270    268    269
    91   1    273    271    272
    92   1    276    274    275
    93   1    279    277    278
    94   1    282    280    281
    95   1    285    283    284
    96   1    288    286    287
    97   1    291    289    290
    98   1    294    292    293
    99   1    297    295    296
   100   1    300    298    299
   101   1    303    301    302
   102   1    306    304    305
   103   1    309    307    308
   104   1    312    310    311
   105   1    315    313    314
   106   1    318    316    317
   107   1    321    319    320
   108   1    324    322    323
   109   1    327    325    326
   110   1    330    328    329
   111   1    333    331    332
   112   1    336    334    335
   113   1    339    337    338
   114   1    342    340    341
   115   1    345    343    344
   116   1    348    346    347
   117   1    351    349    350
   118   1    354    352    353
   119   1    357    355    356
   120   1    360    358    359
   121   1    363    361    362
   122   1    366    364    365
   123   1    369    367    368
   124   1    372    370    371
   125   1    375    373    374
   126   1    378    376    377
   127   1    381    379    380
   128   1    384    382    383
   129   1    387    385    386
   130   1    390    388    389
   131   1    393    391    392
   132   1    396    394    395
   133   1    399    397    398
   134   1    402    400    401
   135   1    405    403    404
   136   1    408    406    407
   137   1    411    409    410
   138   1    414    412    413
   139   1    417    415    416
   140   1    420    418    419
   141   1    423    421    422
   142   1    426    424    425
   143   1    429    427    428
   144   1    432    430    431
   145   1    435    433    434
   146   1    438    436    437
   147   1    441    439    440
   148   1    444    442    443
   149   1    447    445    446
   150   1    450    448    449
   151   1    453    451    452
   152   1    456    454    455
   153   1    459    457    458
   154   1    462    460    461
   155   1    465    463    464
   156   1    468    466    467
   157   1    471    469    470
   158   1    474    472    473
   159   1    477    475    476
   160   1    480    478    479
   161   1    483    481    482
   162   1    486    484    485
   163   1    489    487    488
   164   1    492    490    491
   165   1    495    493    494
   166   1    498    496    497
   167   1    501    499    500
   168   1    504    502    503
   169   1    507    505    506
   170   1    510    508    509
   171   1    513    511    512
   172   1    516    514    515
   173   1    519    517    518
   174   1    522    520    521
   175   1    525    523    524
   176   1    528    526    527
   177   1    531    529    530
   178   1    534    532    533
   179   1    537    535    536
   180   1    540    538    539
   181   1    543    541    542
   182   1    546    544    545
   183   1    549    547    548
   184   1    552    550    551
   185   1    555    553    554
   186   1    558    556    557
   187   1    561    559    560
   188   1    564    562    563
   189   1    567    565    566
   190   1    570    568    569
   191   1    573    571    572
   192   1    576    574    575
   193   1    579    577    578
   194   1    582    580    581
   195   1    585    583    584
   196   1    588    586    587
   197   1    591    589    590
   198   1    594    592    593
   199   1    597    595    596
   200   1    600    598    599
   201   1    603    601    602
   202   1    606    604    605
   203   1    609    607    608
   204   1    612    610    611
   205   1    615    613    614
   206   1    618    616    617
   207   1    621    619    620
   208   1    624    622    623
   209   1    627    625    626
   210   1    630    628    629
   211   1    633    631    632
   212   1    636    634    635
   213   1    639    637    638
   214   1    642    640    641
   215   1    645    643    644
   216   1    648    646    647
   217   1    651    649    650
   218   1    654    652    653
   219   1    657    655    656
   220   1    660    658    659
   221   1    663    661    662
   222   1    666    664    665
   223   1    669    667    668
   224   1    672    670    671
   225   1    675    673    674
   226   1    678    676    677
   227   1    681    679    680
   228   1    684    682    683
   229   1    687    685    686
   230   1    690    688    689
   231   1    693    691    692
   232   1    696    694    695
   233   1    699    697    698
   234   1    702    700    701
   235   1    705    703    704
   236   1    708    706    707
   237   1    711    709    710
   238   1    714    712    713
   239   1    717    715    716
   240   1    720    718    719
   241   1    723    721    722
   242   1    726    724    725
   243   1    729    727    728
   244   1    732    730    731
   245   1    735    733    734
   246   1    738    736    737
   247   1    741    739    740
   248   1    744    742    743
   249   1    747    745    746
   250   1    750    748    749
   251   1    753    751    752
   252   1    756    754    755
   253   1    759    757    758
   254   1    762    760    761
   255   1    765    763    764
   256   1    768    766    767
   257   1    771    769    770
   258   1    774    772    773
   259   1    777    775    776
   260   1    780    778    779
   261   1    783    781    782
   262   1    786    784    785
   263   1    789    787    788
   264   1    792    790    791
   265   1    795    793    794
   266   1    798    796    797
   267   1    801    799    800
   268   1    804    802    803
   269   1    807    805    806
   270   1    810    808    809
   271   1    813    811    812
   272   1    816    814    815
   273   1    819    817    818
   274   1    822    820    821
   275   1    825    823    824
   276   1    828    826    827
   277   1    831    829    830
   278   1    834    832    833
   279   1    837    835    836
   280   1    840    838    839
   281   1    843    841    842
   282   1    846    844    845
   283   1    849    847    848
   284   1    852    850    851
   285   1    855    853    854
   286   1    858    856    857
   287   1    861    859    860
   288   1    864    862    863
   289   1    867    865    866
   290   1    870    868    869
   291   1    873    871    872
   292   1    876    874    875
   293   1    879    877    878
   294   1    882    880    881
   295   1    885    883    884
   296   1    888    886    887
   297   1    891    889    890
   298   1    894    892    893
   299   1    897    895    896
   300   1    900    898    899
   301   1    903    901    902
   302   1    906    904    905
   303   1    909    907    908
   304   1    912    910    911
   305   1    915    913    914
   306   1    918    916    917
   307   1    921    919    920
   308   1    924    922    923
   309   1    927    925    926
   310   1    930    928    929
   311   1    933    931    932
   312   1    936    934    935
   313   1    939    937    938
   314   1    942    940    941
   315   1    945    943    944
   316   1    948    946    947
   317   1    951    949    950
   318   1    954    952    953
   319   1    957    955    956
   320   1    960    958    959
   321   1    963    961    962
   322   1    966    964    965
   323   1    969    967    968
   324   1    972    970    971
   325   1    975    973    974
   326   1    978    976    977
   327   1    981    979    980
   328   1    984    982    983
   329   1    987    985    986
   330   1    990    988    989
   331   1    993    991    992
   332   1    996    994    995
   333   1    999    997    998
   334   1   1002   1000   1001
   335   1   1005   1003   1004
   336   1   1008   1006   1007
   337   1   1011   1009   1010
   338   1   1014   1012   1013
   339   1   1017   1015   1016
   340   1   1020   1018   1019
   341   1   1023   1021   1022
   342   1   1026   1024   1025
   343   1   1029   1027   1028
   344   1   1032   1030   1031
   345   1   1035   1033   1034
   346   1   1038   1036   1037
   347   1   1041   1039   1040
   348   1   1044   1042   1043
   349   1   1047   1045   1046
   350   1   1050   1048   1049
   351   1   1053   1051   1052
   352   1   1056   1054   1055
   353   1   1059   1057   1058
   354   1   1062   1060   1061
   355   1   1065   1063   1064
   356   1   1068   1066   1067
   357   1   1071   1069   1070
   358   1   1074   1072   1073
   359   1   1077   1075   1076
   360   1   1080   1078   1079
   361   1   1083   1081   1082
   362   1   1086   1084   1085
   363   1   1089   1087   1088
   364   1   1092   1090   1091
   365   1   1095   1093   1094
   366   1   1098   1096   1097
   367   1   1101   1099   1100
   368   1   1104   1102   1103
   369   1   1107   1105   1106
   370   1   1110   1108   1109
   371   1   1113   1111   1112
   372   1   1116   1114   1115
   373   1   1119   1117   1118
   374   1   1122   1120   1121
   375   1   1125   1123   1124
   376   1   1128   1126   1127
   377   1   1131   1129   1130
   378   1   1134   1132   1133
   379   1   1137   1135   1136
   380   1   1140   1138   1139
   381   1   1143   1141   1142
   382   1   1146   1144   1145
   383   1   1149   1147   1148
   384   1   1152   1150   1151
   385   1   1155   1153   1154
   386   1   1158   1156   1157
   387   1   1161   1159   1160
   388   1   1164   1162   1163
   389   1   1167   1165   1166
   390   1   1170   1168   1169
   391   1   1173   1171   1172
   392   1   1176   1174   1175
   393   1   1179   1177   1178
   394   1   1182   1180   1181
   395   1   1185   1183   1184
   396   1   1188   1186   1187
   397   1   1191   1189   1190
   398   1   1194   1192   1193
   399   1   1197   1195   1196
   400   1   1200   1198   1199
   401   1   1203   1201   1202
   402   1   1206   1204   1205
   403   1   1209   1207   1208
   404   1   1212   1210   1211
   405   1   1215   1213   1214
   406   1   1218   1216   1217
   407   1   1221   1219   1220
   408   1   1224   1222   1223
   409   1   1227   1225   1226
   410   1   1230   1228   1229
   411   1   1233   1231   1232
   412   1   1236   1234   1235
   413   1   1239   1237   1238
   414   1   1242   1240   1241
   415   1   1245   1243   1244
   416   1   1248   1246   1247
   417   1   1251   1249   1250
   418   1   1254   1252   1253
   419   1   1257   1255   1256
   420   1   1260   1258   1259
   421   1   1263   1261   1262
   422   1   1266   1264   1265
   423   1   1269   1267   1268
   424   1   1272   1270   1271
   425   1   1275   1273   1274
   426   1   1278   1276   1277
   427   1   1281   1279   1280
   428   1   1284   1282   1283
   429   1   1287   1285   1286
   430   1   1290   1288   1289
   431   1   1293   1291   1292
   432   1   1296   1294   1295
   433   1   1299   1297   1298
   434   1   1302   1300   1301
   435   1   1305   1303   1304
   436   1   1308   1306   1307
   437   1   1311   1309   1310
   438   1   1314   1312   1313
   439   1   1317   1315   1316
   440   1   1320   1318   1319
   441   1   1323   1321   1322
   442   1   1326   1324   1325
   443   1   1329   1327   1328
   444   1   1332   1330   1331
   445   1   1335   1333   1334
   446   1   1338   1336   1337
   447   1   1341   1339   1340
   448   1   1344   1342   1343
   449   1   1347   1345   1346
   450   1   1350   1348   1349
   451   1   1353   1351   1352
   452   1   1356   1354   1355
   453   1   1359   1357   1358
   454   1   1362   1360   1361
   455   1   1365   1363   1364
   456   1   1368   1366   1367
   457   1   1371   1369   1370
   458   1   1374   1372   1373
   459   1   1377   1375   1376
   460   1   1380   1378   1379
   461   1   1383   1381   1382
   462   1   1386   1384   1385
   463   1   1389   1387   1388
   464   1   1392   1390   1391
   465   1   1395   1393   1394
   466   1   1398   1396   1397
   467   1   1401   1399   1400
   468   1   1404   1402   1403
   469   1   1407   1405   1406
   470   1   1410   1408   1409
   471   1   1413   1411   1412
   472   1   1416   1414   1415
   473   1   1419   1417   1418
   474   1   1422   1420   1421
   475   1   1425   1423   1424
   476   1   1428   1426   1427
   477   1   1431   1429   1430
   478   1   1434   1432   1433
   479   1   1437   1435   1436
   480   1   1440   1438   1439
   481   1   1443   1441   1442
   482   1   1446   1444   1445
   483   1   1449   1447   1448
   484   1   1452   1450   1451
   485   1   1455   1453   1454
   486   1   1458   1456   1457
   487   1   1461   1459   1460
   488   1   1464   1462   1463
   489   1   1467   1465   1466
   490   1   1470   1468   1469
   491   1   1473   1471   1472
   492   1   1476   1474   1475
   493   1   1479   1477   1478
   494   1   1482   1480   1481
   495   1   1485   1483   1484
   496   1   1488   1486   1487
   497   1   1491   1489   1490
   498   1   1494   1492   1493
   499   1   1497   1495   1496
   500   1   1500   1498   1499
   501   1   1503   1501   1502
   502   1   1506   1504   1505
   503   1   1509   1507   1508
   504   1   1512   1510   1511
   505   1   1515   1513   1514
   506   1   1518   1516   1517
   507   1   1521   1519   1520
   508   1   1524   1522   1523
   509   1   1527   1525   1526
   510   1   1530   1528   1529
   511   1   1533   1531   1532
   512   1   1536   1534   1535
   513   1   1539   1537   1538
   514   1   1542   1540   1541
   515   1   1545   1543   1544
   516   1   1548   1546   1547
   517   1   1551   1549   1550
   518   1   1554   1552   1553
   519   1   1557   1555   1556
   520   1   1560   1558   1559
   521   1   1563   1561   1562
   522   1   1566   1564   1565
   523   1   1569   1567   1568
   524   1   1572   1570   1571
   525   1   1575   1573   1574
   526   1   1578   1576   1577
   527   1   1581   1579   1580
   528   1   1584   1582   1583
   529   1   1587   1585   1586
   530   1   1590   1588   1589
   531   1   1593   1591   1592
   532   1   1596   1594   1595
   533   1   1599   1597   1598
   534   1   1602   1600   1601
   535   1   1605   1603   1604
   536   1   1608   1606   1607
   537   1   1611   1609   1610
   538   1   1614   1612   1613
   539   1   1617   1615   1616
   540   1   1620   1618   1619
   541   1   1623   1621   1622
   542   1   1626   1624   1625
   543   1   1629   1627   1628
   544   1   1632   1630   1631
   545   1   1635   1633   1634
   546   1   1638   1636   1637
   547   1   1641   1639   1640
   548   1   1644   1642   1643
   549   1   1647   1645   1646
   550   1   1650   1648   1649
   551   1   1653   1651   1652
   552   1   1656   1654   1655
   553   1   1659   1657   1658
   554   1   1662   1660   1661
   555   1   1665   1663   1664
   556   1   1668   1666   1667
   557   1   1671   1669   1670
   558   1   1674   1672   1673
   559   1   1677   1675   1676
   560   1   1680   1678   1679
   561   1   1683   1681   1682
   562   1   1686   1684   1685
   563   1   1689   1687   1688
   564   1   1692   1690   1691
   565   1   1695   1693   1694
   566   1   1698   1696   1697
   567   1   1701   1699   1700
   568   1   1704   1702   1703
   569   1   1707   1705   1706
   570   1   1710   1708   1709
   571   1   1713   1711   1712
   572   1   1716   1714   1715
   573   1   1719   1717   1718
   574   1   1722   1720   1721
   575   1   1725   1723   1724
   576   1   1728   1726   1727
   577   1   1731   1729   1730
   578   1   1734   1732   1733
   579   1   1737   1735   1736
   580   1   1740   1738   1739
   581   1   1743   1741   1742
   582   1   1746   1744   1745
   583   1   1749   1747   1748
   584   1   1752   1750   1751
   585   1   1755   1753   1754
   586   1   1758   1756   1757
   587   1   1761   1759   1760
   588   1   1764   1762   1763
   589   1   1767   1765   1766
   590   1   1770   1768   1769
   591   1   1773   1771   1772
   592   1   1776   1774   1775
   593   1   1779   1777   1778
   594   1   1782   1780   1781
   595   1   1785   1783   1784
   596   1   1788   1786   1787
   597   1   1791   1789   1790
   598   1   1794   1792   1793
   599   1   1797   1795   1796
   600   1   1800   1798   1799
   601   1   1803   1801   1802
   602   1   1806   1804   1805
   603   1   1809   1807   1808
   604   1   1812   1810   1811
   605   1   1815   1813   1814
   606   1   1818   1816   1817
   607   1   1821   1819   1820
   608   1   1824   1822   1823
   609   1   1827   1825   1826
   610   1   1830   1828   1829
   611   1   1833   1831   1832
   612   1   1836   1834   1835
   613   1   1839   1837   1838
   614   1   1842   1840   1841
   615   1   1845   1843   1844
   616   1   1848   1846   1847
   617   1   1851   1849   1850
   618   1   1854   1852   1853
   619   1   1857   1855   1856
   620   1   1860   1858   1859
   621   1   1863   1861   1862
   622   1   1866   1864   1865
   623   1   1869   1867   1868
   624   1   1872   1870   1871
   625   1   1875   1873   1874
   626   1   1878   1876   1877
   627   1   1881   1879   1880
   628   1   1884   1882   1883
   629   1   1887   1885   1886
   630   1   1890   1888   1889
   631   1   1893   1891   1892
   632   1   1896   1894   1895
   633   1   1899   1897   1898
   634   1   1902   1900   1901
   635   1   1905   1903   1904
   636   1   1908   1906   1907
   637   1   1911   1909   1910
   638   1   1914   1912   1913
   639   1   1917   1915   1916
   640   1   1920   1918   1919
   641   1   1923   1921   1922
   642   1   1926   1924   1925
   643   1   1929   1927   1928
   644   1   1932   1930   1931
   645   1   1935   1933   1934
   646   1   1938   1936   1937
   647   1   1941   1939   1940
   648   1   1944   1942   1943
   649   1   1947   1945   1946
   650   1   1950   1948   1949
   651   1   1953   1951   1952
   652   1   1956   1954   1955
   653   1   1959   1957   1958
   654   1   1962   1960   1961
   655   1   1965   1963   1964
   656   1   1968   1966   1967
   657   1   1971   1969   1970
   658   1   1974   1972   1973
   659   1   1977   1975   1976
   660   1   1980   1978   1979
   661   1   1983   1981   1982
   662   1   1986   1984   1985
   663   1   1989   1987   1988
   664   1   1992   1990   1991
   665   1   1995   1993   1994
   666   1   1998   1996   1997
   667   1   2001   1999   2000
   668   1   2004   2002   2003
   669   1   2007   2005   2006
   670   1   2010   2008   2009
   671   1   2013   2011   2012
   672   1   2016   2014   2015
   673   1   2019   2017   2018
   674   1   2022   2020   2021
   675   1   2025   2023   2024
   676   1   2028   2026   2027
   677   1   2031   2029   2030
   678   1   2034   2032   2033
   679   1   2037   2035   2036
   680   1   2040   2038   2039
   681   1   2043   2041   2042
   682   1   2046   2044   2045
   683   1   2049   2047   2048
   684   1   2052   2050   2051
   685   1   2055   2053   2054
   686   1   2058   2056   2057
   687   1   2061   2059   2060
   688   1   2064   2062   2063
   689   1   2067   2065   2066
   690   1   2070   2068   2069
   691   1   2073   2071   2072
   692   1   2076   2074   2075
   693   1   2079   2077   2078
   694   1   2082   2080   2081
   695   1   2085   2083   2084
   696   1   2088   2086   2087
   697   1   2091   2089   2090
   698   1   2094   2092   2093
   699   1   2097   2095   2096
   700   1   2100   2098   2099
   701   1   2103   2101   2102
   702   1   2106   2104   2105
   703   1   2109   2107   2108
   704   1   2112   2110   2111
   705   1   2115   2113   2114
   706   1   2118   2116   2117
   707   1   2121   2119   2120
   708   1   2124   2122   2123
   709   1   2127   2125   2126
   710   1   2130   2128   2129
   711   1   2133   2131   2132
   712   1   2136   2134   2135
   713   1   2139   2137   2138
   714   1   2142   2140   2141
   715   1   2145   2143   2144
   716   1   2148   2146   2147
   717   1   2151   2149   2150
   718   1   2154   2152   2153
   719   1   2157   2155   2156
   720   1   2160   2158   2159
   721   1   2163   2161   2162
   722   1   2166   2164   2165
   723   1   2169   2167   2168
   724   1   2172   2170   2171
   725   1   2175   2173   2174
   726   1   2178   2176   2177
   727   1   2181   2179   2180
   728   1   2184   2182   2183
   729   1   2187   2185   2186
   730   1   2190   2188   2189
   731   1   2193   2191   2192
   732   1   2196   2194   2195
   733   1   2199   2197   2198
   734   1   2202   2200   2201
   735   1   2205   2203   2204
   736   1   2208   2206   2207
   737   1   2211   2209   2210
   738   1   2214   2212   2213
   739   1   2217   2215   2216
   740   1   2220   2218   2219
   741   1   2223   2221   2222
   742   1   2226   2224   2225
   743   1   2229   2227   2228
   744   1   2232   2230   2231
   745   1   2235   2233   2234
   746   1   2238   2236   2237
   747   1   2241   2239   2240
   748   1   2244   2242   2243
   749   1   2247   2245   2246
   750   1   2250   2248   2249
   751   1   2253   2251   2252
   752   1   2256   2254   2255
   753   1   2259   2257   2258
   754   1   2262   2260   2261
   755   1   2265   2263   2264
   756   1   2268   2266   2267
   757   1   2271   2269   2270
   758   1   2274   2272   2273
   759   1   2277   2275   2276
   760   1   2280   2278   2279
   761   1   2283   2281   2282
   762   1   2286   2284   2285
   763   1   2289   2287   2288
   764   1   2292   2290   2291
   765   1   2295   2293   2294
   766   1   2298   2296   2297
   767   1   2301   2299   2300
   768   1   2304   2302   2303
   769   1   2307   2305   2306
   770   1   2310   2308   2309
   771   1   2313   2311   2312
   772   1   2316   2314   2315
   773   1   2319   2317   2318
   774   1   2322   2320   2321
   775   1   2325   2323   2324
   776   1   2328   2326   2327
   777   1   2331   2329   2330
   778   1   2334   2332   2333
   779   1   2337   2335   2336
   780   1   2340   2338   2339
   781   1   2343   2341   2342
   782   1   2346   2344   2345
   783   1   2349   2347   2348
   784   1   2352   2350   2351
   785   1   2355   2353   2354
   786   1   2358   2356   2357
   787   1   2361   2359   2360
   788   1   2364   2362   2363
   789   1   2367   2365   2366
   790   1   2370   2368   2369
   791   1   2373   2371   2372
   792   1   2376   2374   2375
   793   1   2379   2377   2378
   794   1   2382   2380   2381
   795   1   2385   2383   2384
   796   1   2388   2386   2387
   797   1   2391   2389   2390
   798   1   2394   2392   2393
   799   1   2397   2395   2396
   800   1   2400   2398   2399
   801   1   2403   2401   2402
   802   1   2406   2404   2405
   803   1   2409   2407   2408
   804   1   2412   2410   2411
   805   1   2415   2413   2414
   806   1   2418   2416   2417
   807   1   2421   2419   2420
   808   1   2424   2422   2423
   809   1   2427   2425   2426
   810   1   2430   2428   2429
   811   1   2433   2431   2432
   812   1   2436   2434   2435
   813   1   2439   2437   2438
   814   1   2442   2440   2441
   815   1   2445   2443   2444
   816   1   2448   2446   2447
   817   1   2451   2449   2450
   818   1   2454   2452   2453
   819   1   2457   2455   2456
   820   1   2460   2458   2459
   821   1   2463   2461   2462
   822   1   2466   2464   2465
   823   1   2469   2467   2468
   824   1   2472   2470   2471
   825   1   2475   2473   2474
   826   1   2478   2476   2477
   827   1   2481   2479   2480
   828   1   2484   2482   2483
   829   1   2487   2485   2486
   830   1   2490   2488   2489
   831   1   2493   2491   2492
   832   1   2496   2494   2495
   833   1   2499   2497   2498
   834   1   2502   2500   2501
   835   1   2505   2503   2504
   836   1   2508   2506   2507
   837   1   2511   2509   2510
   838   1   2514   2512   2513
   839   1   2517   2515   2516
   840   1   2520   2518   2519
   841   1   2523   2521   2522
   842   1   2526   2524   2525
   843   1   2529   2527   2528
   844   1   2532   2530   2531
   845   1   2535   2533   2534
   846   1   2538   2536   2537
   847   1   2541   2539   2540
   848   1   2544   2542   2543
   849   1   2547   2545   2546
   850   1   2550   2548   2549
   851   1   2553   2551   2552
   852   1   2556   2554   2555
   853   1   2559   2557   2558
   854   1   2562   2560   2561
   855   1   2565   2563   2564
   856   1   2568   2566   2567
   857   1   2571   2569   2570
   858   1   2574   2572   2573
   859   1   2577   2575   2576
   860   1   2580   2578   2579
   861   1   2583   2581   2582
   862   1   2586   2584   2585
   863   1   2589   2587   2588
   864   1   2592   2590   2591
   865   1   2595   2593   2594
   866   1   2598   2596   2597
   867   1   2601   2599   2600
   868   1   2604   2602   2603
   869   1   2607   2605   2606
   870   1   2610   2608   2609
   871   1   2613   2611   2612
   872   1   2616   2614   2615
   873   1   2619   2617   2618
   874   1   2622   2620   2621
   875   1   2625   2623   2624
   876   1   2628   2626   2627
   877   1   2631   2629   2630
   878   1   2634   2632   2633
   879   1   2637   2635   2636
   880   1   2640   2638   2639
   881   1   2643   2641   2642
   882   1   2646   2644   2645
   883   1   2649   2647   2648
   884   1   2652   2650   2651
   885   1   2655   2653   2654
   886   1   2658   2656   2657
   887   1   2661   2659   2660
   888   1   2664   2662   2663
   889   1   2667   2665   2666
   890   1   2670   2668   2669
   891   1   2673   2671   2672
   892   1   2676   2674   2675
   893   1   2679   2677   2678
   894   1   2682   2680   2681
   895   1   2685   2683   2684
   896   1   2688   2686   2687
   897   1   2691   2689   2690
   898   1   2694   2692   2693
   899   1   2697   2695   2696
   900   1   2700   2698   2699
   901   1   2703   2701   2702
   902   1   2706   2704   2705
   903   1   2709   2707   2708
   904   1   2712   2710   2711
   905   1   2715   2713   2714
   906   1   2718   2716   2717
   907   1   2721   2719   2720
   908   1   2724   2722   2723
   909   1   2727   2725   2726
   910   1   2730   2728   2729
   911   1   2733   2731   2732
   912   1   2736   2734   2735
   913   1   2739   2737   2738
   914   1   2742   2740   2741
   915   1   2745   2743   2744
   916   1   2748   2746   2747
   917   1   2751   2749   2750
   918   1   2754   2752   2753
   919   1   2757   2755   2756
   920   1   2760   2758   2759
   921   1   2763   2761   2762
   922   1   2766   2764   2765
   923   1   2769   2767   2768
   924   1   2772   2770   2771
   925   1   2775   2773   2774
   926   1   2778   2776   2777
   927   1   2781   2779   2780
   928   1   2784   2782   2783
   929   1   2787   2785   2786
   930   1   2790   2788   2789
   931   1   2793   2791   2792
   932   1   2796   2794   2795
   933   1   2799   2797   2798
   934   1   2802   2800   2801
   935   1   2805   2803   2804
   936   1   2808   2806   2807
   937   1   2811   2809   2810
   938   1   2814   2812   2813
   939   1   2817   2815   2816
   940   1   2820   2818   2819
   941   1   2823   2821   2822
   942   1   2826   2824   2825
   943   1   2829   2827   2828
   944   1   2832   2830   2831
   945   1   2835   2833   2834
   946   1   2838   2836   2837
   947   1   2841   2839   2840
   948   1   2844   2842   2843
   949   1   2847   2845   2846
   950   1   2850   2848   2849
   951   1   2853   2851   2852
   952   1   2856   2854   2855
   953   1   2859   2857   2858
   954   1   2862   2860   2861
   955   1   2865   2863   2864
   956   1   2868   2866   2867
   957   1   2871   2869   2870
   958   1   2874   2872   2873
   959   1   2877   2875   2876
   960   1   2880   2878   2879
   961   1   2883   2881   2882
   962   1   2886   2884   2885
   963   1   2889   2887   2888
   964   1   2892   2890   2891
   965   1   2895   2893   2894
   966   1   2898   2896   2897
   967   1   2901   2899   2900
   968   1   2904   2902   2903
   969   1   2907   2905   2906
   970   1   2910   2908   2909
   971   1   2913   2911   2912
   972   1   2916   2914   2915
   973   1   2919   2917   2918
   974   1   2922   2920   2921
   975   1   2925   2923   2924
   976   1   2928   2926   2927
   977   1   2931   2929   2930
   978   1   2934   2932   2933
   979   1   2937   2935   2936
   980   1   2940   2938   2939
   981   1   2943   2941   2942
   982   1   2946   2944   2945
   983   1   2949   2947   2948
   984   1   2952   2950   2951
   985   1   2955   2953   2954
   986   1   2958   2956   2957
   987   1   2961   2959   2960
   988   1   2964   2962   2963
   989   1   2967   2965   2966
   990   1   2970   2968   2969
   991   1   2973   2971   2972
   992   1   2976   2974   2975
   993   1   2979   2977   2978
   994   1   2982   2980   2981
   995   1   2985   2983   2984
   996   1   2988   2986   2987
   997   1   2991   2989   2990
   998   1   2994   2992   2993
   999   1   2997   2995   2996
  1000   1   3000   2998   2999

