LAMMPS data file. msi2lmp v3.9.6 / 11 Sep 2014 / CGCMM for Tob14_004_water_cV07_r00

   4896 atoms
   3520 bonds
   3248 angles
   2016 dihedrals
      0 impropers

  11 atom types
   7 bond types
  11 angle types
   9 dihedral types

    -0.223366168    22.306233832 xlo xhi
    -0.060551640    22.214448360 ylo yhi
    -0.576385041   103.013614959 zlo zhi

Masses

   1  15.999400 # o*
   2   1.007970 # h*
   3  15.999400 # oc22
   4  40.080000 # ca+t
   5  28.086000 # sc2
   6  28.086000 # sc3
   7  15.999400 # oc12
   8  15.999400 # oc13
   9  15.999400 # oc14
  10   1.008000 # hoy
  11  40.080000 # casl

Pair Coeffs # lj/cut/coul/long

   1   0.1554164124   3.1655200879 # o*
   2   0.0000000000   0.0000000000 # h*
   3   0.1900000014   3.3854151269 # oc22
   4   0.2899999992   3.0290556424 # ca+t
   5   0.5099999995   4.0535891679 # sc2
   6   0.5099999995   4.0535891679 # sc3
   7   0.1599999980   3.0290556449 # oc12
   8   0.1400000021   2.7796039973 # oc13
   9   0.1199999991   3.0914185538 # oc14
  10   0.0159969724   0.9666649776 # hoy
  11   0.2900000032   2.8954208313 # casl

Bond Coeffs # harmonic

   1   540.6336     0.9600 # o*-h*
   2   430.0000     1.5900 # oc22-sc3
   3   300.0000     1.7100 # sc2-oc12
   4   300.0000     1.6200 # sc2-oc13
   5   300.0000     1.6700 # sc3-oc12
   6   430.0000     1.6800 # sc3-oc14
   7   495.0000     0.9450 # oc14-hoy

Angle Coeffs # harmonic

   1    50.0000   104.5000 # h*-o*-h*
   2   170.0000   111.5000 # oc12-sc2-oc13
   3   170.0000   100.2000 # oc12-sc2-oc12
   4   170.0000   112.5000 # oc13-sc2-oc13
   5   170.0000   107.0000 # oc22-sc3-oc12
   6   170.0000   111.0000 # oc22-sc3-oc14
   7   170.0000   111.0000 # oc12-sc3-oc14
   8   170.0000   107.0000 # oc12-sc3-oc12
   9   170.0000   139.0000 # sc2-oc12-sc3
  10   170.0000   144.0000 # sc2-oc12-sc2
  11    50.0000   115.0000 # sc3-oc14-hoy

Dihedral Coeffs # harmonic

  1     0.0000   1   3 # oc13-sc2-oc12-sc2
  2     0.0000   1   3 # oc12-sc2-oc12-sc2
  3     0.0000   1   3 # oc12-sc2-oc12-sc3
  4     0.0000   1   3 # oc13-sc2-oc12-sc3
  5     0.0000   1   3 # oc22-sc3-oc12-sc2
  6     0.0000   1   3 # oc14-sc3-oc12-sc2
  7     0.0000   1   3 # oc12-sc3-oc12-sc2
  8     0.0000   1   3 # oc22-sc3-oc14-hoy
  9     0.0000   1   3 # oc12-sc3-oc14-hoy

Atoms # full

      1      1   1 -0.820000    14.046526961    15.182384711    34.883450061   0   0   0 # o*
      2      1   2  0.410000    13.445319390    15.864309759    35.210876857   0   0   0 # h*
      3      1   2  0.410000    13.943971876    15.400154704    33.900674935   0   0   0 # h*
      4      1   3 -1.080000     4.876299311     1.699302153     5.656767376   0   0   0 # oc22
      5      1   1 -0.820000     4.883618868     5.576951498     5.611522052   0   0   0 # o*
      6      1   4  1.500000     1.561875656     5.374712051     1.231611532   0   0   0 # ca+t
      7      1   4  1.500000     1.639463905     1.716671140     1.328270398   0   0   0 # ca+t
      8      1   5  1.000000     4.340912716     7.006510286     2.309856193   0   0   0 # sc2
      9      1   6  1.000000     5.153767374     1.743268070     4.137058955   0   0   0 # sc3
     10      1   5  1.000000     4.476059735     3.896941270     2.305076018   0   0   0 # sc2
     11      1   7 -0.580000     4.393195110     0.418929254     3.549526348   0   0   0 # oc12
     12      1   7 -0.580000     4.400422406     5.442935965     2.814273329   0   0   0 # oc12
     13      1   8 -0.940000     3.038408952     7.237639719     1.435378206   0   0   0 # oc13
     14      1   9 -0.670000     6.681823201     1.822311039     3.735775215   0   0   0 # oc14
     15      1   1 -0.820000     1.650217280     2.244174723     3.800962254   0   0   0 # o*
     16      1   7 -0.580000     4.382518450     2.997772082     3.637759804   0   0   0 # oc12
     17      1   8 -0.940000     3.234274696     3.709006058     1.297503717   0   0   0 # oc13
     18      1   8 -0.940000     5.733453299     3.657648862     1.472611984   0   0   0 # oc13
     19      1   1 -0.820000     1.545949372     7.295052506     6.154397381   0   0   0 # o*
     20      1  10  0.400000     7.185390119     1.846331224     4.529219297   0   0   0 # hoy
     21      1   2  0.410000     2.332059876     2.548000116     4.418133512   0   0   0 # h*
     22      1   2  0.410000     0.943349593     2.255447109     4.532326849   0   0   0 # h*
     23      1   2  0.410000     0.931281983     6.553090122     5.954724835   0   0   0 # h*
     24      1   2  0.410000     0.841670367     7.994983862     5.865619054   0   0   0 # h*
     25      1   2  0.410000     4.302171102     5.253525074     4.882261379   0   0   0 # h*
     26      1   2  0.410000     5.660757930     5.872524836     5.071986738   0   0   0 # h*
     27      2   3 -1.080000    15.770182181     1.651951277     5.848358680   0   0   0 # oc22
     28      2   1 -0.820000    16.527000806     5.557196189     5.901323056   0   0   0 # o*
     29      2   4  1.500000    12.724986125     5.288049778     1.175889437   0   0   0 # ca+t
     30      2   4  1.500000    12.826818331     1.798155361     1.257209262   0   0   0 # ca+t
     31      2   5  1.000000    15.545027305     7.000783087     2.294872778   0   0   0 # sc2
     32      2   6  1.000000    16.160815190     1.695793298     4.301036919   0   0   0 # sc3
     33      2   5  1.000000    15.601336773     3.873141578     2.261318040   0   0   0 # sc2
     34      2   7 -0.580000    15.444110497     0.371240263     3.751888687   0   0   0 # oc12
     35      2   7 -0.580000    15.552599550     5.401350420     2.774881639   0   0   0 # oc12
     36      2   8 -0.940000    14.228057135     7.304109559     1.475115201   0   0   0 # oc13
     37      2   9 -0.670000    17.796733651     1.667904226     4.089975834   0   0   0 # oc14
     38      2   1 -0.820000    12.763946071     1.697712908     3.939023744   0   0   0 # o*
     39      2   7 -0.580000    15.519737461     3.053947453     3.679618593   0   0   0 # oc12
     40      2   8 -0.940000    14.370473609     3.623404825     1.245898528   0   0   0 # oc13
     41      2   8 -0.940000    16.996909745     3.493090356     1.442718995   0   0   0 # oc13
     42      2   1 -0.820000    13.219972103     7.209286746     5.453873281   0   0   0 # o*
     43      2  10  0.400000    18.118014574     0.881727220     4.505814981   0   0   0 # hoy
     44      2   2  0.410000    13.513293719     2.279714793     4.228555795   0   0   0 # h*
     45      2   2  0.410000    13.250573524     0.796018534     3.975818883   0   0   0 # h*
     46      2   2  0.410000    13.588361731     7.633822078     4.642026667   0   0   0 # h*
     47      2   2  0.410000    12.915933387     6.382392038     4.928678403   0   0   0 # h*
     48      2   2  0.410000    16.278441314     4.875447478     5.209154125   0   0   0 # h*
     49      2   2  0.410000    17.091667863     5.068652011     6.556425921   0   0   0 # h*
     50      3   3 -1.080000     4.991627788     8.975633813     5.817221640   0   0   0 # oc22
     51      3   1 -0.820000     5.339292570    12.879276030     6.532993351   0   0   0 # o*
     52      3   4  1.500000     1.463831639    12.836471075     1.255667553   0   0   0 # ca+t
     53      3   4  1.500000     1.567333861     9.033756090     1.396933789   0   0   0 # ca+t
     54      3   5  1.000000     4.383563799    14.383765503     2.375261378   0   0   0 # sc2
     55      3   6  1.000000     5.125726614     9.056031009     4.249273486   0   0   0 # sc3
     56      3   5  1.000000     4.305426375    11.341052581     2.451491952   0   0   0 # sc2
     57      3   7 -0.580000     4.250102114     7.888810661     3.636570203   0   0   0 # oc12
     58      3   7 -0.580000     4.348674663    12.869845776     2.956622555   0   0   0 # oc12
     59      3   8 -0.940000     3.029023968    14.646738677     1.559674159   0   0   0 # oc13
     60      3   9 -0.670000     6.680128899     8.943587831     3.864888561   0   0   0 # oc14
     61      3   1 -0.820000     1.579758303     9.161197373     4.103374448   0   0   0 # o*
     62      3   7 -0.580000     4.490886133    10.486010433     3.806013307   0   0   0 # oc12
     63      3   8 -0.940000     2.974360073    10.952241051     1.711534708   0   0   0 # oc13
     64      3   8 -0.940000     5.473440527    11.070802714     1.364018469   0   0   0 # oc13
     65      3   1 -0.820000     2.092760830    14.760439999     5.716454151   0   0   0 # o*
     66      3  10  0.400000     7.031555197     8.481644755     4.594972507   0   0   0 # hoy
     67      3   2  0.410000     2.263368064     9.891961755     4.367457892   0   0   0 # h*
     68      3   2  0.410000     2.085682611     8.374783634     4.231909466   0   0   0 # h*
     69      3   2  0.410000     2.028913829    14.989732781     4.795760985   0   0   0 # h*
     70      3   2  0.410000     1.304909103    14.317495930     5.913233680   0   0   0 # h*
     71      3   2  0.410000     5.302760023    12.177489221     7.156806283   0   0   0 # h*
     72      3   2  0.410000     6.315067803    12.890212649     6.280623092   0   0   0 # h*
     73      4   3 -1.080000    16.182335229     9.151960824     5.783781798   0   0   0 # oc22
     74      4   1 -0.820000    16.055277925    12.926945192     5.773998431   0   0   0 # o*
     75      4   4  1.500000    12.692501180    12.889230569     1.066871493   0   0   0 # ca+t
     76      4   4  1.500000    12.756220301     9.228014039     1.015416130   0   0   0 # ca+t
     77      4   5  1.000000    15.532109795    14.370590134     2.184493502   0   0   0 # sc2
     78      4   6  1.000000    16.367523535     9.152237951     4.206602881   0   0   0 # sc3
     79      4   5  1.000000    15.549003000    11.250903269     2.196484858   0   0   0 # sc2
     80      4   7 -0.580000    15.587266533     7.854556460     3.729113723   0   0   0 # oc12
     81      4   7 -0.580000    15.567594814    12.805712733     2.779803182   0   0   0 # oc12
     82      4   8 -0.940000    14.265494531    14.633210428     1.282399092   0   0   0 # oc13
     83      4   9 -0.670000    17.949496086     9.077001493     3.876635683   0   0   0 # oc14
     84      4   1 -0.820000    12.942460576     9.510828806     3.736172241   0   0   0 # o*
     85      4   7 -0.580000    15.639298755    10.449851138     3.648531020   0   0   0 # oc12
     86      4   8 -0.940000    14.247472622    10.930760981     1.361893859   0   0   0 # oc13
     87      4   8 -0.940000    16.938851562    11.002149353     1.343457221   0   0   0 # oc13
     88      4   1 -0.820000    12.593534302    14.771893014     6.516444459   0   0   0 # o*
     89      4  10  0.400000    18.245275170     8.660188624     4.627057334   0   0   0 # hoy
     90      4   2  0.410000    13.546899857    10.254571461     3.823946719   0   0   0 # h*
     91      4   2  0.410000    12.300036242     9.795460951     4.418083855   0   0   0 # h*
     92      4   2  0.410000    12.126860219    13.939324297     6.319564884   0   0   0 # h*
     93      4   2  0.410000    11.910020618    15.434339985     6.340992163   0   0   0 # h*
     94      4   2  0.410000    15.607583061    12.688243434     4.910035670   0   0   0 # h*
     95      4   2  0.410000    16.935159886    13.178013288     5.448888303   0   0   0 # h*
     96      5   3 -1.080000     4.906127921    16.676778158     5.819086924   0   0   0 # oc22
     97      5   1 -0.820000     4.999071466    20.143413298     6.345559540   0   0   0 # o*
     98      5   4  1.500000     1.463064410    20.314067033     1.192592522   0   0   0 # ca+t
     99      5   4  1.500000     1.595687317    16.504037069     1.460035708   0   0   0 # ca+t
    100      5   5  1.000000     4.396449348    21.850590585     2.183665740   0   0   0 # sc2
    101      5   6  1.000000     5.187963346    16.632193051     4.249356626   0   0   0 # sc3
    102      5   5  1.000000     4.358150615    18.756703827     2.238857804   0   0   0 # sc2
    103      5   7 -0.580000     4.437499869    15.334317304     3.766701181   0   0   0 # oc12
    104      5   7 -0.580000     4.250599263    20.317006075     2.732976980   0   0   0 # oc12
    105      5   8 -0.940000     3.077530892    22.144557976     1.371784528   0   0   0 # oc13
    106      5   9 -0.670000     6.780909307    16.575993861     3.853615380   0   0   0 # oc14
    107      5   1 -0.820000     1.545160297    16.908915872     4.003811185   0   0   0 # o*
    108      5   7 -0.580000     4.472444302    17.958387759     3.655590063   0   0   0 # oc12
    109      5   8 -0.940000     3.042493736    18.307085039     1.396867265   0   0   0 # oc13
    110      5   8 -0.940000     5.613162180    18.476559740     1.269020592   0   0   0 # oc13
    111      5  10  0.400000     7.387949291    16.279993960     4.548311163   0   0   0 # hoy
    112      5   2  0.410000     2.294859388    17.364652329     4.367506608   0   0   0 # h*
    113      5   2  0.410000     0.830403053    17.334556523     4.519302312   0   0   0 # h*
    114      5   2  0.410000     5.301917949    19.474346590     7.006916136   0   0   0 # h*
    115      5   2  0.410000     4.942958342    19.462193847     5.630932872   0   0   0 # h*
    116      6   3 -1.080000    15.932169616    16.510710004     5.654205970   0   0   0 # oc22
    117      6   1 -0.820000    16.314246351    20.520342135     5.956764171   0   0   0 # o*
    118      6   4  1.500000    12.760850859    20.333606614     1.142716087   0   0   0 # ca+t
    119      6   4  1.500000    12.966560215    16.621043643     1.186547156   0   0   0 # ca+t
    120      6   5  1.000000    15.563962676    21.811857329     2.426605261   0   0   0 # sc2
    121      6   6  1.000000    16.098487437    16.571615492     4.092535297   0   0   0 # sc3
    122      6   5  1.000000    15.529244898    18.799552325     2.261000591   0   0   0 # sc2
    123      6   7 -0.580000    15.372075586    15.298507006     3.600565843   0   0   0 # oc12
    124      6   7 -0.580000    15.572678472    20.321903814     2.902537938   0   0   0 # oc12
    125      6   8 -0.940000    14.312164971    22.127316186     1.426575142   0   0   0 # oc13
    126      6   9 -0.670000    17.700422956    16.591596792     3.680762561   0   0   0 # oc14
    127      6   1 -0.820000    12.827835220    16.648077442     4.243924017   0   0   0 # o*
    128      6   7 -0.580000    15.404175235    17.842057348     3.578573036   0   0   0 # oc12
    129      6   8 -0.940000    14.339444095    18.647638662     1.248005969   0   0   0 # oc13
    130      6   8 -0.940000    16.888177071    18.445405548     1.454724071   0   0   0 # oc13
    131      6  10  0.400000    18.136219743    16.550358752     4.558951158   0   0   0 # hoy
    132      6   2  0.410000    13.728768325    16.682518230     4.594421484   0   0   0 # h*
    133      6   2  0.410000    12.535049216    17.482105841     4.700322301   0   0   0 # h*
    134      6   2  0.410000    16.105178050    20.011391579     5.137783261   0   0   0 # h*
    135      6   2  0.410000    16.645433067    19.840217436     6.545152098   0   0   0 # h*
    136      7   4  1.500000     2.268098109     3.685020051    15.002488370   0   0   0 # ca+t
    137      7   4  1.500000    22.245514398     5.632206955    12.716999654  -1   0   0 # ca+t
    138      7   5  1.000000     2.332503774     3.426383530    11.866366417   0   0   0 # sc2
    139      7   6  1.000000     3.215525570     5.510526423     9.885956120   0   0   0 # sc3
    140      7   5  1.000000     2.380159891     0.365340439    11.877973224   0   0   0 # sc2
    141      7   7 -0.580000     2.359707989     4.261637670    10.459990072   0   0   0 # oc12
    142      7   7 -0.580000     2.458137355     1.866259879    11.321131360   0   0   0 # oc12
    143      7   8 -0.940000     3.677386548     3.716464120    12.809703265   0   0   0 # oc13
    144      7   8 -0.940000     1.083895491     3.723110126    12.734081497   0   0   0 # oc13
    145      7   3 -1.080000     4.376570499     1.947355752    81.231585124   0   0   0 # oc22
    146      7   9 -0.670000     4.772039962     5.298500328    10.228404955   0   0   0 # oc14
    147      7   1 -0.820000    -0.196335364     5.871390095     9.917100321   0   0   0 # o*
    148      7   7 -0.580000     2.582161767     6.880362545    10.470801665   0   0   0 # oc12
    149      7   8 -0.940000     1.003416591     0.086237200    12.779766413   0   0   0 # oc13
    150      7   1 -0.820000     4.717067267     5.575946392    81.182909553   0   0   0 # o*
    151      7   1 -0.820000     0.731870398     3.848571385     8.280048711   0   0   0 # o*
    152      7  11  1.700000     4.063074279    -0.053990564     6.918909166   0   0   0 # casl
    153      7   1 -0.820000     2.589057895     3.686935815     6.155954468   0   0   0 # o*
    154      7   4  1.500000     0.995950680     5.559002721    76.587459840   0   0   0 # ca+t
    155      7   4  1.500000     4.064861599     3.746107515    26.682577223   0   0   0 # ca+t
    156      7   5  1.000000     1.177708535     5.160628185    25.723646003   0   0   0 # sc2
    157      7   6  1.000000     1.774869349     7.367494335    23.700485811   0   0   0 # sc3
    158      7   5  1.000000     1.148488434     2.120846422    25.657490239   0   0   0 # sc2
    159      7   7 -0.580000     1.064489080     6.068176011    24.366432650   0   0   0 # oc12
    160      7   7 -0.580000     1.167290801     3.635597864    25.126501921   0   0   0 # oc12
    161      7   8 -0.940000     2.505355050     5.414707954    26.596885853   0   0   0 # oc13
    162      7   8 -0.940000    -0.063103699     5.371433871    26.688215613   0   0   0 # oc13
    163      7   3 -1.080000     0.226965632     3.757152450    19.722625841   0   0   0 # oc22
    164      7   9 -0.670000     3.361045677     7.370199125    23.863110611   0   0   0 # oc14
    165      7   1 -0.820000     3.978752396     4.021389191    23.967065643   0   0   0 # o*
    166      7   7 -0.580000     1.056012732     1.163827949    24.325566935   0   0   0 # oc12
    167      7   8 -0.940000    -0.089438647     1.954629462    26.614252523   0   0   0 # oc13
    168      7   1 -0.820000    21.872731174     7.619403742    19.636765691  -1   0   0 # o*
    169      7   4  1.500000     3.837924128     7.406990976    26.773934307   0   0   0 # ca+t
    170      7   4  1.500000     1.268671478     1.865070065    76.603482827   0   0   0 # ca+t
    171      7   5  1.000000     3.821783863     7.180601839    77.668508649   0   0   0 # sc2
    172      7   6  1.000000     4.691883305     1.936680976    79.638465510   0   0   0 # sc3
    173      7   5  1.000000     3.903769880     4.075963109    77.622516664   0   0   0 # sc2
    174      7   7 -0.580000     3.872265404     0.688859333    78.972660840   0   0   0 # oc12
    175      7   7 -0.580000     3.875296062     5.614576355    78.189345232   0   0   0 # oc12
    176      7   8 -0.940000     2.539284164     7.348548737    76.718537303   0   0   0 # oc13
    177      7   3 -1.080000     3.033339242     5.543795632     8.316507170   0   0   0 # oc22
    178      7   9 -0.670000     6.305903169     1.895162231    79.289557331   0   0   0 # oc14
    179      7   1 -0.820000     2.012905164     4.027074381    81.788215160   0   0   0 # o*
    180      7   7 -0.580000     4.053138140     3.299548294    79.021687425   0   0   0 # oc12
    181      7   8 -0.940000     2.535441705     3.670096719    76.854379224   0   0   0 # oc13
    182      7   8 -0.940000     5.247989746     3.837728470    76.645755629   0   0   0 # oc13
    183      7   1 -0.820000     2.852446403     1.564061297     8.271137848   0   0   0 # o*
    184      7   1 -0.820000     1.854566351     7.175324871    81.132646679   0   0   0 # o*
    185      7   4  1.500000    21.944571948     1.844699779    13.046838427  -1   0   0 # ca+t
    186      7   4  1.500000     2.523008936     7.394399531    15.192854341   0   0   0 # ca+t
    187      7   5  1.000000    22.070605468     1.553318161    16.217945027  -1   0   0 # sc2
    188      7   6  1.000000     0.315994327     3.701433941    18.129278917   0   0   0 # sc3
    189      7   5  1.000000    22.043948188     5.823312372    16.133788256  -1   0   0 # sc2
    190      7   7 -0.580000    22.238816921     2.343464587    17.648950914  -1   0   0 # oc12
    191      7   7 -0.580000    22.004563877     7.388994460    16.751040217  -1   0   0 # oc12
    192      7   8 -0.940000    20.767658896     1.829622083    15.366805245  -1   0   0 # oc13
    193      7   3 -1.080000     1.350777012     7.396334116    22.191873940   0   0   0 # oc22
    194      7   9 -0.670000     1.890770663     3.959693807    17.699534928   0   0   0 # oc14
    195      7   1 -0.820000     2.411290783     9.631252906    20.264575079   0   0   0 # o*
    196      7   7 -0.580000    22.023094072     4.954721403    17.522596703  -1   0   0 # oc12
    197      7   8 -0.940000    20.782805527     5.557223248    15.218623591  -1   0   0 # oc13
    198      7   8 -0.940000     0.824225743     5.594559840    15.321536761   0   0   0 # oc13
    199      7   1 -0.820000     1.592778953     4.252912132    22.353209447   0   0   0 # o*
    200      7   1 -0.820000     2.354785060     2.012989135    20.413265930   0   0   0 # o*
    201      7   1 -0.820000     2.579441553     6.504054937    19.668610168   0   0   0 # o*
    202      7  11  1.700000     0.543721183     5.820783328    20.739948986   0   0   0 # casl
    203      7   1 -0.820000    21.954180620     2.406807587    21.927944552  -1   0   0 # o*
    204      7  10  0.400000     6.678041357     1.784062635    80.141205128   0   0   0 # hoy
    205      7  10  0.400000     3.720109986     6.938094295    23.051728090   0   0   0 # hoy
    206      7  10  0.400000     2.448768838     3.625945538    18.308518762   0   0   0 # hoy
    207      7  10  0.400000     5.278915948     5.066976579     9.503197087   0   0   0 # hoy
    208      7   2  0.410000     3.150988145     1.752124921     9.199359871   0   0   0 # h*
    209      7   2  0.410000     2.082379557     2.166362119     8.105611384   0   0   0 # h*
    210      7   2  0.410000    22.194552365     5.169048281     9.275487296  -1   0   0 # h*
    211      7   2  0.410000    -0.037324544     6.626301395     9.311953414   0   0   0 # h*
    212      7   2  0.410000     1.126621124     4.643502399     7.783186787   0   0   0 # h*
    213      7   2  0.410000     1.334443682     3.965523393     9.034470815   0   0   0 # h*
    214      7   2  0.410000     3.479243105     3.231539764     5.964590456   0   0   0 # h*
    215      7   2  0.410000     2.695409987     4.113507519     7.086973582   0   0   0 # h*
    216      7   2  0.410000     1.759815309    10.350159270    20.406461525   0   0   0 # h*
    217      7   2  0.410000     2.096560052     8.912624237    20.859907642   0   0   0 # h*
    218      7   2  0.410000    21.723832323     7.581549085    18.657565891  -1   0   0 # h*
    219      7   2  0.410000    21.686998781     8.573003617    19.676553433  -1   0   0 # h*
    220      7   2  0.410000     2.893365016     7.155117920    20.349371372   0   0   0 # h*
    221      7   2  0.410000     3.306124773     6.561687701    19.088831779   0   0   0 # h*
    222      7   2  0.410000     1.666163526     2.697694568    20.333845993   0   0   0 # h*
    223      7   2  0.410000     2.045556377     1.451507296    21.109982473   0   0   0 # h*
    224      7   2  0.410000     2.386686554     3.746226166    22.498098399   0   0   0 # h*
    225      7   2  0.410000     1.392841328     4.108429773    23.258356269   0   0   0 # h*
    226      7   2  0.410000     0.294930399     1.920931444    21.987558237   0   0   0 # h*
    227      7   2  0.410000    -0.205091396     2.997469620    21.231404191   0   0   0 # h*
    228      7   2  0.410000     4.253480415     4.893585843    23.461980118   0   0   0 # h*
    229      7   2  0.410000     4.735470648     3.518730685    23.677446761   0   0   0 # h*
    230      7   2  0.410000     2.637227075     3.397313800    81.364291870   0   0   0 # h*
    231      7   2  0.410000     2.602754520     4.641023266    82.337109217   0   0   0 # h*
    232      7   2  0.410000     1.693740631     7.160949648    80.151373992   0   0   0 # h*
    233      7   2  0.410000     1.006076234     6.765173844    81.452112747   0   0   0 # h*
    234      7   2  0.410000     4.089109605     4.996037877    80.608250948   0   0   0 # h*
    235      7   2  0.410000     5.485581014     5.505226472    80.504420210   0   0   0 # h*
    236      8   4  1.500000    13.448739620     3.707537894    15.084898272   0   0   0 # ca+t
    237      8   4  1.500000    11.143377990     5.596786136    12.700188885   0   0   0 # ca+t
    238      8   5  1.000000    13.635864705     3.456388811    11.810275303   0   0   0 # sc2
    239      8   6  1.000000    14.390965338     5.612950297     9.777918964   0   0   0 # sc3
    240      8   5  1.000000    13.657981270     0.359897367    11.731901717   0   0   0 # sc2
    241      8   7 -0.580000    13.503616579     4.433484773    10.480751817   0   0   0 # oc12
    242      8   7 -0.580000    13.669817374     1.897353372    11.249223050   0   0   0 # oc12
    243      8   8 -0.940000    14.927052573     3.767245741    12.713897376   0   0   0 # oc13
    244      8   8 -0.940000    12.343148615     3.688058840    12.696422115   0   0   0 # oc13
    245      8   3 -1.080000    15.772959699     1.807464547    81.275460138   0   0   0 # oc22
    246      8   9 -0.670000    16.053482010     5.447276897    10.004965764   0   0   0 # oc14
    247      8   1 -0.820000    11.028962092     6.769549408     8.098727644   0   0   0 # o*
    248      8   7 -0.580000    13.783324299     7.017440809    10.300064480   0   0   0 # oc12
    249      8   8 -0.940000    12.263999699     0.000064608    12.484531440   0   0   0 # oc13
    250      8   1 -0.820000    12.906165875     7.528211445    81.603223045   0   0   0 # o*
    251      8   1 -0.820000    11.558569555     3.541224956     7.931354913   0   0   0 # o*
    252      8  11  1.700000    14.950184995     0.010866423     7.219066678   0   0   0 # casl
    253      8   1 -0.820000    13.800481295     4.015495964     5.900551614   0   0   0 # o*
    254      8   4  1.500000    12.275468802     5.483136444    76.873433998   0   0   0 # ca+t
    255      8   4  1.500000    15.333321977     3.776912547    26.912572790   0   0   0 # ca+t
    256      8   5  1.000000    12.433774918     5.253587879    25.908097582   0   0   0 # sc2
    257      8   6  1.000000    13.157141235     7.414629548    23.856109187   0   0   0 # sc3
    258      8   5  1.000000    12.433840421     2.132872482    25.912368418   0   0   0 # sc2
    259      8   7 -0.580000    12.412877681     6.069189948    24.511723998   0   0   0 # oc12
    260      8   7 -0.580000    12.436522347     3.711534069    25.417540690   0   0   0 # oc12
    261      8   8 -0.940000    13.792695104     5.604002995    26.728463131   0   0   0 # oc13
    262      8   8 -0.940000    11.161027301     5.476086920    26.876304424   0   0   0 # oc13
    263      8   3 -1.080000    11.390437445     3.791831564    19.516562269   0   0   0 # oc22
    264      8   9 -0.670000    14.764037727     7.433502899    23.994220939   0   0   0 # oc14
    265      8   1 -0.820000    15.368585391     3.744009816    24.041277560   0   0   0 # o*
    266      8   7 -0.580000    12.304341129     1.226587563    24.535665976   0   0   0 # oc12
    267      8   8 -0.940000    11.177684963     1.885660138    26.854396261   0   0   0 # oc13
    268      8   1 -0.820000    11.252386920     7.350949122    19.457416104   0   0   0 # o*
    269      8   4  1.500000    15.195683042     7.433614291    26.853013072   0   0   0 # ca+t
    270      8   4  1.500000    12.642437245     1.791511562    76.997108683   0   0   0 # ca+t
    271      8   5  1.000000    15.211052135     7.081351950    77.747670401   0   0   0 # sc2
    272      8   6  1.000000    15.992106623     1.817896569    79.725677482   0   0   0 # sc3
    273      8   5  1.000000    15.212778778     4.029506588    77.753844311   0   0   0 # sc2
    274      8   7 -0.580000    15.237550990     0.589738596    79.111188849   0   0   0 # oc12
    275      8   7 -0.580000    15.164338355     5.581232190    78.308592884   0   0   0 # oc12
    276      8   8 -0.940000    13.890547603     7.356309138    76.858678207   0   0   0 # oc13
    277      8   3 -1.080000    14.122032685     5.561478015     8.224098802   0   0   0 # oc22
    278      8   9 -0.670000    17.610490987     1.742035057    79.510217723   0   0   0 # oc14
    279      8   1 -0.820000    12.553899891     2.166035609    79.570310719   0   0   0 # o*
    280      8   7 -0.580000    15.262357592     3.188284473    79.215353555   0   0   0 # oc12
    281      8   8 -0.940000    13.880272879     3.696023170    76.958735089   0   0   0 # oc13
    282      8   8 -0.940000    16.520755672     3.764139598    76.839688271   0   0   0 # oc13
    283      8   1 -0.820000    14.297548328     2.037983244     8.336496694   0   0   0 # o*
    284      8   1 -0.820000    10.642340329     7.228495674    83.254526679   0   0   0 # o*
    285      8   4  1.500000    10.802812592     1.791391545    12.762418368   0   0   0 # ca+t
    286      8   4  1.500000    13.815833328     7.511052935    14.971710423   0   0   0 # ca+t
    287      8   5  1.000000    10.734187941     1.583718544    16.003083593   0   0   0 # sc2
    288      8   6  1.000000    11.539011691     3.824429713    17.916820159   0   0   0 # sc3
    289      8   5  1.000000    10.845031759     5.953251628    15.931784283   0   0   0 # sc2
    290      8   7 -0.580000    10.722183537     2.571651821    17.329324108   0   0   0 # oc12
    291      8   7 -0.580000    10.923815674     7.453622409    16.544370889   0   0   0 # oc12
    292      8   8 -0.940000     9.487196126     1.899115338    15.037035765   0   0   0 # oc13
    293      8   3 -1.080000    12.744637134     7.340120229    22.323110351   0   0   0 # oc22
    294      8   9 -0.670000    13.186906173     3.819392226    17.590854600   0   0   0 # oc14
    295      8   1 -0.820000    13.866765296     7.762531604    17.633247436   0   0   0 # o*
    296      8   7 -0.580000    10.820492998     5.141961412    17.316136292   0   0   0 # oc12
    297      8   8 -0.940000     9.479038254     5.766180215    15.094705420   0   0   0 # oc13
    298      8   8 -0.940000    12.048102083     5.661428678    14.962043744   0   0   0 # oc13
    299      8   1 -0.820000    13.044858306     3.756544651    22.341453568   0   0   0 # o*
    300      8   1 -0.820000    15.617012604     1.794525082    21.974530496   0   0   0 # o*
    301      8   1 -0.820000    14.264606520     5.902953040    19.639029846   0   0   0 # o*
    302      8  11  1.700000    12.247609874     5.529329846    20.804681779   0   0   0 # casl
    303      8   1 -0.820000     9.164231594     2.215636705    20.041326419   0   0   0 # o*
    304      8  10  0.400000    18.035510079     1.496931997    80.297000127   0   0   0 # hoy
    305      8  10  0.400000    15.005310962     6.713093170    23.454390781   0   0   0 # hoy
    306      8  10  0.400000    13.526605951     3.656806675    18.460334816   0   0   0 # hoy
    307      8  10  0.400000    16.367403168     4.865535087     9.348159384   0   0   0 # hoy
    308      8   2  0.410000    14.896611640     2.797131827     8.138780530   0   0   0 # h*
    309      8   2  0.410000    14.321298599     2.012745707     9.344776335   0   0   0 # h*
    310      8   2  0.410000    11.879047174     6.612703602     8.607602749   0   0   0 # h*
    311      8   2  0.410000    11.181129025     6.234787913     7.333618308   0   0   0 # h*
    312      8   2  0.410000    12.445032347     3.049696332     7.864930142   0   0   0 # h*
    313      8   2  0.410000    12.060578310     4.357772370     8.274976154   0   0   0 # h*
    314      8   2  0.410000    14.076169270     4.612455754     6.705166748   0   0   0 # h*
    315      8   2  0.410000    14.548367699     3.373499447     5.801909989   0   0   0 # h*
    316      8   2  0.410000    13.618990709     8.053600434    18.533570693   0   0   0 # h*
    317      8   2  0.410000    14.852350070     7.938899147    17.660140368   0   0   0 # h*
    318      8   2  0.410000    11.195754789     6.917445033    18.571974264   0   0   0 # h*
    319      8   2  0.410000    11.156279265     8.249369800    19.104047256   0   0   0 # h*
    320      8   2  0.410000    14.947325317     6.197868617    20.261073857   0   0   0 # h*
    321      8   2  0.410000    14.592723298     6.280169342    18.781378792   0   0   0 # h*
    322      8   2  0.410000    15.222070763     1.552362507    22.822456712   0   0   0 # h*
    323      8   2  0.410000    14.849510505     1.958278339    21.422492936   0   0   0 # h*
    324      8   2  0.410000    13.516008430     3.956493041    23.138381796   0   0   0 # h*
    325      8   2  0.410000    12.412376413     3.103880581    22.802029748   0   0   0 # h*
    326      8   2  0.410000     9.666465080     2.004793210    20.881825013   0   0   0 # h*
    327      8   2  0.410000     9.852691584     2.946886259    19.803901191   0   0   0 # h*
    328      8   2  0.410000    16.185084774     3.249148849    23.925967746   0   0   0 # h*
    329      8   2  0.410000    15.635412030     4.510567880    23.475857391   0   0   0 # h*
    330      8   2  0.410000    13.411634433     2.661600568    79.740006942   0   0   0 # h*
    331      8   2  0.410000    12.703017530     1.488355834    80.260521280   0   0   0 # h*
    332      8   2  0.410000    10.126521615     8.016180195    83.226907985   0   0   0 # h*
    333      8   2  0.410000    10.279087006     6.709894892    82.438660086   0   0   0 # h*
    334      8   2  0.410000    12.126857965     7.922903618    82.069188382   0   0   0 # h*
    335      8   2  0.410000    12.538790411     7.358581197    80.691463104   0   0   0 # h*
    336      9   4  1.500000     2.383668972    11.290675497    15.022053592   0   0   0 # ca+t
    337      9   4  1.500000    -0.177364456    13.048658503    12.877833849   0   0   0 # ca+t
    338      9   5  1.000000     2.374205678    10.808471745    11.907902768   0   0   0 # sc2
    339      9   6  1.000000     3.053487419    12.999119420     9.880894476   0   0   0 # sc3
    340      9   5  1.000000     2.494782526     7.722623461    11.902088972   0   0   0 # sc2
    341      9   7 -0.580000     2.447284939    11.657777213    10.467002799   0   0   0 # oc12
    342      9   7 -0.580000     2.452779221     9.248053923    11.376488968   0   0   0 # oc12
    343      9   8 -0.940000     3.623368355    11.110969908    12.810635621   0   0   0 # oc13
    344      9   8 -0.940000     1.015387193    11.060537656    12.722999963   0   0   0 # oc13
    345      9   3 -1.080000     4.524037393     9.386911189    81.177237842   0   0   0 # oc22
    346      9   9 -0.670000     4.617285622    13.117242353    10.243485126   0   0   0 # oc14
    347      9   1 -0.820000     0.076695338    14.248156474     7.866919084   0   0   0 # o*
    348      9   7 -0.580000     2.273246762    14.254134973    10.446532401   0   0   0 # oc12
    349      9   8 -0.940000     1.221112652     7.427820095    12.736550003   0   0   0 # oc13
    350      9   1 -0.820000     4.718428118    13.077404514    81.203184806   0   0   0 # o*
    351      9   1 -0.820000     0.537020589    10.975728287     8.228785329   0   0   0 # o*
    352      9  11  1.700000     3.713476770     7.378215551     7.072613843   0   0   0 # casl
    353      9   1 -0.820000     2.686490804    11.459605674     5.830720319   0   0   0 # o*
    354      9   4  1.500000     0.981079863    12.999885297    76.632137495   0   0   0 # ca+t
    355      9   4  1.500000     3.985282306    11.112659196    26.694080444   0   0   0 # ca+t
    356      9   5  1.000000     1.071943910    12.650596999    25.736734820   0   0   0 # sc2
    357      9   6  1.000000     1.777153280    14.777689516    23.869509612   0   0   0 # sc3
    358      9   5  1.000000     1.108447140     9.537268305    25.680367698   0   0   0 # sc2
    359      9   7 -0.580000     0.988780204    13.526388375    24.432032108   0   0   0 # oc12
    360      9   7 -0.580000     1.050851451    11.101386711    25.155719847   0   0   0 # oc12
    361      9   8 -0.940000     2.360436254    12.868332079    26.604480797   0   0   0 # oc13
    362      9   8 -0.940000    -0.143514757    12.910632639    26.752224813   0   0   0 # oc13
    363      9   3 -1.080000     0.170838699    11.199222413    19.495308209   0   0   0 # oc22
    364      9   9 -0.670000     3.389692873    14.639969933    24.142596168   0   0   0 # oc14
    365      9   1 -0.820000     4.153623982    11.183323541    23.749370669   0   0   0 # o*
    366      9   7 -0.580000     1.070937846     8.702707056    24.252475618   0   0   0 # oc12
    367      9   8 -0.940000    -0.136360342     9.254037636    26.643078271   0   0   0 # oc13
    368      9   1 -0.820000    21.994250356    14.850335863    19.388659813  -1   0   0 # o*
    369      9   4  1.500000     3.860869751    14.936394753    26.657427992   0   0   0 # ca+t
    370      9   4  1.500000     1.101704405     9.300059372    76.562622191   0   0   0 # ca+t
    371      9   5  1.000000     3.957257403    14.549281854    77.623575614   0   0   0 # sc2
    372      9   6  1.000000     4.642696792     9.338648442    79.591470401   0   0   0 # sc3
    373      9   5  1.000000     3.838524649    11.516954241    77.696769313   0   0   0 # sc2
    374      9   7 -0.580000     3.806215274     8.049932184    79.038486689   0   0   0 # oc12
    375      9   7 -0.580000     3.827868479    13.067323040    78.247212388   0   0   0 # oc12
    376      9   8 -0.940000     2.700114021    14.855434382    76.620064507   0   0   0 # oc13
    377      9   3 -1.080000     2.827053982    12.999671770     8.305499588   0   0   0 # oc22
    378      9   9 -0.670000     6.245281588     9.299061521    79.224277989   0   0   0 # oc14
    379      9   1 -0.820000     1.166871697     9.513014082    79.430231907   0   0   0 # o*
    380      9   7 -0.580000     3.945806034    10.682545247    79.041884478   0   0   0 # oc12
    381      9   8 -0.940000     2.456765141    11.202713458    76.984023841   0   0   0 # oc13
    382      9   8 -0.940000     5.047495864    11.217276687    76.672564650   0   0   0 # oc13
    383      9   1 -0.820000     2.918303195     9.362649539     8.336921193   0   0   0 # o*
    384      9   1 -0.820000     1.012529823    14.744825801    81.901618085   0   0   0 # o*
    385      9   4  1.500000    22.050261165     9.170164275    12.924940032  -1   0   0 # ca+t
    386      9   4  1.500000     2.474896267    14.947074858    15.185075905   0   0   0 # ca+t
    387      9   5  1.000000    22.034705800     8.881636816    16.080688691  -1   0   0 # sc2
    388      9   6  1.000000     0.278210163    11.136151854    17.943464861   0   0   0 # sc3
    389      9   5  1.000000    22.015261803    13.419657756    16.037412166  -1   0   0 # sc2
    390      9   7 -0.580000    21.973462834     9.852581755    17.380345297  -1   0   0 # oc12
    391      9   7 -0.580000    21.850764041    14.958247049    16.527267400  -1   0   0 # oc12
    392      9   8 -0.940000    20.769184698     9.054006234    15.110861980  -1   0   0 # oc13
    393      9   3 -1.080000     1.487846774    14.806116365    22.288417234   0   0   0 # oc22
    394      9   9 -0.670000     1.837550596    11.093593383    17.571967975   0   0   0 # oc14
    395      9   1 -0.820000     2.340542418    15.495865075    18.108858208   0   0   0 # o*
    396      9   7 -0.580000    22.097351361    12.537607057    17.388747974  -1   0   0 # oc12
    397      9   8 -0.940000    20.809764695    12.933333503    15.114405513  -1   0   0 # oc13
    398      9   8 -0.940000     0.746421830    13.189076206    15.067210965   0   0   0 # oc13
    399      9   1 -0.820000     1.515046961    11.435590299    22.269722680   0   0   0 # o*
    400      9   1 -0.820000     4.583593055     8.775015042    21.997684333   0   0   0 # o*
    401      9   1 -0.820000     3.018537733    13.200655902    19.742299591   0   0   0 # o*
    402      9  11  1.700000     0.691636605    13.210356580    20.712226013   0   0   0 # casl
    403      9   1 -0.820000    21.591155920     9.662032573    21.508835810  -1   0   0 # o*
    404      9  10  0.400000     6.695776117     9.225439094    80.045272023   0   0   0 # hoy
    405      9  10  0.400000     3.842579725    14.681322258    23.319746468   0   0   0 # hoy
    406      9  10  0.400000     2.104224669    10.670007215    18.379428713   0   0   0 # hoy
    407      9  10  0.400000     5.209542262    12.716998048     9.626169230   0   0   0 # hoy
    408      9   2  0.410000     3.492063328    10.094985914     8.620425319   0   0   0 # h*
    409      9   2  0.410000     2.552635339     9.145446706     9.275866029   0   0   0 # h*
    410      9   2  0.410000     0.933269169    13.848353837     8.266083404   0   0   0 # h*
    411      9   2  0.410000    -0.173899080    13.599319986     7.191660281   0   0   0 # h*
    412      9   2  0.410000     1.109570894    11.590577450     8.755126944   0   0   0 # h*
    413      9   2  0.410000     1.240431256    10.644752373     7.617747749   0   0   0 # h*
    414      9   2  0.410000     3.573449827    11.201979536     5.502805215   0   0   0 # h*
    415      9   2  0.410000     2.837577134    11.784542322     6.697764333   0   0   0 # h*
    416      9   2  0.410000     1.896813457    16.281700591    18.500411998   0   0   0 # h*
    417      9   2  0.410000     3.314079986    15.813871640    18.255266791   0   0   0 # h*
    418      9   2  0.410000    22.142853811    14.545779370    18.456202301  -1   0   0 # h*
    419      9   2  0.410000    21.775277033    15.795149659    19.353904064  -1   0   0 # h*
    420      9   2  0.410000     3.601090264    13.019214223    18.989903787   0   0   0 # h*
    421      9   2  0.410000     3.723520479    13.754304439    20.115667213   0   0   0 # h*
    422      9   2  0.410000     4.185078437     8.499533186    22.882692239   0   0   0 # h*
    423      9   2  0.410000     3.914811955     8.815678420    21.304620097   0   0   0 # h*
    424      9   2  0.410000     1.084940431    11.123045567    23.146127822   0   0   0 # h*
    425      9   2  0.410000     2.444490212    11.461356375    22.586899304   0   0   0 # h*
    426      9   2  0.410000    22.105991406    10.273090850    20.973539265  -1   0   0 # h*
    427      9   2  0.410000    -0.150178860     9.179558081    21.882625970   0   0   0 # h*
    428      9   2  0.410000     4.735197895    11.904429763    23.474839554   0   0   0 # h*
    429      9   2  0.410000     4.644886611    10.463383202    23.251851124   0   0   0 # h*
    430      9   2  0.410000     1.935196525     9.073829458    79.782276091   0   0   0 # h*
    431      9   2  0.410000     1.362728088    10.472938253    79.228192635   0   0   0 # h*
    432      9   2  0.410000     0.391771274    15.425587085    81.658754761   0   0   0 # h*
    433      9   2  0.410000     0.340575521    14.052884936    81.901280935   0   0   0 # h*
    434      9   2  0.410000     5.329402280    12.892282856    80.417681944   0   0   0 # h*
    435      9   2  0.410000     4.027673359    12.427863528    80.966753385   0   0   0 # h*
    436     10   4  1.500000    13.614250170    11.156073009    15.019095681   0   0   0 # ca+t
    437     10   4  1.500000    10.984548668    12.996081920    12.904981995   0   0   0 # ca+t
    438     10   5  1.000000    13.715806802    10.860562613    11.906485140   0   0   0 # sc2
    439     10   6  1.000000    14.451109190    13.114342298     9.898377365   0   0   0 # sc3
    440     10   5  1.000000    13.769000453     7.780443108    11.762991066   0   0   0 # sc2
    441     10   7 -0.580000    13.646559347    11.863086691    10.604530720   0   0   0 # oc12
    442     10   7 -0.580000    13.762644434     9.316857872    11.254458933   0   0   0 # oc12
    443     10   8 -0.940000    15.001897160    11.105457822    12.792295078   0   0   0 # oc13
    444     10   8 -0.940000    12.478448234    11.098654718    12.905913187   0   0   0 # oc13
    445     10   3 -1.080000    15.874285348     9.322989036    81.222631345   0   0   0 # oc22
    446     10   9 -0.670000    16.053548809    13.056966283    10.211719056   0   0   0 # oc14
    447     10   1 -0.820000    10.976585060    13.146110844     9.941755355   0   0   0 # o*
    448     10   7 -0.580000    13.792958552    14.503447302    10.381365159   0   0   0 # oc12
    449     10   8 -0.940000    12.417407261     7.550292113    12.657473187   0   0   0 # oc13
    450     10   1 -0.820000    15.860182147    13.205751791    81.166211928   0   0   0 # o*
    451     10   1 -0.820000    11.763915186    11.206584053     7.983247110   0   0   0 # o*
    452     10  11  1.700000    15.260298411     7.252163543     7.020210509   0   0   0 # casl
    453     10   1 -0.820000    13.868270996    11.337122569     6.196080003   0   0   0 # o*
    454     10   4  1.500000    12.293539817    13.030509664    76.609283653   0   0   0 # ca+t
    455     10   4  1.500000    15.374840855    11.015337478    26.795309216   0   0   0 # ca+t
    456     10   5  1.000000    12.419943758    12.664664070    25.763324646   0   0   0 # sc2
    457     10   6  1.000000    13.091359149    14.906134614    23.766933150   0   0   0 # sc3
    458     10   5  1.000000    12.315304360     9.545540392    25.838387280   0   0   0 # sc2
    459     10   7 -0.580000    12.411984215    13.499757292    24.376899829   0   0   0 # oc12
    460     10   7 -0.580000    12.285847836    11.098296586    25.269090265   0   0   0 # oc12
    461     10   8 -0.940000    13.778970486    12.894548281    26.507036646   0   0   0 # oc13
    462     10   8 -0.940000    11.157744562    13.064149290    26.692526491   0   0   0 # oc13
    463     10   3 -1.080000    11.407959334    11.403330836    19.485112583   0   0   0 # oc22
    464     10   9 -0.670000    14.692720592    14.908531007    24.000368168   0   0   0 # oc14
    465     10   1 -0.820000    15.381098286    11.252945219    24.062023894   0   0   0 # o*
    466     10   7 -0.580000    12.382908772     8.669992353    24.447910073   0   0   0 # oc12
    467     10   8 -0.940000    11.022250142     9.272838381    26.701534459   0   0   0 # oc13
    468     10   1 -0.820000    10.711146594    14.878735488    19.455070357   0   0   0 # o*
    469     10   4  1.500000    15.198718152    14.798870018    26.626437247   0   0   0 # ca+t
    470     10   4  1.500000    12.552213078     9.279682147    76.647195987   0   0   0 # ca+t
    471     10   5  1.000000    15.198203356    14.645540097    77.648603323   0   0   0 # sc2
    472     10   6  1.000000    15.980876997     9.279018743    79.624203571   0   0   0 # sc3
    473     10   5  1.000000    15.272233363    11.530703851    77.728843367   0   0   0 # sc2
    474     10   7 -0.580000    15.164264014     7.988653375    79.143431805   0   0   0 # oc12
    475     10   7 -0.580000    15.197052828    13.144480238    78.264082240   0   0   0 # oc12
    476     10   8 -0.940000    13.848469140    14.830157535    76.733978069   0   0   0 # oc13
    477     10   3 -1.080000    14.344054077    12.977830584     8.350678369   0   0   0 # oc22
    478     10   9 -0.670000    17.593697784     9.224676850    79.282862432   0   0   0 # oc14
    479     10   1 -0.820000    12.482212976     9.569458662    79.501770089   0   0   0 # o*
    480     10   7 -0.580000    15.260973861    10.621837035    79.083900063   0   0   0 # oc12
    481     10   8 -0.940000    13.937812651    11.209794347    76.843913161   0   0   0 # oc13
    482     10   8 -0.940000    16.564506983    11.195921876    76.829050079   0   0   0 # oc13
    483     10   1 -0.820000    14.051637147     9.358936780     8.228713158   0   0   0 # o*
    484     10   1 -0.820000    12.837218706    14.450379286    81.870962176   0   0   0 # o*
    485     10   4  1.500000    10.734981465     9.388052372    12.988908461   0   0   0 # ca+t
    486     10   4  1.500000    13.783767538    14.863308828    15.169301107   0   0   0 # ca+t
    487     10   5  1.000000    10.910360430     9.034926735    16.103762288   0   0   0 # sc2
    488     10   6  1.000000    11.726857027    11.261555498    17.937323618   0   0   0 # sc3
    489     10   5  1.000000    10.840385825    13.368857889    16.102065716   0   0   0 # sc2
    490     10   7 -0.580000    10.990832295     9.867974068    17.499268513   0   0   0 # oc12
    491     10   7 -0.580000    10.855505204    14.950291490    16.589135246   0   0   0 # oc12
    492     10   8 -0.940000     9.562694738     9.383241520    15.306714294   0   0   0 # oc13
    493     10   3 -1.080000    12.754442393    14.931253968    22.234991019   0   0   0 # oc22
    494     10   9 -0.670000    13.321457901    11.262750932    17.669430115   0   0   0 # oc14
    495     10   1 -0.820000    13.767638823    15.244665551    18.150421589   0   0   0 # o*
    496     10   7 -0.580000    10.950244584    12.541100466    17.449366447   0   0   0 # oc12
    497     10   8 -0.940000     9.479808263    13.071579366    15.353689959   0   0   0 # oc13
    498     10   8 -0.940000    12.068983625    13.139270393    15.049801474   0   0   0 # oc13
    499     10   1 -0.820000    13.102694281    11.533480962    22.249679967   0   0   0 # o*
    500     10   1 -0.820000    15.803038324     8.890093348    22.128039873   0   0   0 # o*
    501     10   1 -0.820000    14.373308034    13.037191610    19.883511956   0   0   0 # o*
    502     10  11  1.700000    11.958199169    13.289890941    20.835638672   0   0   0 # casl
    503     10   1 -0.820000    10.701848601     9.538254756    21.939462038   0   0   0 # o*
    504     10  10  0.400000    18.013022858     8.575081297    79.793927433   0   0   0 # hoy
    505     10  10  0.400000    14.998878399    14.763195540    23.126666954   0   0   0 # hoy
    506     10  10  0.400000    13.757622139    11.729381229    18.389020123   0   0   0 # hoy
    507     10  10  0.400000    16.557882012    13.201451710     9.419366304   0   0   0 # hoy
    508     10   2  0.410000    13.306788050     9.389139770     8.918628969   0   0   0 # h*
    509     10   2  0.410000    13.578510936     9.799821461     7.483984154   0   0   0 # h*
    510     10   2  0.410000    11.517265774    12.376871702     9.561812973   0   0   0 # h*
    511     10   2  0.410000    11.526286827    13.904316361     9.596001314   0   0   0 # h*
    512     10   2  0.410000    11.996378946    11.536225909     7.060368330   0   0   0 # h*
    513     10   2  0.410000    12.550585932    11.596387914     8.435848786   0   0   0 # h*
    514     10   2  0.410000    14.791093036    11.098369835     5.960105717   0   0   0 # h*
    515     10   2  0.410000    13.901162147    11.889187041     7.062519262   0   0   0 # h*
    516     10   2  0.410000    13.169464370    15.907371157    18.577290856   0   0   0 # h*
    517     10   2  0.410000    14.586427580    15.820205426    18.101449997   0   0   0 # h*
    518     10   2  0.410000    10.643687640    14.724940072    18.496207941   0   0   0 # h*
    519     10   2  0.410000    10.070382130    15.652950127    19.558257502   0   0   0 # h*
    520     10   2  0.410000    14.708906231    13.854854824    19.405350369   0   0   0 # h*
    521     10   2  0.410000    15.156279382    12.784130588    20.460475641   0   0   0 # h*
    522     10   2  0.410000    15.744349034     8.308463757    22.940264199   0   0   0 # h*
    523     10   2  0.410000    14.848776223     8.682411698    21.792707829   0   0   0 # h*
    524     10   2  0.410000    13.929735606    10.992834555    22.323193910   0   0   0 # h*
    525     10   2  0.410000    12.785019956    11.502258525    23.176591725   0   0   0 # h*
    526     10   2  0.410000    11.305262560     8.768854459    22.060628281   0   0   0 # h*
    527     10   2  0.410000    11.074100748    10.005825974    21.161666518   0   0   0 # h*
    528     10   2  0.410000    16.077223586    10.816693170    23.473242976   0   0   0 # h*
    529     10   2  0.410000    15.188447183    12.018677414    23.459724677   0   0   0 # h*
    530     10   2  0.410000    13.421318730     9.264582477    79.831257458   0   0   0 # h*
    531     10   2  0.410000    12.676108349    10.546685271    79.616709386   0   0   0 # h*
    532     10   2  0.410000    11.964277522    14.541314373    81.529117792   0   0   0 # h*
    533     10   2  0.410000    12.731771792    13.464523480    82.030687943   0   0   0 # h*
    534     10   2  0.410000    16.052531712    13.357420722    80.222424697   0   0   0 # h*
    535     10   2  0.410000    15.104135636    12.560592480    81.043805576   0   0   0 # h*
    536     11   4  1.500000     2.337014782    18.637865123    14.982959945   0   0   0 # ca+t
    537     11   4  1.500000    22.285090674    20.465283141    12.772386595  -1   0   0 # ca+t
    538     11   5  1.000000     2.433164013    18.292474332    11.810556382   0   0   0 # sc2
    539     11   6  1.000000     3.091545861    20.517545504     9.933719118   0   0   0 # sc3
    540     11   5  1.000000     2.360399232    15.178359219    11.845176434   0   0   0 # sc2
    541     11   7 -0.580000     2.388607039    19.163368170    10.433741515   0   0   0 # oc12
    542     11   7 -0.580000     2.396564241    16.734923476    11.266223085   0   0   0 # oc12
    543     11   8 -0.940000     3.786803476    18.460513939    12.647259240   0   0   0 # oc13
    544     11   8 -0.940000     1.199346532    18.647137045    12.795199941   0   0   0 # oc13
    545     11   3 -1.080000     4.554086888    16.598802077    81.171964691   0   0   0 # oc22
    546     11   9 -0.670000     4.681498458    20.610884663    10.211640245   0   0   0 # oc14
    547     11   1 -0.820000     0.194698183    -0.041965147     7.707843415   0   1   0 # o*
    548     11   7 -0.580000     2.325240710    21.741638584    10.534028554   0   0   0 # oc12
    549     11   8 -0.940000     1.108551877    14.917672733    12.778313006   0   0   0 # oc13
    550     11   1 -0.820000     4.760622986    20.243669969    81.400414869   0   0   0 # o*
    551     11   1 -0.820000     0.327041739    18.662785717     8.303036201   0   0   0 # o*
    552     11  11  1.700000     4.052030843    14.796337538     7.039208739   0   0   0 # casl
    553     11   1 -0.820000     2.372178313    18.754242046     6.341647640   0   0   0 # o*
    554     11   4  1.500000     1.081685881    20.494715470    76.542423390   0   0   0 # ca+t
    555     11   4  1.500000     4.101369699    18.678932303    26.794981616   0   0   0 # ca+t
    556     11   5  1.000000     1.096034604    20.049311418    25.609901683   0   0   0 # sc2
    557     11   5  1.000000     1.169297075    17.022353266    25.716116005   0   0   0 # sc2
    558     11   7 -0.580000     1.257023674    20.848217718    24.217796382   0   0   0 # oc12
    559     11   7 -0.580000     1.050522738    18.551991734    25.130280552   0   0   0 # oc12
    560     11   8 -0.940000     2.433519060    20.311881867    26.553156913   0   0   0 # oc13
    561     11   8 -0.940000    22.285225606    20.386146371    26.396387700  -1   0   0 # oc13
    562     11   3 -1.080000     0.064255602    18.468863207    19.603708025   0   0   0 # oc22
    563     11   1 -0.820000     4.255149547    19.009730507    24.071947633   0   0   0 # o*
    564     11   7 -0.580000     1.225563269    16.166250378    24.353577303   0   0   0 # oc12
    565     11   8 -0.940000    -0.015258143    16.660759485    26.705582276   0   0   0 # oc13
    566     11   4  1.500000     1.331334188    16.732551158    76.533912918   0   0   0 # ca+t
    567     11   5  1.000000     3.994868725    22.048070676    77.646568158   0   0   0 # sc2
    568     11   6  1.000000     4.791290661    16.692239499    79.608029498   0   0   0 # sc3
    569     11   5  1.000000     4.098759181    18.986223243    77.707639899   0   0   0 # sc2
    570     11   7 -0.580000     3.893593440    15.529969551    78.906002125   0   0   0 # oc12
    571     11   7 -0.580000     4.049022123    20.510879822    78.240762058   0   0   0 # oc12
    572     11   8 -0.940000     2.772950222    22.148154569    76.710283484   0   0   0 # oc13
    573     11   3 -1.080000     2.925510449    20.620993717     8.362324476   0   0   0 # oc22
    574     11   9 -0.670000     6.405247376    16.461363804    79.271363212   0   0   0 # oc14
    575     11   1 -0.820000     1.407426886    16.712557037    79.181269155   0   0   0 # o*
    576     11   7 -0.580000     4.291636695    18.139093350    79.128623752   0   0   0 # oc12
    577     11   8 -0.940000     2.770722329    18.632993429    76.970230650   0   0   0 # oc13
    578     11   8 -0.940000     5.338830196    18.757165935    76.701987872   0   0   0 # oc13
    579     11   1 -0.820000     3.340575200    16.526480786     8.701314610   0   0   0 # o*
    580     11   4  1.500000    21.999041254    16.819595955    12.776390129  -1   0   0 # ca+t
    581     11   5  1.000000    21.994003065    16.496610840    16.030619570  -1   0   0 # sc2
    582     11   6  1.000000     0.206569068    18.552756320    18.016546704   0   0   0 # sc3
    583     11   5  1.000000    22.073193526    20.776605997    16.140420862  -1   0   0 # sc2
    584     11   7 -0.580000    21.819037637    17.413226161    17.338821426  -1   0   0 # oc12
    585     11   8 -0.940000    20.812124576    16.827837292    15.028550030  -1   0   0 # oc13
    586     11   9 -0.670000     1.756004641    18.498345493    17.679482215   0   0   0 # oc14
    587     11   1 -0.820000     2.656371199     0.544842827    17.787348024   0   1   0 # o*
    588     11   7 -0.580000    22.145539975    19.897845768    17.526768391  -1   0   0 # oc12
    589     11   8 -0.940000    20.722329565    20.532901444    15.297973298  -1   0   0 # oc13
    590     11   8 -0.940000     0.741023601    20.468990262    15.166410937   0   0   0 # oc13
    591     11   1 -0.820000     1.819495201    18.320311415    22.233860675   0   0   0 # o*
    592     11   1 -0.820000     3.969958924    16.705847739    21.338038181   0   0   0 # o*
    593     11   1 -0.820000     2.917687969    20.555732829    19.677060747   0   0   0 # o*
    594     11  11  1.700000     0.763061569    20.398552938    21.100750224   0   0   0 # casl
    595     11   1 -0.820000    22.005774733    16.889157155    21.947528710  -1   0   0 # o*
    596     11  10  0.400000     6.805834684    16.078071324    80.062562367   0   0   0 # hoy
    597     11  10  0.400000     2.122502887    18.715891745    18.536516532   0   0   0 # hoy
    598     11  10  0.400000     5.006142388    20.158881494     9.436219596   0   0   0 # hoy
    599     11   2  0.410000     2.677122236    16.732729229     9.407090588   0   0   0 # h*
    600     11   2  0.410000     4.056552881    17.275407219     8.850607158   0   0   0 # h*
    601     11   2  0.410000    -0.097838745    21.503935436     7.026835084   0   0   0 # h*
    602     11   2  0.410000     1.008206206    21.729413284     7.954578720   0   0   0 # h*
    603     11   2  0.410000     1.021573356    18.676070375     9.012509291   0   0   0 # h*
    604     11   2  0.410000     0.843642660    19.080568994     7.550433389   0   0   0 # h*
    605     11   2  0.410000     2.759559754    19.375519743     6.998152915   0   0   0 # h*
    606     11   2  0.410000     3.054923329    18.006482449     6.351226030   0   0   0 # h*
    607     11   2  0.410000     2.022230365     0.961018585    18.414931963   0   1   0 # h*
    608     11   2  0.410000     3.495475963     1.016889335    17.957556136   0   1   0 # h*
    609     11   2  0.410000     3.610785429    20.711293645    20.320767079   0   0   0 # h*
    610     11   2  0.410000     3.067370397    21.126139362    18.896710628   0   0   0 # h*
    611     11   2  0.410000     3.270283149    17.465532849    21.519657000   0   0   0 # h*
    612     11   2  0.410000     3.473146308    15.866446849    21.272872341   0   0   0 # h*
    613     11   2  0.410000     1.174678097    17.680937269    22.685067959   0   0   0 # h*
    614     11   2  0.410000     2.264640866    18.473543457    23.098771295   0   0   0 # h*
    615     11   2  0.410000    -0.114542778    17.161200757    21.081801940   0   0   0 # h*
    616     11   2  0.410000    -0.064665239    16.018211308    22.091844517   0   0   0 # h*
    617     11   2  0.410000     4.388020895    19.581612712    23.246171848   0   0   0 # h*
    618     11   2  0.410000     5.155255236    18.592846297    24.200645898   0   0   0 # h*
    619     11   2  0.410000     2.152992306    17.366129694    79.195624213   0   0   0 # h*
    620     11   2  0.410000     1.903108778    15.852447766    79.426931637   0   0   0 # h*
    621     11   2  0.410000     5.033864033    19.325654950    81.579838672   0   0   0 # h*
    622     11   2  0.410000     4.569250188    20.071551687    80.439522336   0   0   0 # h*
    623     12   4  1.500000    13.606026191    18.568671828    15.004336144   0   0   0 # ca+t
    624     12   4  1.500000    10.900740851    20.424815965    12.822693603   0   0   0 # ca+t
    625     12   5  1.000000    13.794649370    18.282509750    11.854775322   0   0   0 # sc2
    626     12   6  1.000000    14.607537335    20.406377607     9.930836884   0   0   0 # sc3
    627     12   5  1.000000    13.694659657    15.188592413    11.809707645   0   0   0 # sc2
    628     12   7 -0.580000    13.787126797    19.180641883    10.472940860   0   0   0 # oc12
    629     12   7 -0.580000    13.740540752    16.749593734    11.244266095   0   0   0 # oc12
    630     12   8 -0.940000    15.130690900    18.481496467    12.677248994   0   0   0 # oc13
    631     12   8 -0.940000    12.443540288    18.616544473    12.746134739   0   0   0 # oc13
    632     12   3 -1.080000    15.787962341    16.699065868    81.278066642   0   0   0 # oc22
    633     12   9 -0.670000    16.153927044    20.297582230    10.385929189   0   0   0 # oc14
    634     12   1 -0.820000    11.200260019    20.432040715    10.360346513   0   0   0 # o*
    635     12   7 -0.580000    13.873330682    21.794090727    10.335575334   0   0   0 # oc12
    636     12   8 -0.940000    12.313923434    14.968218458    12.591298692   0   0   0 # oc13
    637     12   1 -0.820000    16.114207522    20.416622410    81.212816983   0   0   0 # o*
    638     12   1 -0.820000    11.816813878    18.594154229     8.187199927   0   0   0 # o*
    639     12  11  1.700000    14.942509666    14.827566014     7.070103708   0   0   0 # casl
    640     12   1 -0.820000    13.643551989    18.843574544     6.143636446   0   0   0 # o*
    641     12   4  1.500000    12.382151680    20.309736244    76.828478351   0   0   0 # ca+t
    642     12   4  1.500000    15.396255905    18.574644830    26.970189066   0   0   0 # ca+t
    643     12   5  1.000000    12.453582897    20.028458208    25.952217847   0   0   0 # sc2
    644     12   5  1.000000    12.343348848    16.974048094    25.847306351   0   0   0 # sc2
    645     12   7 -0.580000    12.343000288    20.934189626    24.607223076   0   0   0 # oc12
    646     12   7 -0.580000    12.346038353    18.489665127    25.348295514   0   0   0 # oc12
    647     12   8 -0.940000    13.803854530    20.274413628    26.800569833   0   0   0 # oc13
    648     12   8 -0.940000    11.161176074    20.275398346    26.906566610   0   0   0 # oc13
    649     12   3 -1.080000    11.473245619    18.592226761    19.506068831   0   0   0 # oc22
    650     12   1 -0.820000    15.279195134    18.526300860    23.993867748   0   0   0 # o*
    651     12   7 -0.580000    12.356588882    16.210860397    24.414022955   0   0   0 # oc12
    652     12   8 -0.940000    11.018598494    16.650600332    26.647669310   0   0   0 # oc13
    653     12   4  1.500000    12.359852518    16.618263711    76.731389035   0   0   0 # ca+t
    654     12   5  1.000000    15.312541544    21.946551538    77.746761410   0   0   0 # sc2
    655     12   6  1.000000    16.048218284    16.722541122    79.696877416   0   0   0 # sc3
    656     12   5  1.000000    15.298906403    18.882464936    77.803861501   0   0   0 # sc2
    657     12   7 -0.580000    15.148680612    15.524817913    79.090568411   0   0   0 # oc12
    658     12   7 -0.580000    15.298672280    20.400857681    78.335117353   0   0   0 # oc12
    659     12   8 -0.940000    13.929736138    22.116496839    76.935876699   0   0   0 # oc13
    660     12   3 -1.080000    14.482312308    20.301516921     8.404483387   0   0   0 # oc22
    661     12   9 -0.670000    17.647544912    16.583232350    79.379055235   0   0   0 # oc14
    662     12   1 -0.820000    12.610975222    16.563158076    79.546931323   0   0   0 # o*
    663     12   7 -0.580000    15.455167646    18.056497915    79.201748099   0   0   0 # oc12
    664     12   8 -0.940000    13.961467386    18.480522339    77.046341180   0   0   0 # oc13
    665     12   8 -0.940000    16.511122074    18.610805308    76.858625164   0   0   0 # oc13
    666     12   1 -0.820000    14.248515276    16.730742575     8.408058622   0   0   0 # o*
    667     12   4  1.500000    10.794155220    16.664163250    12.905170544   0   0   0 # ca+t
    668     12   5  1.000000    10.811282319    16.442050957    16.094406083   0   0   0 # sc2
    669     12   6  1.000000    11.614254375    18.603795226    17.960656613   0   0   0 # sc3
    670     12   5  1.000000    10.801201981    20.793240630    16.051383227   0   0   0 # sc2
    671     12   7 -0.580000    10.745507026    17.347958188    17.520160643   0   0   0 # oc12
    672     12   8 -0.940000     9.517909941    16.742024395    15.155431916   0   0   0 # oc13
    673     12   9 -0.670000    13.212228749    18.580739607    17.573867966   0   0   0 # oc14
    674     12   1 -0.820000    13.614471188     1.589886197    20.064586490   0   1   0 # o*
    675     12   7 -0.580000    10.876344135    19.931647590    17.413412310   0   0   0 # oc12
    676     12   8 -0.940000     9.470545893    20.474447073    15.232085302   0   0   0 # oc13
    677     12   8 -0.940000    12.057937523    20.545521017    15.115775007   0   0   0 # oc13
    678     12   1 -0.820000    14.202878234    20.393973274    20.085645719   0   0   0 # o*
    679     12   1 -0.820000    15.110754386    16.729565814    21.259577192   0   0   0 # o*
    680     12   1 -0.820000    13.778529032     0.029235289    17.659257455   0   1   0 # o*
    681     12  11  1.700000    11.972518174    20.408724833    21.013343090   0   0   0 # casl
    682     12   1 -0.820000    10.849904488    16.980021736    21.606726314   0   0   0 # o*
    683     12  10  0.400000    18.044036811    15.978745099    79.968758462   0   0   0 # hoy
    684     12  10  0.400000    13.616007713    18.803459872    18.401610265   0   0   0 # hoy
    685     12  10  0.400000    16.590880139    20.126691725     9.592606085   0   0   0 # hoy
    686     12   2  0.410000    14.568392441    17.656643426     8.534719029   0   0   0 # h*
    687     12   2  0.410000    13.785017374    16.602118928     9.250180432   0   0   0 # h*
    688     12   2  0.410000    10.904790920    20.473850676     9.417245704   0   0   0 # h*
    689     12   2  0.410000    12.130561081    20.770262627    10.298661151   0   0   0 # h*
    690     12   2  0.410000    12.655462336    18.688856780     8.810690062   0   0   0 # h*
    691     12   2  0.410000    12.391322830    18.840987905     7.375713491   0   0   0 # h*
    692     12   2  0.410000    14.398036198    18.275528652     6.321299859   0   0   0 # h*
    693     12   2  0.410000    13.869703429    19.522688765     6.818136394   0   0   0 # h*
    694     12   2  0.410000    12.784569001     1.984422833    20.280563664   0   1   0 # h*
    695     12   2  0.410000    13.380345717     0.898984687    20.682967633   0   1   0 # h*
    696     12   2  0.410000    14.547571488    21.974774406    18.148988828   0   0   0 # h*
    697     12   2  0.410000    13.620080139     0.769947777    18.330763368   0   1   0 # h*
    698     12   2  0.410000    14.457784146    17.405857463    21.049796274   0   0   0 # h*
    699     12   2  0.410000    14.397232312    16.128244548    21.585930093   0   0   0 # h*
    700     12   2  0.410000    14.916697653    20.899152442    19.613132135   0   0   0 # h*
    701     12   2  0.410000    14.886160582    19.898660436    20.579876081   0   0   0 # h*
    702     12   2  0.410000    11.243654721    17.402714169    20.776940957   0   0   0 # h*
    703     12   2  0.410000    11.550590067    16.246219873    21.783185601   0   0   0 # h*
    704     12   2  0.410000    15.915101082    17.812182764    23.784071302   0   0   0 # h*
    705     12   2  0.410000    15.807316396    19.263965944    23.517207884   0   0   0 # h*
    706     12   2  0.410000    13.354146570    17.175286377    79.500122986   0   0   0 # h*
    707     12   2  0.410000    13.043343801    15.672751950    79.745437477   0   0   0 # h*
    708     12   2  0.410000    15.492548710    19.954710631    80.594419838   0   0   0 # h*
    709     12   2  0.410000    16.955591263    20.340487604    80.731567826   0   0   0 # h*
    710     13   4  1.500000     2.443133602     3.797179707    90.656030601   0   0   0 # ca+t
    711     13   4  1.500000    22.138058093     5.649256511    88.409808280  -1   0   0 # ca+t
    712     13   5  1.000000     2.486879821     3.485348974    87.434724686   0   0   0 # sc2
    713     13   6  1.000000     3.239705793     5.722733113    85.505383509   0   0   0 # sc3
    714     13   5  1.000000     2.551227265     0.468253884    87.412499710   0   0   0 # sc2
    715     13   7 -0.580000     2.638809865     4.269685552    85.995291745   0   0   0 # oc12
    716     13   7 -0.580000     2.475422980     1.974875628    86.904780333   0   0   0 # oc12
    717     13   8 -0.940000     3.761191078     3.675717173    88.363593456   0   0   0 # oc13
    718     13   8 -0.940000     1.143866811     3.804129459    88.196653169   0   0   0 # oc13
    719     13   9 -0.670000     4.808544640     5.853214837    85.932943927   0   0   0 # oc14
    720     13   1 -0.820000    22.187666241     7.070359195    83.096769031  -1   0   0 # o*
    721     13   7 -0.580000     2.309890089     6.893195030    86.094790219   0   0   0 # oc12
    722     13   8 -0.940000     1.268346617     0.176885399    88.353035420   0   0   0 # oc13
    723     13   1 -0.820000    -0.172280096     6.051344249    85.773622588   0   0   0 # o*
    724     13  11  1.700000     3.832984288     0.038716942    82.565609029   0   0   0 # casl
    725     13   1 -0.820000     0.016546424     3.977739960    83.733423317   0   0   0 # o*
    726     13   4  1.500000     3.991454419     3.732965934   102.334881650   0   0   0 # ca+t
    727     13   5  1.000000     1.069400674     5.275523529   101.591537978   0   0   0 # sc2
    728     13   6  1.000000     1.850241572     7.362403031    99.590095965   0   0   0 # sc3
    729     13   5  1.000000     1.018298007     2.197756970   101.551575734   0   0   0 # sc2
    730     13   7 -0.580000     1.017318735     6.172756890   100.227551150   0   0   0 # oc12
    731     13   7 -0.580000     1.047566706     3.717199081   101.029209063   0   0   0 # oc12
    732     13   8 -0.940000     2.414528594     5.506583542   102.400509153   0   0   0 # oc13
    733     13   8 -0.940000    22.213006769     5.566105980   102.431804543  -1   0   0 # oc13
    734     13   3 -1.080000     0.048341655     3.784479651    95.272554561   0   0   0 # oc22
    735     13   9 -0.670000     3.502508056     7.223646364    99.738640251   0   0   0 # oc14
    736     13   1 -0.820000     3.812595408     4.032611070    99.536603660   0   0   0 # o*
    737     13   7 -0.580000     1.032646275     1.438336051   100.108501766   0   0   0 # oc12
    738     13   8 -0.940000    22.120009988     1.885792002   102.380591684  -1   0   0 # oc13
    739     13   1 -0.820000     0.203166513     7.709112015    95.038872201   0   0   0 # o*
    740     13   4  1.500000     3.744316617     7.351970822   102.328561164   0   0   0 # ca+t
    741     13   3 -1.080000     3.058442323     5.850560981    83.944702685   0   0   0 # oc22
    742     13   1 -0.820000     2.307916840     1.667638615    83.865091359   0   0   0 # o*
    743     13   4  1.500000    22.235884830     1.985510645    88.479323523  -1   0   0 # ca+t
    744     13   4  1.500000     2.490574506     7.367093251    90.648417352   0   0   0 # ca+t
    745     13   5  1.000000    22.183766022     1.659594554    91.688784970  -1   0   0 # sc2
    746     13   6  1.000000     0.291611724     3.753396633    93.674084012   0   0   0 # sc3
    747     13   5  1.000000    22.165496013     5.944483123    91.710586388  -1   0   0 # sc2
    748     13   7 -0.580000    22.020065389     2.529658197    93.100326759  -1   0   0 # oc12
    749     13   7 -0.580000    22.192818200     7.518878724    92.216738628  -1   0   0 # oc12
    750     13   8 -0.940000    20.961240519     1.886961857    90.656864256  -1   0   0 # oc13
    751     13   3 -1.080000     1.417677424     7.221001146    98.095597861   0   0   0 # oc22
    752     13   9 -0.670000     1.853101901     3.620465136    93.364876574   0   0   0 # oc14
    753     13   1 -0.820000     2.498202680     7.924379639    93.457777226   0   0   0 # o*
    754     13   7 -0.580000    22.177920324     5.141409503    93.053107514  -1   0   0 # oc12
    755     13   8 -0.940000    20.770367374     5.662604933    90.863899047  -1   0   0 # oc13
    756     13   8 -0.940000     0.925049222     5.648100582    90.745541782   0   0   0 # oc13
    757     13   1 -0.820000     0.979436140     3.955074516    98.150090852   0   0   0 # o*
    758     13   1 -0.820000     4.169630769     1.921319263    97.589503481   0   0   0 # o*
    759     13   1 -0.820000     2.799757091     5.773664571    95.419423444   0   0   0 # o*
    760     13  11  1.700000     0.485647746     5.710885162    96.471402663   0   0   0 # casl
    761     13   1 -0.820000    20.902033243     0.027293051    99.902428621  -1   0   0 # o*
    762     13  10  0.400000     3.778271587     6.425000206    99.205289568   0   0   0 # hoy
    763     13  10  0.400000     2.316878841     3.667239735    94.181752849   0   0   0 # hoy
    764     13  10  0.400000     5.146856037     6.563303647    85.325623179   0   0   0 # hoy
    765     13   2  0.410000     2.055885736     2.610703006    83.808264589   0   0   0 # h*
    766     13   2  0.410000     2.156544706     1.481452231    84.811946550   0   0   0 # h*
    767     13   2  0.410000    21.938407561     7.932921517    82.713641463  -1   0   0 # h*
    768     13   2  0.410000    21.752870473     6.465601677    82.500629006  -1   0   0 # h*
    769     13   2  0.410000     0.760046316     6.254615694    85.798785880   0   0   0 # h*
    770     13   2  0.410000    22.140558681     6.416261935    84.897875587  -1   0   0 # h*
    771     13   2  0.410000     0.362012903     4.731899759    84.256156167   0   0   0 # h*
    772     13   2  0.410000     0.749752446     4.048846107    82.986709923   0   0   0 # h*
    773     13   2  0.410000     1.963049627     8.164402411    94.273592865   0   0   0 # h*
    774     13   2  0.410000     3.408276022     8.391244888    93.609639955   0   0   0 # h*
    775     13   2  0.410000    22.282544387     8.573836324    95.165988855  -1   0   0 # h*
    776     13   2  0.410000    -0.025640722     7.540819487    94.082853757   0   0   0 # h*
    777     13   2  0.410000     3.575061557     5.979896389    96.019611328   0   0   0 # h*
    778     13   2  0.410000     3.046258547     6.230044123    94.562151263   0   0   0 # h*
    779     13   2  0.410000     3.785109221     1.127098487    97.975542899   0   0   0 # h*
    780     13   2  0.410000     3.396737022     2.117943255    96.987543359   0   0   0 # h*
    781     13   2  0.410000     0.612298285     3.380572636    98.866527528   0   0   0 # h*
    782     13   2  0.410000     1.560620785     4.468422959    98.730072744   0   0   0 # h*
    783     13   2  0.410000    21.344853781     0.865205072    99.482149832  -1   0   0 # h*
    784     13   2  0.410000    21.616664737    21.584781968    99.694142775  -1  -1   0 # h*
    785     13   2  0.410000     3.888548773     3.084397133    99.208373040   0   0   0 # h*
    786     13   2  0.410000     4.229380597     4.498166773    98.779910288   0   0   0 # h*
    787     14   4  1.500000    13.684811303     3.865911038    90.703515804   0   0   0 # ca+t
    788     14   4  1.500000    10.982392765     5.664027427    88.405783573   0   0   0 # ca+t
    789     14   5  1.000000    13.757041961     3.510903865    87.512872480   0   0   0 # sc2
    790     14   6  1.000000    14.498581984     5.643047264    85.512516182   0   0   0 # sc3
    791     14   5  1.000000    13.807336204     0.426795218    87.473645362   0   0   0 # sc2
    792     14   7 -0.580000    13.705649616     4.373976824    86.141431205   0   0   0 # oc12
    793     14   7 -0.580000    13.706941036     1.973033103    86.918339535   0   0   0 # oc12
    794     14   8 -0.940000    15.067172534     3.795011527    88.398944761   0   0   0 # oc13
    795     14   8 -0.940000    12.422661865     3.754508119    88.447545888   0   0   0 # oc13
    796     14   9 -0.670000    16.073100425     5.625876100    85.883033293   0   0   0 # oc14
    797     14   1 -0.820000    11.064476272     6.091782418    85.687644135   0   0   0 # o*
    798     14   7 -0.580000    13.839353062     6.994643359    86.083527442   0   0   0 # oc12
    799     14   8 -0.940000    12.485373649     0.064485288    88.356248889   0   0   0 # oc13
    800     14   1 -0.820000    11.448715566     3.873228604    83.493737599   0   0   0 # o*
    801     14  11  1.700000    15.046954766    -0.025877366    82.510055381   0   0   0 # casl
    802     14   1 -0.820000    13.752442315     3.672781206    81.913851141   0   0   0 # o*
    803     14   4  1.500000    15.223742556     3.770860322   102.307387658   0   0   0 # ca+t
    804     14   5  1.000000    12.270070642     5.306778221   101.699526839   0   0   0 # sc2
    805     14   6  1.000000    12.795082131     7.495122722    99.656909946   0   0   0 # sc3
    806     14   5  1.000000    12.336566949     2.157370591   101.545682371   0   0   0 # sc2
    807     14   7 -0.580000    12.106510217     6.200301558   100.363701978   0   0   0 # oc12
    808     14   7 -0.580000    12.268146005     3.755254109   101.053155599   0   0   0 # oc12
    809     14   8 -0.940000    13.600877146     5.615309687   102.498198799   0   0   0 # oc13
    810     14   8 -0.940000    10.996899499     5.594025627   102.537119786   0   0   0 # oc13
    811     14   3 -1.080000    11.158170107     3.924032591    95.331669444   0   0   0 # oc22
    812     14   9 -0.670000    14.457284671     7.378907183    99.776252940   0   0   0 # oc14
    813     14   1 -0.820000    15.384000899     4.309175563    99.621249991   0   0   0 # o*
    814     14   7 -0.580000    12.452053873     1.375883851   100.168594572   0   0   0 # oc12
    815     14   8 -0.940000    10.924665697     1.836991848   102.263884989   0   0   0 # oc13
    816     14   1 -0.820000    10.941834734     7.504521990    95.081061014   0   0   0 # o*
    817     14   4  1.500000    15.051341027     7.485592606   102.637818436   0   0   0 # ca+t
    818     14   3 -1.080000    14.308468508     5.699127307    83.954535191   0   0   0 # oc22
    819     14   1 -0.820000    14.442269027     1.717127491    84.025842408   0   0   0 # o*
    820     14   4  1.500000    10.869043237     2.028540867    88.578046793   0   0   0 # ca+t
    821     14   4  1.500000    13.928978996     7.546755172    90.788106518   0   0   0 # ca+t
    822     14   5  1.000000    10.909375138     1.604528565    91.815201994   0   0   0 # sc2
    823     14   6  1.000000    11.564600835     3.817879929    93.781909479   0   0   0 # sc3
    824     14   5  1.000000    10.959756931     5.964865526    91.634460859   0   0   0 # sc2
    825     14   7 -0.580000    10.901370839     2.423438190    93.239110884   0   0   0 # oc12
    826     14   7 -0.580000    10.942540819     7.546194708    92.192615963   0   0   0 # oc12
    827     14   8 -0.940000     9.563597841     1.922102908    90.959177999   0   0   0 # oc13
    828     14   3 -1.080000    12.278810809     7.461852376    98.135589945   0   0   0 # oc22
    829     14   9 -0.670000    13.225670804     3.890523630    93.540563912   0   0   0 # oc14
    830     14   1 -0.820000    13.898373992     8.075867861    93.526812871   0   0   0 # o*
    831     14   7 -0.580000    10.860336595     5.075338504    93.016630590   0   0   0 # oc12
    832     14   8 -0.940000     9.759564681     5.699157736    90.658071894   0   0   0 # oc13
    833     14   8 -0.940000    12.331224910     5.702714956    90.873406652   0   0   0 # oc13
    834     14   1 -0.820000    11.694506452     3.913862289    98.338460088   0   0   0 # o*
    835     14   1 -0.820000    15.844930848     1.809580377    98.039444597   0   0   0 # o*
    836     14   1 -0.820000    13.998120749     5.751499642    95.982132740   0   0   0 # o*
    837     14  11  1.700000    11.577913072     5.673140699    96.745070035   0   0   0 # casl
    838     14   1 -0.820000     8.804489937     2.238370759    95.617843386   0   0   0 # o*
    839     14  10  0.400000    14.875075706     7.138445735    99.011275680   0   0   0 # hoy
    840     14  10  0.400000    13.663111829     4.328118824    94.189289585   0   0   0 # hoy
    841     14  10  0.400000    16.524786852     6.159993657    85.217002490   0   0   0 # hoy
    842     14   2  0.410000    13.814933467     2.458747503    83.732881100   0   0   0 # h*
    843     14   2  0.410000    14.195405258     1.870231285    84.992602848   0   0   0 # h*
    844     14   2  0.410000    11.927786612     6.508252438    85.577515577   0   0   0 # h*
    845     14   2  0.410000    10.438722311     6.536170989    84.974864138   0   0   0 # h*
    846     14   2  0.410000    11.994552546     4.306631245    82.851461132   0   0   0 # h*
    847     14   2  0.410000    11.531729708     4.423820803    84.292670715   0   0   0 # h*
    848     14   2  0.410000    14.385251623     2.931086700    81.889083821   0   0   0 # h*
    849     14   2  0.410000    14.212454638     4.214937789    82.576731123   0   0   0 # h*
    850     14   2  0.410000    13.486447521     8.473366581    94.327252243   0   0   0 # h*
    851     14   2  0.410000    14.846541346     8.267834437    93.585110960   0   0   0 # h*
    852     14   2  0.410000    11.086479504     6.950217420    94.267856019   0   0   0 # h*
    853     14   2  0.410000    10.837483552     8.385135169    94.605228819   0   0   0 # h*
    854     14   2  0.410000    14.726474428     5.359716837    96.526903368   0   0   0 # h*
    855     14   2  0.410000    14.438871307     6.446560473    95.424194319   0   0   0 # h*
    856     14   2  0.410000    15.714902874     2.381762678    98.841929145   0   0   0 # h*
    857     14   2  0.410000    14.961361840     1.355335883    98.090516271   0   0   0 # h*
    858     14   2  0.410000    12.132510298     3.042688553    98.498364381   0   0   0 # h*
    859     14   2  0.410000    11.904408297     4.271655387    99.246802066   0   0   0 # h*
    860     14   2  0.410000     9.651688406     2.662105086    95.639173026   0   0   0 # h*
    861     14   2  0.410000     8.982143069     1.809374351    94.745389139   0   0   0 # h*
    862     14   2  0.410000    16.399769352     4.466941764    99.639987490   0   0   0 # h*
    863     14   2  0.410000    15.088122558     4.749406918    98.767632557   0   0   0 # h*
    864     15   4  1.500000     2.534272212    11.135321962    90.695259117   0   0   0 # ca+t
    865     15   4  1.500000    -0.220520647    13.135061663    88.444289643   0   0   0 # ca+t
    866     15   5  1.000000     2.278809024    10.890064865    87.399878029   0   0   0 # sc2
    867     15   6  1.000000     3.037922862    13.131241867    85.439156265   0   0   0 # sc3
    868     15   5  1.000000     2.281578476     7.835011972    87.482974299   0   0   0 # sc2
    869     15   7 -0.580000     2.348670955    11.776932050    85.985775015   0   0   0 # oc12
    870     15   7 -0.580000     2.177479747     9.356553737    86.860731671   0   0   0 # oc12
    871     15   8 -0.940000     3.693387500    11.036271665    88.249734691   0   0   0 # oc13
    872     15   8 -0.940000     1.009683928    11.289269479    88.333955477   0   0   0 # oc13
    873     15   9 -0.670000     4.691455252    13.081323107    85.753723012   0   0   0 # oc14
    874     15   1 -0.820000    22.063622123    13.790279297    85.162368816  -1   0   0 # o*
    875     15   7 -0.580000     2.299388520    14.413946452    86.117561966   0   0   0 # oc12
    876     15   8 -0.940000     1.102030662     7.488943979    88.435979117   0   0   0 # oc13
    877     15   1 -0.820000     0.115868169    11.243550943    83.675121968   0   0   0 # o*
    878     15  11  1.700000     3.880472337     7.525227304    82.435979049   0   0   0 # casl
    879     15   1 -0.820000     2.279628966    11.741279694    81.661030862   0   0   0 # o*
    880     15   4  1.500000     3.966324315    11.034082519   102.528860037   0   0   0 # ca+t
    881     15   5  1.000000     1.027459655    12.615723342   101.524031501   0   0   0 # sc2
    882     15   6  1.000000     1.729764451    14.765591563    99.542427357   0   0   0 # sc3
    883     15   5  1.000000     1.054822149     9.591213797   101.427438686   0   0   0 # sc2
    884     15   7 -0.580000     0.912176091    13.522790312   100.146976733   0   0   0 # oc12
    885     15   7 -0.580000     1.005060356    11.104306730   100.899720434   0   0   0 # oc12
    886     15   8 -0.940000     2.469227332    12.884226436   102.280220533   0   0   0 # oc13
    887     15   8 -0.940000    22.295274167    12.899561155   102.403279326  -1   0   0 # oc13
    888     15   3 -1.080000     0.142669228    11.296784945    95.165641234   0   0   0 # oc22
    889     15   9 -0.670000     3.365215837    14.728040553    99.817244694   0   0   0 # oc14
    890     15   1 -0.820000     7.078853392     7.543106943    98.243968443   0   0   0 # o*
    891     15   7 -0.580000     1.178122270     8.711728947   100.009885536   0   0   0 # oc12
    892     15   8 -0.940000    22.228065290     9.306372401   102.275523563  -1   0   0 # oc13
    893     15   1 -0.820000    21.970047011    14.689722159    95.277680635  -1   0   0 # o*
    894     15   4  1.500000     3.668271774    14.718153533   102.459362672   0   0   0 # ca+t
    895     15   3 -1.080000     2.757377833    13.195175072    83.886282696   0   0   0 # oc22
    896     15   1 -0.820000     2.924659840     9.149629005    84.173435527   0   0   0 # o*
    897     15   4  1.500000    22.025326272     9.286257472    88.470773958  -1   0   0 # ca+t
    898     15   4  1.500000     2.664545597    14.882425582    90.601959584   0   0   0 # ca+t
    899     15   5  1.000000    22.158018048     9.048351882    91.650250257  -1   0   0 # sc2
    900     15   6  1.000000     0.384165150    11.243049868    93.639781150   0   0   0 # sc3
    901     15   5  1.000000    -0.172369834    13.441813744    91.694363810   0   0   0 # sc2
    902     15   7 -0.580000    22.098943124     9.939875869    93.023748937  -1   0   0 # oc12
    903     15   7 -0.580000    22.299080261    14.958898496    92.288546978  -1   0   0 # oc12
    904     15   8 -0.940000    20.877131907     9.278179944    90.755383560  -1   0   0 # oc13
    905     15   3 -1.080000     1.563419288    14.787300368    97.999011653   0   0   0 # oc22
    906     15   9 -0.670000     2.026215194    11.219665279    93.440599607   0   0   0 # oc14
    907     15   1 -0.820000     2.493217496    15.894257033    93.690542155   0   0   0 # o*
    908     15   7 -0.580000    22.166924314    12.515649014    92.983041862  -1   0   0 # oc12
    909     15   8 -0.940000    21.141782198    13.238130115    90.635636367  -1   0   0 # oc13
    910     15   8 -0.940000     1.195381669    13.175328768    91.003798054   0   0   0 # oc13
    911     15   1 -0.820000     1.629733713    11.229848274    98.040812998   0   0   0 # o*
    912     15   1 -0.820000     3.436561044     9.226439564    96.876388201   0   0   0 # o*
    913     15   1 -0.820000     2.664588043    13.712556434    95.366898480   0   0   0 # o*
    914     15  11  1.700000     0.507026442    13.066014658    96.735035706   0   0   0 # casl
    915     15   1 -0.820000    21.982328416     9.535209025    97.506593318  -1   0   0 # o*
    916     15  10  0.400000     3.678760525    14.349075402    99.036956853   0   0   0 # hoy
    917     15  10  0.400000     2.398409544    11.793498494    94.047422049   0   0   0 # hoy
    918     15  10  0.400000     5.158544730    13.583931444    85.092285453   0   0   0 # hoy
    919     15   2  0.410000     2.507782404     8.642481555    84.871478749   0   0   0 # h*
    920     15   2  0.410000     2.931359320    10.004544716    84.714287040   0   0   0 # h*
    921     15   2  0.410000     0.370456838    13.853960952    84.679471698   0   0   0 # h*
    922     15   2  0.410000    21.725609936    14.688064923    85.089091586  -1   0   0 # h*
    923     15   2  0.410000     0.598933865    11.818936238    84.294049484   0   0   0 # h*
    924     15   2  0.410000     0.810441790    11.204493534    82.917996529   0   0   0 # h*
    925     15   2  0.410000     2.564119217    12.193404042    82.435169118   0   0   0 # h*
    926     15   2  0.410000     2.830339673    10.949704189    81.637349233   0   0   0 # h*
    927     15   2  0.410000     3.517528791    15.871271368    93.735946538   0   0   0 # h*
    928     15   2  0.410000     2.480703955    16.871950484    93.487022564   0   0   0 # h*
    929     15   2  0.410000    21.912378352    15.677047789    95.507518384  -1   0   0 # h*
    930     15   2  0.410000    22.218754808    14.660086607    94.316911685  -1   0   0 # h*
    931     15   2  0.410000     2.581627109    14.496813130    94.736320676   0   0   0 # h*
    932     15   2  0.410000     3.589264723    13.892739572    95.625357139   0   0   0 # h*
    933     15   2  0.410000     2.840184763     8.560884907    97.344423084   0   0   0 # h*
    934     15   2  0.410000     2.813206070     9.977226342    96.941336880   0   0   0 # h*
    935     15   2  0.410000     2.475011323    11.532236385    98.523873293   0   0   0 # h*
    936     15   2  0.410000     1.211332299    10.696116333    98.826343999   0   0   0 # h*
    937     15   2  0.410000    -0.032849940    10.002470850    96.824169325   0   0   0 # h*
    938     15   2  0.410000     0.082659958     8.817792699    97.749446039   0   0   0 # h*
    939     15   2  0.410000     6.645630851     6.749504295    98.693615557   0   0   0 # h*
    940     15   2  0.410000     7.309870178     7.968520402    99.066806212   0   0   0 # h*
    941     16   4  1.500000    13.758554128    11.427165967    90.537332856   0   0   0 # ca+t
    942     16   4  1.500000    10.944239436    13.073387983    88.646846976   0   0   0 # ca+t
    943     16   5  1.000000    13.796931249    10.891217868    87.427992599   0   0   0 # sc2
    944     16   6  1.000000    14.589737823    13.118715482    85.572299587   0   0   0 # sc3
    945     16   5  1.000000    13.781777497     7.824621746    87.476390301   0   0   0 # sc2
    946     16   7 -0.580000    14.007306581    11.731937346    86.037507014   0   0   0 # oc12
    947     16   7 -0.580000    13.780652074     9.332071865    86.906379753   0   0   0 # oc12
    948     16   8 -0.940000    15.078047419    11.175736974    88.493117913   0   0   0 # oc13
    949     16   8 -0.940000    12.474266951    11.199039903    88.240196571   0   0   0 # oc13
    950     16   9 -0.670000    16.145904356    13.114519122    85.886720194   0   0   0 # oc14
    951     16   1 -0.820000    11.131944782    13.637578806    85.908758226   0   0   0 # o*
    952     16   7 -0.580000    13.747015044    14.308758921    86.208149114   0   0   0 # oc12
    953     16   8 -0.940000    12.481813506     7.444168764    88.240952319   0   0   0 # oc13
    954     16   1 -0.820000    11.339819418    11.488642284    83.779317061   0   0   0 # o*
    955     16  11  1.700000    15.093742635     7.436843111    82.546718281   0   0   0 # casl
    956     16   1 -0.820000    13.681636234    11.425575428    82.083776909   0   0   0 # o*
    957     16   4  1.500000    15.241462920    11.293732708   102.420185578   0   0   0 # ca+t
    958     16   5  1.000000    12.305192171    12.712423727   101.561538401   0   0   0 # sc2
    959     16   6  1.000000    13.188681781    14.895964565    99.635414305   0   0   0 # sc3
    960     16   5  1.000000    12.356172871     9.687301917   101.637265392   0   0   0 # sc2
    961     16   7 -0.580000    12.457019999    13.591863538   100.180548666   0   0   0 # oc12
    962     16   7 -0.580000    12.404422304    11.184991890   101.047451038   0   0   0 # oc12
    963     16   8 -0.940000    13.558991733    12.967551163   102.579751355   0   0   0 # oc13
    964     16   8 -0.940000    10.890420194    13.024807819   102.211692333   0   0   0 # oc13
    965     16   3 -1.080000    11.949791672    11.055644087    95.197535717   0   0   0 # oc22
    966     16   9 -0.670000    14.807573610    14.925434968   100.111920000   0   0   0 # oc14
    967     16   1 -0.820000    15.771279786     9.143064516    97.704886410   0   0   0 # o*
    968     16   7 -0.580000    12.256914426     8.793893763   100.287274155   0   0   0 # oc12
    969     16   8 -0.940000    11.048235695     9.461496773   102.574336856   0   0   0 # oc13
    970     16   1 -0.820000    13.283879986    15.057387169    94.813518642   0   0   0 # o*
    971     16   4  1.500000    14.854305404    14.781697511   102.696185313   0   0   0 # ca+t
    972     16   3 -1.080000    14.396050135    13.252844831    84.025641692   0   0   0 # oc22
    973     16   1 -0.820000    14.471467518     9.392599474    84.073029862   0   0   0 # o*
    974     16   4  1.500000    10.838255586     9.296509718    88.525568920   0   0   0 # ca+t
    975     16   4  1.500000    13.892692059    14.947811683    90.731856115   0   0   0 # ca+t
    976     16   5  1.000000    10.932635393     9.172902254    91.642625452   0   0   0 # sc2
    977     16   6  1.000000    12.023538895    11.099963540    93.627237240   0   0   0 # sc3
    978     16   5  1.000000    11.133703017    13.424836846    91.866349363   0   0   0 # sc2
    979     16   7 -0.580000    11.117024528     9.939018146    93.036785197   0   0   0 # oc12
    980     16   7 -0.580000    11.119065446    14.961549029    92.401193460   0   0   0 # oc12
    981     16   8 -0.940000     9.522755516     9.457141145    90.928168858   0   0   0 # oc13
    982     16   3 -1.080000    12.988183994    14.873478850    98.033264352   0   0   0 # oc22
    983     16   9 -0.670000    13.588519855    11.054118323    93.148293433   0   0   0 # oc14
    984     16   1 -0.820000    15.247256288    16.802113349    97.292340232   0   0   0 # o*
    985     16   7 -0.580000    11.318637053    12.521343018    93.217808199   0   0   0 # oc12
    986     16   8 -0.940000     9.681943574    13.108835961    91.146317354   0   0   0 # oc13
    987     16   8 -0.940000    12.283271889    13.176760298    90.794010735   0   0   0 # oc13
    988     16   1 -0.820000    13.106769000    11.332684272    98.177920084   0   0   0 # o*
    989     16   1 -0.820000    13.489859499     9.002190052    96.127523985   0   0   0 # o*
    990     16   1 -0.820000    15.253317481    13.150886401    96.580516550   0   0   0 # o*
    991     16  11  1.700000    12.672146073    13.041459912    96.391050230   0   0   0 # casl
    992     16   1 -0.820000    10.574626683     9.998986703    97.166420005   0   0   0 # o*
    993     16  10  0.400000    15.307536197    14.827461196    99.270938541   0   0   0 # hoy
    994     16  10  0.400000    14.098802423    11.396599770    93.783857500   0   0   0 # hoy
    995     16  10  0.400000    16.498179102    12.656734287    85.105653551   0   0   0 # hoy
    996     16   2  0.410000    14.127012056     9.734796578    84.996543154   0   0   0 # h*
    997     16   2  0.410000    15.283115079    10.034915008    84.108992783   0   0   0 # h*
    998     16   2  0.410000    10.705607356    14.496214932    86.026265779   0   0   0 # h*
    999     16   2  0.410000    12.018119947    13.903512891    85.716861668   0   0   0 # h*
   1000     16   2  0.410000    11.389060905    12.155032181    84.462728912   0   0   0 # h*
   1001     16   2  0.410000    12.284559006    11.411511796    83.573205599   0   0   0 # h*
   1002     16   2  0.410000    14.026019612    11.798458286    82.866596038   0   0   0 # h*
   1003     16   2  0.410000    14.349048976    10.646170326    82.032975895   0   0   0 # h*
   1004     16   2  0.410000    14.704716506    16.053347183    97.546930603   0   0   0 # h*
   1005     16   2  0.410000    14.642000236    17.533581594    97.507612513   0   0   0 # h*
   1006     16   2  0.410000    12.862482361    15.906627454    94.588311724   0   0   0 # h*
   1007     16   2  0.410000    14.229113351    15.310356285    94.783255159   0   0   0 # h*
   1008     16   2  0.410000    15.708169644    12.296321328    96.647016344   0   0   0 # h*
   1009     16   2  0.410000    15.988640803    13.680070982    96.146982648   0   0   0 # h*
   1010     16   2  0.410000    12.771258827     9.640816422    95.740492625   0   0   0 # h*
   1011     16   2  0.410000    12.952916380     8.508112811    96.850413842   0   0   0 # h*
   1012     16   2  0.410000    12.431078558    11.099809785    98.853708295   0   0   0 # h*
   1013     16   2  0.410000    13.914740428    11.245509862    98.678540251   0   0   0 # h*
   1014     16   2  0.410000    11.048347911    10.622676374    96.572294180   0   0   0 # h*
   1015     16   2  0.410000    11.136068315     9.265365611    97.305261498   0   0   0 # h*
   1016     16   2  0.410000    15.360596379     8.924492106    98.542164704   0   0   0 # h*
   1017     16   2  0.410000    15.025163251     9.179113269    97.125159721   0   0   0 # h*
   1018     17   4  1.500000     2.404861140    18.672504905    90.666420116   0   0   0 # ca+t
   1019     17   4  1.500000    -0.076955222    20.559795798    88.455399007   0   0   0 # ca+t
   1020     17   5  1.000000     2.553608171    18.364107215    87.444100049   0   0   0 # sc2
   1021     17   6  1.000000     3.267115478    20.528525657    85.476323942   0   0   0 # sc3
   1022     17   5  1.000000     2.403828019    15.258126728    87.457820240   0   0   0 # sc2
   1023     17   7 -0.580000     2.527632788    19.237411672    86.022871182   0   0   0 # oc12
   1024     17   7 -0.580000     2.371161741    16.813698452    86.907032314   0   0   0 # oc12
   1025     17   8 -0.940000     3.854091362    18.654062079    88.317865917   0   0   0 # oc13
   1026     17   8 -0.940000     1.309011988    18.721152503    88.471715185   0   0   0 # oc13
   1027     17   9 -0.670000     4.918745621    20.518969656    85.720606463   0   0   0 # oc14
   1028     17   1 -0.820000    -0.210674952    20.897260407    84.112132613   0   0   0 # o*
   1029     17   7 -0.580000     2.556393490    21.896738236    86.003751431   0   0   0 # oc12
   1030     17   8 -0.940000     1.174769055    14.999929577    88.456262663   0   0   0 # oc13
   1031     17   1 -0.820000     0.589804123    18.136924083    83.827399362   0   0   0 # o*
   1032     17  11  1.700000     3.454839196    14.886801052    82.353855234   0   0   0 # casl
   1033     17   1 -0.820000     2.178149631    18.935611950    81.390915982   0   0   0 # o*
   1034     17   4  1.500000     3.998027782    18.525136449   102.710889887   0   0   0 # ca+t
   1035     17   5  1.000000     1.122417314    20.156121085   101.437692146   0   0   0 # sc2
   1036     17   5  1.000000     1.133277806    17.081307542   101.387596968   0   0   0 # sc2
   1037     17   7 -0.580000     1.082179085    21.093005127   100.049787096   0   0   0 # oc12
   1038     17   7 -0.580000     1.237443273    18.638410284   100.825242124   0   0   0 # oc12
   1039     17   8 -0.940000     2.461804152    20.426120200   102.257235050   0   0   0 # oc13
   1040     17   8 -0.940000    22.285313102    20.357894380   102.316642729  -1   0   0 # oc13
   1041     17   3 -1.080000     0.217374723    18.783656527    95.370596166   0   0   0 # oc22
   1042     17   1 -0.820000     4.797324795    20.187612319    97.828415265   0   0   0 # o*
   1043     17   7 -0.580000     1.078832772    16.141908849   100.040494774   0   0   0 # oc12
   1044     17   8 -0.940000    22.295506993    16.910209325   102.257484640  -1   0   0 # oc13
   1045     17   3 -1.080000     3.041200209    20.576358438    83.929785885   0   0   0 # oc22
   1046     17   1 -0.820000     3.110959571    16.578469674    83.982251475   0   0   0 # o*
   1047     17   4  1.500000    22.106131791    16.704385246    88.653046787  -1   0   0 # ca+t
   1048     17   5  1.000000    22.250310053    16.540233409    91.796114499  -1   0   0 # sc2
   1049     17   6  1.000000     0.382357535    18.724390439    93.803937601   0   0   0 # sc3
   1050     17   5  1.000000    -0.193282427    20.858812489    91.762137972   0   0   0 # sc2
   1051     17   7 -0.580000    22.142385991    17.481346169    93.163149576  -1   0   0 # oc12
   1052     17   8 -0.940000    20.955723480    16.839155812    90.838526734  -1   0   0 # oc13
   1053     17   9 -0.670000     1.962498231    18.793691408    93.429226347   0   0   0 # oc14
   1054     17   1 -0.820000     2.050639958     1.952390219    95.925427819   0   1   0 # o*
   1055     17   7 -0.580000    22.241752064    20.026909238    93.187180238  -1   0   0 # oc12
   1056     17   8 -0.940000    21.110153470    20.458781017    90.744302975  -1   0   0 # oc13
   1057     17   8 -0.940000     1.178406134    20.597143536    91.022003607   0   0   0 # oc13
   1058     17   1 -0.820000     2.335444045    19.022398417    97.922457512   0   0   0 # o*
   1059     17   1 -0.820000     3.789572755    16.654606909    97.270252553   0   0   0 # o*
   1060     17   1 -0.820000     2.614932277     0.613294457    93.311046248   0   1   0 # o*
   1061     17  11  1.700000     0.939717549    20.557031172    96.645523760   0   0   0 # casl
   1062     17   1 -0.820000    22.137172882    17.084945754    97.504340605  -1   0   0 # o*
   1063     17  10  0.400000     2.213142509    19.610914716    93.843220929   0   0   0 # hoy
   1064     17  10  0.400000     5.286651531    21.020146478    84.965008250   0   0   0 # hoy
   1065     17   2  0.410000     3.400313154    17.482016750    84.205048651   0   0   0 # h*
   1066     17   2  0.410000     2.820210733    16.362015383    84.899819964   0   0   0 # h*
   1067     17   2  0.410000    21.854483679    21.611578642    84.511309305  -1   0   0 # h*
   1068     17   2  0.410000     0.644177421    21.272347212    83.857303631   0   0   0 # h*
   1069     17   2  0.410000     1.145565666    18.705760906    84.424360818   0   0   0 # h*
   1070     17   2  0.410000     1.221909858    17.518359935    83.445338664   0   0   0 # h*
   1071     17   2  0.410000     2.492845493    19.378441173    82.281513190   0   0   0 # h*
   1072     17   2  0.410000     2.887583446    18.291655031    81.310210347   0   0   0 # h*
   1073     17   2  0.410000     1.617447828     1.391357842    96.680796831   0   1   0 # h*
   1074     17   2  0.410000     1.474635934     2.757690616    95.820009718   0   1   0 # h*
   1075     17   2  0.410000     2.245664540     1.138420822    94.030755787   0   1   0 # h*
   1076     17   2  0.410000     3.588187052     0.660016515    93.580538680   0   1   0 # h*
   1077     17   2  0.410000     3.149071048    17.411202586    97.099450697   0   0   0 # h*
   1078     17   2  0.410000     2.982960371    16.080963008    97.540234331   0   0   0 # h*
   1079     17   2  0.410000     2.153818706    18.451629156    98.719152158   0   0   0 # h*
   1080     17   2  0.410000     3.194228840    19.460046567    98.115214149   0   0   0 # h*
   1081     17   2  0.410000    -0.058756815    17.602276711    96.775282298   0   0   0 # h*
   1082     17   2  0.410000     0.271861072    16.471151676    97.842721078   0   0   0 # h*
   1083     17   2  0.410000     5.520352891    20.502091967    98.384514897   0   0   0 # h*
   1084     17   2  0.410000     5.225665046    19.304361652    97.938722175   0   0   0 # h*
   1085     18   4  1.500000    13.758563175    18.843991655    90.717951005   0   0   0 # ca+t
   1086     18   4  1.500000    10.980507530    20.497874290    88.568783116   0   0   0 # ca+t
   1087     18   5  1.000000    13.827980238    18.313337576    87.523509563   0   0   0 # sc2
   1088     18   6  1.000000    14.572304125    20.463783095    85.505384068   0   0   0 # sc3
   1089     18   5  1.000000    13.795606271    15.211467879    87.589208016   0   0   0 # sc2
   1090     18   7 -0.580000    13.859796404    19.068404651    86.084799304   0   0   0 # oc12
   1091     18   7 -0.580000    13.779463568    16.738673469    87.032855717   0   0   0 # oc12
   1092     18   8 -0.940000    15.086555807    18.713860475    88.439279366   0   0   0 # oc13
   1093     18   8 -0.940000    12.511807885    18.623440679    88.314375057   0   0   0 # oc13
   1094     18   9 -0.670000    16.141828064    20.443162163    85.887165390   0   0   0 # oc14
   1095     18   1 -0.820000    11.124745375    20.842730614    85.956899744   0   0   0 # o*
   1096     18   7 -0.580000    13.816058647    21.773859175    86.035425110   0   0   0 # oc12
   1097     18   8 -0.940000    12.504378277    14.931673540    88.481995856   0   0   0 # oc13
   1098     18   1 -0.820000    11.481991729    18.511790090    83.995470325   0   0   0 # o*
   1099     18  11  1.700000    15.191862821    14.989978114    82.668924770   0   0   0 # casl
   1100     18   1 -0.820000    13.341868008    19.053474059    81.787345892   0   0   0 # o*
   1101     18   4  1.500000    15.244425028    18.637340472   102.617677045   0   0   0 # ca+t
   1102     18   5  1.000000    12.274881573    20.122321758   101.784397079   0   0   0 # sc2
   1103     18   5  1.000000    12.444861032    17.021845132   101.623655251   0   0   0 # sc2
   1104     18   7 -0.580000    12.246885988    21.039005309   100.386464241   0   0   0 # oc12
   1105     18   7 -0.580000    12.430064165    18.600286298   101.164662268   0   0   0 # oc12
   1106     18   8 -0.940000    13.585314158    20.455423178   102.680290697   0   0   0 # oc13
   1107     18   8 -0.940000    10.923599327    20.328473779   102.658161612   0   0   0 # oc13
   1108     18   3 -1.080000    11.433253440    18.770080340    95.332436013   0   0   0 # oc22
   1109     18   1 -0.820000    16.102864279    20.859665817    97.704081813   0   0   0 # o*
   1110     18   7 -0.580000    12.557061544    16.241035071   100.170778479   0   0   0 # oc12
   1111     18   8 -0.940000    11.008764963    16.622797508   102.335168973   0   0   0 # oc13
   1112     18   3 -1.080000    14.404717491    20.385541320    83.959051279   0   0   0 # oc22
   1113     18   1 -0.820000    14.181336256    16.757312116    84.097393158   0   0   0 # o*
   1114     18   4  1.500000    10.856109804    16.752717090    88.678593169   0   0   0 # ca+t
   1115     18   5  1.000000    10.945632057    16.499315218    91.782742000   0   0   0 # sc2
   1116     18   6  1.000000    11.608669785    18.660504602    93.741206530   0   0   0 # sc3
   1117     18   5  1.000000    10.900904936    20.881954658    91.747645621   0   0   0 # sc2
   1118     18   7 -0.580000    10.759158154    17.436360715    93.130772462   0   0   0 # oc12
   1119     18   8 -0.940000     9.708411408    16.673554373    90.753124396   0   0   0 # oc13
   1120     18   9 -0.670000    13.192581010    18.652730582    93.441176652   0   0   0 # oc14
   1121     18   1 -0.820000    13.143767025     2.155359076    96.382455870   0   1   0 # o*
   1122     18   7 -0.580000    11.003817134    19.997802497    93.134325331   0   0   0 # oc12
   1123     18   8 -0.940000     9.649963111    20.545820608    90.848512559   0   0   0 # oc13
   1124     18   8 -0.940000    12.205289545    20.647295757    90.838442980   0   0   0 # oc13
   1125     18   1 -0.820000    12.904591719    18.551952782    98.242896673   0   0   0 # o*
   1126     18   1 -0.820000    15.164687216    18.663558261    99.936954908   0   0   0 # o*
   1127     18   1 -0.820000    13.821200695     0.619731674    93.939645068   0   1   0 # o*
   1128     18  11  1.700000    11.827845525    20.344147183    97.014340739   0   0   0 # casl
   1129     18   1 -0.820000    11.042107059    16.567760309    97.185478146   0   0   0 # o*
   1130     18  10  0.400000    13.671562313    18.826212814    94.199797568   0   0   0 # hoy
   1131     18  10  0.400000    16.504328817    20.781256356    85.103391785   0   0   0 # hoy
   1132     18   2  0.410000    14.906510841    17.449347574    84.298596796   0   0   0 # h*
   1133     18   2  0.410000    13.748903036    16.807350006    85.007358361   0   0   0 # h*
   1134     18   2  0.410000    10.599322166    21.635692290    86.067016487   0   0   0 # h*
   1135     18   2  0.410000    11.950886127    21.317193101    85.692847235   0   0   0 # h*
   1136     18   2  0.410000    12.398594971    18.380455432    83.682692564   0   0   0 # h*
   1137     18   2  0.410000    11.624973613    19.161355549    84.761348694   0   0   0 # h*
   1138     18   2  0.410000    13.682108223    19.573720432    82.551467909   0   0   0 # h*
   1139     18   2  0.410000    14.186973617    18.545537389    81.537769800   0   0   0 # h*
   1140     18   2  0.410000    12.993342913     1.379463100    96.982576099   0   1   0 # h*
   1141     18   2  0.410000    12.226940523     2.621405000    96.164650350   0   1   0 # h*
   1142     18   2  0.410000    13.784239357     1.419122524    94.525862421   0   1   0 # h*
   1143     18   2  0.410000    14.738072295     0.588542712    93.645056067   0   1   0 # h*
   1144     18   2  0.410000    15.673360812    17.829574286    99.705485637   0   0   0 # h*
   1145     18   2  0.410000    15.783345593    19.324198114    99.646182045   0   0   0 # h*
   1146     18   2  0.410000    12.705781921    17.715233032    98.674852453   0   0   0 # h*
   1147     18   2  0.410000    13.464812793    18.930374319    98.961503862   0   0   0 # h*
   1148     18   2  0.410000    11.906467602    16.080357655    97.435289894   0   0   0 # h*
   1149     18   2  0.410000    11.382251161    17.251631738    96.471986183   0   0   0 # h*
   1150     18   2  0.410000    16.926538732    20.365492555    97.922564017   0   0   0 # h*
   1151     18   2  0.410000    16.373553469    21.464922418    96.904889888   0   0   0 # h*
   1152     19   1 -0.820000     2.298179898    22.162651489     5.528531837   0  -1   0 # o*
   1153     19   2  0.410000     1.769613858    21.398286095     5.113995183   0  -1   0 # h*
   1154     19   2  0.410000     2.246692061     0.416003402     4.651237849   0   0   0 # h*
   1155     20   1 -0.820000    12.520216707    22.095081147     6.582892066   0  -1   0 # o*
   1156     20   2  0.410000    11.763182615     0.423032080     6.345407103   0   0   0 # h*
   1157     20   2  0.410000    12.003797269    21.313679072     6.725254848   0  -1   0 # h*
   1158     21   6  1.000000     1.923720029    -0.040801147    23.747869341   0   0   0 # sc3
   1159     21   9 -0.670000     3.525057489    -0.000128549    24.067647924   0   0   0 # oc14
   1160     21   1 -0.820000    22.015096060    21.880806454    19.539251798  -1  -1   0 # o*
   1161     21   4  1.500000     3.918005797    -0.018928948    26.708592502   0   0   0 # ca+t
   1162     21   1 -0.820000     1.846888393    22.021327020    81.351528998   0  -1   0 # o*
   1163     21   4  1.500000     2.421937280    22.201342403    15.169260317   0  -1   0 # ca+t
   1164     21   7 -0.580000    22.127940741     0.000183189    16.699932544  -1   0   0 # oc12
   1165     21   3 -1.080000     1.741937955    22.174555408    22.192758360   0  -1   0 # oc22
   1166     21  10  0.400000     3.880929333    21.619765427    23.412133799   0  -1   0 # hoy
   1167     21   2  0.410000    22.173957684    22.016752639    18.551061651  -1  -1   0 # h*
   1168     21   2  0.410000    21.370973105     0.385071091    19.632580857  -1   0   0 # h*
   1169     21   2  0.410000     1.901568080    21.600504430    80.487238658   0  -1   0 # h*
   1170     21   2  0.410000     0.968640872    21.602245889    81.548796422   0  -1   0 # h*
   1171     22   6  1.000000    13.037241845    22.166174898    23.949283541   0  -1   0 # sc3
   1172     22   9 -0.670000    14.664534088    22.114859329    24.181108918   0  -1   0 # oc14
   1173     22   1 -0.820000    11.030950962    -0.033785705    19.494342601   0   0   0 # o*
   1174     22   4  1.500000    15.187695290    22.164220308    26.925796736   0  -1   0 # ca+t
   1175     22   1 -0.820000    12.510395361     0.194148161    81.793475626   0   0   0 # o*
   1176     22   4  1.500000    13.854707066    -0.045684725    15.039711919   0   0   0 # ca+t
   1177     22   7 -0.580000    10.682944888     0.046415510    16.571876403   0   0   0 # oc12
   1178     22   3 -1.080000    12.666694317    22.086660552    22.429999510   0  -1   0 # oc22
   1179     22  10  0.400000    15.036697558    21.666736330    23.491408978   0  -1   0 # hoy
   1180     22   2  0.410000    10.331979161     0.722192053    19.525851497   0   0   0 # h*
   1181     22   2  0.410000    11.169500478    -0.003357156    18.491135992   0   0   0 # h*
   1182     22   2  0.410000    11.967830626    21.673918065    81.928593524   0  -1   0 # h*
   1183     22   2  0.410000    11.764867263     0.814204922    81.733913433   0   0   0 # h*
   1184     23   6  1.000000     1.732097778     0.157233449    99.452688438   0   0   0 # sc3
   1185     23   9 -0.670000     3.375723354     0.185003086    99.572773306   0   0   0 # oc14
   1186     23   1 -0.820000    22.139737149    22.151409720    95.383864523  -1  -1   0 # o*
   1187     23   4  1.500000     3.804877233     0.123907378   102.522365922   0   0   0 # ca+t
   1188     23   4  1.500000     2.614291711     0.163170190    90.721077815   0   0   0 # ca+t
   1189     23   7 -0.580000    22.228452984     0.137645428    92.296220009  -1   0   0 # oc12
   1190     23   3 -1.080000     1.351738186     0.177315752    97.926918466   0   0   0 # oc22
   1191     23  10  0.400000     3.787996969    21.821305780    99.031016065   0  -1   0 # hoy
   1192     23   2  0.410000    22.166908603    -0.004325377    94.422885893  -1   0   0 # h*
   1193     23   2  0.410000    21.884341724     0.766105429    95.716966700  -1   0   0 # h*
   1194     24   6  1.000000    13.065872570     0.013770123    99.709468059   0   0   0 # sc3
   1195     24   9 -0.670000    14.702130078    22.171515310    99.884744947   0  -1   0 # oc14
   1196     24   1 -0.820000    11.387357136    21.893420406    95.275055739   0  -1   0 # o*
   1197     24   4  1.500000    15.147285898     0.025713818   102.503028053   0   0   0 # ca+t
   1198     24   4  1.500000    13.899389962     0.211944188    90.652333484   0   0   0 # ca+t
   1199     24   7 -0.580000    10.881326956     0.090873384    92.319994022   0   0   0 # oc12
   1200     24   3 -1.080000    12.791742991    22.185257487    98.176112711   0  -1   0 # oc22
   1201     24  10  0.400000    14.953422832    21.487822994    99.286568407   0  -1   0 # hoy
   1202     24   2  0.410000    11.653127098     0.566195628    95.107420790   0   0   0 # h*
   1203     24   2  0.410000    11.519715868    21.565523253    94.353972813   0  -1   0 # h*
   1204     25   3 -1.080000    10.121551332     5.350982208     5.628764163   0   0   0 # oc22
   1205     25   1 -0.820000    10.405200887     1.715768828     5.493473387   0   0   0 # o*
   1206     25   4  1.500000     7.004795641     1.637434816     1.125032278   0   0   0 # ca+t
   1207     25   4  1.500000     7.122153004     5.539985660     1.120154939   0   0   0 # ca+t
   1208     25   5  1.000000     9.881968175     3.324355677     2.125196598   0   0   0 # sc2
   1209     25   6  1.000000    10.592348779     5.408135614     4.164484162   0   0   0 # sc3
   1210     25   5  1.000000    10.013972859     0.219978096     2.198630410   0   0   0 # sc2
   1211     25   7 -0.580000     9.778938084     4.287989683     3.503462477   0   0   0 # oc12
   1212     25   7 -0.580000    10.045553901     1.827794005     2.702944718   0   0   0 # oc12
   1213     25   8 -0.940000     8.588700084     3.472311282     1.162644570   0   0   0 # oc13
   1214     25   9 -0.670000    12.174169046     5.200422156     4.065718413   0   0   0 # oc14
   1215     25   1 -0.820000     7.358722515     5.911376923     3.963106033   0   0   0 # o*
   1216     25   7 -0.580000    10.135966701     6.877728655     3.586223090   0   0   0 # oc12
   1217     25   8 -0.940000     8.730446809    22.160546501     1.306966426   0  -1   0 # oc13
   1218     25   1 -0.820000     6.651770133     3.661786955     6.476025626   0   0   0 # o*
   1219     25  10  0.400000    12.410154023     4.750253381     4.883234412   0   0   0 # hoy
   1220     25   2  0.410000     7.725201031     6.678438420     4.399604044   0   0   0 # h*
   1221     25   2  0.410000     8.115555157     5.289263930     4.011414113   0   0   0 # h*
   1222     25   2  0.410000     6.300313694     2.759570423     6.345877106   0   0   0 # h*
   1223     25   2  0.410000     5.788812828     4.166539846     6.274864932   0   0   0 # h*
   1224     25   2  0.410000    11.285349982     1.853791460     5.024399364   0   0   0 # h*
   1225     25   2  0.410000     9.875425124     1.427340579     4.639758994   0   0   0 # h*
   1226     26   3 -1.080000    21.941369070     5.346732418     5.814051550   0   0   0 # oc22
   1227     26   1 -0.820000    22.143347665     1.768754601     5.662853285   0   0   0 # o*
   1228     26   4  1.500000    18.310693591     1.693461236     1.369868332   0   0   0 # ca+t
   1229     26   4  1.500000    18.437696036     5.346785697     1.195132351   0   0   0 # ca+t
   1230     26   5  1.000000    21.275717172     3.190283464     2.295503259   0   0   0 # sc2
   1231     26   6  1.000000    22.058249680     5.332755542     4.251044844   0   0   0 # sc3
   1232     26   5  1.000000    21.297866751     0.119247066     2.303761095   0   0   0 # sc2
   1233     26   7 -0.580000    21.280358122     4.043432210     3.676494490   0   0   0 # oc12
   1234     26   7 -0.580000    21.267220818     1.656958068     2.835081081   0   0   0 # oc12
   1235     26   8 -0.940000    19.976557590     3.460787106     1.391053084   0   0   0 # oc13
   1236     26   9 -0.670000     1.088689889     5.338691673     3.805994442   1   0   0 # oc14
   1237     26   1 -0.820000    18.516288831     5.781646171     3.787472269   0   0   0 # o*
   1238     26   7 -0.580000    21.310000547     6.606975440     3.624983716   0   0   0 # oc12
   1239     26   8 -0.940000    19.961836461    22.190016206     1.452235162   0  -1   0 # oc13
   1240     26   1 -0.820000    19.230308836     3.600974610     5.482689305   0   0   0 # o*
   1241     26  10  0.400000     1.603769726     4.942279287     4.424211603   1   0   0 # hoy
   1242     26   2  0.410000    19.264179436     6.270591337     4.256645885   0   0   0 # h*
   1243     26   2  0.410000    17.843174860     5.838346442     4.518798757   0   0   0 # h*
   1244     26   2  0.410000    18.592810686     2.918146859     5.188570736   0   0   0 # h*
   1245     26   2  0.410000    19.626155464     4.027991300     4.579642848   0   0   0 # h*
   1246     26   2  0.410000     0.004961518     1.150258264     6.315232650   1   0   0 # h*
   1247     26   2  0.410000    21.528331982     1.149754171     5.183564978   0   0   0 # h*
   1248     27   3 -1.080000    10.758876060    12.771122794     5.679040597   0   0   0 # oc22
   1249     27   1 -0.820000    10.739761725     9.138626206     5.730731418   0   0   0 # o*
   1250     27   4  1.500000     7.001222489     9.176321892     1.273428406   0   0   0 # ca+t
   1251     27   4  1.500000     7.230215406    12.905312140     1.142701586   0   0   0 # ca+t
   1252     27   5  1.000000     9.981595404    10.687291787     2.122204144   0   0   0 # sc2
   1253     27   6  1.000000    10.848675754    12.843399349     4.091014998   0   0   0 # sc3
   1254     27   5  1.000000    10.049466145     7.661773739     2.143575784   0   0   0 # sc2
   1255     27   7 -0.580000    10.041917820    11.606629717     3.541212794   0   0   0 # oc12
   1256     27   7 -0.580000    10.076022906     9.183342737     2.701409159   0   0   0 # oc12
   1257     27   8 -0.940000     8.587430662    10.977788696     1.376521862   0   0   0 # oc13
   1258     27   9 -0.670000    12.434319813    12.785195670     3.686426501   0   0   0 # oc14
   1259     27   1 -0.820000     7.308434484    13.224245767     3.963617491   0   0   0 # o*
   1260     27   7 -0.580000    10.093882409    14.160398696     3.564236931   0   0   0 # oc12
   1261     27   8 -0.940000     8.646297659     7.422172953     1.351715920   0   0   0 # oc13
   1262     27   8 -0.940000    11.276808669     7.381856244     1.175225752   0   0   0 # oc13
   1263     27   1 -0.820000     7.325656247    11.000214208     5.706214865   0   0   0 # o*
   1264     27  10  0.400000    12.991129583    12.707164658     4.481158250   0   0   0 # hoy
   1265     27   2  0.410000     8.158059740    13.513031962     4.288695362   0   0   0 # h*
   1266     27   2  0.410000     6.688180239    13.966510487     4.177817655   0   0   0 # h*
   1267     27   2  0.410000     7.205755264    11.468368620     4.787536541   0   0   0 # h*
   1268     27   2  0.410000     6.558157992    10.394947201     5.655087365   0   0   0 # h*
   1269     27   2  0.410000    10.499473935     8.823010940     4.784638161   0   0   0 # h*
   1270     27   2  0.410000    11.478634129     8.466436273     5.873193570   0   0   0 # h*
   1271     28   3 -1.080000    21.783212434    12.768924346     5.859530182   0   0   0 # oc22
   1272     28   1 -0.820000    21.877103746     9.088376762     5.572644499   0   0   0 # o*
   1273     28   4  1.500000    18.341054974     9.063879951     1.348675348   0   0   0 # ca+t
   1274     28   4  1.500000    18.408361769    12.883903229     1.219905148   0   0   0 # ca+t
   1275     28   5  1.000000    21.177021563    10.566762915     2.379645451   0   0   0 # sc2
   1276     28   6  1.000000    21.951849641    12.703579643     4.304485676   0   0   0 # sc3
   1277     28   5  1.000000    21.175207205     7.455066659     2.229768899   0   0   0 # sc2
   1278     28   7 -0.580000    21.160556725    11.432091379     3.834851162   0   0   0 # oc12
   1279     28   7 -0.580000    21.089286993     9.003385611     2.863806845   0   0   0 # oc12
   1280     28   8 -0.940000    19.887384578    10.961239061     1.446439112   0   0   0 # oc13
   1281     28   9 -0.670000     1.051320972    12.645200427     3.924326874   1   0   0 # oc14
   1282     28   1 -0.820000    18.431905086    12.640352948     3.971758130   0   0   0 # o*
   1283     28   7 -0.580000    21.183756780    14.033875959     3.763297413   0   0   0 # oc12
   1284     28   8 -0.940000    19.879293319     7.140797623     1.360705499   0   0   0 # oc13
   1285     28   8 -0.940000    -0.072160506     7.230821005     1.258940645   1   0   0 # oc13
   1286     28   1 -0.820000    18.249036792    11.010547091     6.226292715   0   0   0 # o*
   1287     28  10  0.400000     1.526964096    12.048890369     4.483558956   1   0   0 # hoy
   1288     28   2  0.410000    18.220957279    11.694721973     4.002152850   0   0   0 # h*
   1289     28   2  0.410000    19.091158356    12.697962804     4.699801117   0   0   0 # h*
   1290     28   2  0.410000    17.910810863    10.093737023     6.429282268   0   0   0 # h*
   1291     28   2  0.410000    17.275819974    11.444985567     6.222937702   0   0   0 # h*
   1292     28   2  0.410000    -0.000130908     9.373594778     4.870789493   1   0   0 # h*
   1293     28   2  0.410000    21.255746807     8.568615833     4.880399016   0   0   0 # h*
   1294     29   3 -1.080000    10.373870355    20.270142571     5.630636083   0   0   0 # oc22
   1295     29   1 -0.820000    10.259381796    16.863382696     5.674124430   0   0   0 # o*
   1296     29   4  1.500000     7.076526614    16.616743128     1.173163585   0   0   0 # ca+t
   1297     29   4  1.500000     7.155286964    20.257965450     1.028320108   0   0   0 # ca+t
   1298     29   5  1.000000     9.979905681    18.130706393     2.166030291   0   0   0 # sc2
   1299     29   6  1.000000    10.659045225    20.237086709     4.093466794   0   0   0 # sc3
   1300     29   5  1.000000    10.019036654    15.028287304     2.179402909   0   0   0 # sc2
   1301     29   7 -0.580000     9.892254546    18.949708444     3.499053725   0   0   0 # oc12
   1302     29   7 -0.580000    10.060033151    16.591691646     2.755825495   0   0   0 # oc12
   1303     29   8 -0.940000     8.665188120    18.352845743     1.264982761   0   0   0 # oc13
   1304     29   9 -0.670000    12.268804230    20.113290090     3.820039057   0   0   0 # oc14
   1305     29   1 -0.820000     7.278498572    20.560040973     3.782929753   0   0   0 # o*
   1306     29   7 -0.580000    10.008765231    21.669923526     3.596201702   0   0   0 # oc12
   1307     29   8 -0.940000     8.657446348    14.707464706     1.336081544   0   0   0 # oc13
   1308     29   8 -0.940000    11.308883892    14.786338553     1.275137456   0   0   0 # oc13
   1309     29   1 -0.820000     7.480553023    18.484672875     5.843008056   0   0   0 # o*
   1310     29  10  0.400000    12.562932349    19.669329291     4.609723563   0   0   0 # hoy
   1311     29   2  0.410000     8.216011964    20.752345914     4.125144012   0   0   0 # h*
   1312     29   2  0.410000     6.701804247    21.210383111     4.298457826   0   0   0 # h*
   1313     29   2  0.410000     6.719703217    17.838063378     5.888542577   0   0   0 # h*
   1314     29   2  0.410000     7.245955999    19.045467240     5.022039494   0   0   0 # h*
   1315     29   2  0.410000    10.751552198    17.124974642     4.852764182   0   0   0 # h*
   1316     29   2  0.410000     9.773889400    16.158336602     5.255209524   0   0   0 # h*
   1317     30   3 -1.080000    21.766012482    20.265242329     5.866476417   0   0   0 # oc22
   1318     30   1 -0.820000    22.057349576    16.650826525     5.860733194   0   0   0 # o*
   1319     30   4  1.500000    18.320861880    16.523395294     1.223858386   0   0   0 # ca+t
   1320     30   4  1.500000    18.598029592    20.307318775     1.368051741   0   0   0 # ca+t
   1321     30   5  1.000000    21.243803248    18.076750596     2.397293500   0   0   0 # sc2
   1322     30   6  1.000000    21.972122469    20.258825424     4.344757164   0   0   0 # sc3
   1323     30   5  1.000000    21.204070309    14.917119995     2.409737318   0   0   0 # sc2
   1324     30   7 -0.580000    21.189930297    18.956868352     3.818006090   0   0   0 # oc12
   1325     30   7 -0.580000    21.137401202    16.508161790     2.986035814   0   0   0 # oc12
   1326     30   8 -0.940000    19.929618587    18.281564045     1.472968301   0   0   0 # oc13
   1327     30   9 -0.670000     1.114280270    20.090668036     4.059963969   1   0   0 # oc14
   1328     30   1 -0.820000    18.449283111    20.726677029     3.991463446   0   0   0 # o*
   1329     30   7 -0.580000    21.307320195    21.610655760     3.697713934   0   0   0 # oc12
   1330     30   8 -0.940000    19.951950814    14.657608667     1.454769387   0   0   0 # oc13
   1331     30   8 -0.940000    -0.052635109    14.608848522     1.510796067   1   0   0 # oc13
   1332     30   1 -0.820000    18.786731990    18.500415319     5.376684196   0   0   0 # o*
   1333     30  10  0.400000     1.506182138    19.677321901     4.841844914   1   0   0 # hoy
   1334     30   2  0.410000    19.173771243    20.856267900     4.630115481   0   0   0 # h*
   1335     30   2  0.410000    17.673865724    20.589413344     4.506675861   0   0   0 # h*
   1336     30   2  0.410000    19.213125259    18.611670388     4.492593560   0   0   0 # h*
   1337     30   2  0.410000    17.851617630    18.399148477     5.164381935   0   0   0 # h*
   1338     30   2  0.410000    21.806189995    16.122278262     5.051017852   0   0   0 # h*
   1339     30   2  0.410000    22.145020860    15.878157645     6.498139706   0   0   0 # h*
   1340     31   4  1.500000     8.033606576     0.063532036    15.016738200   0   0   0 # ca+t
   1341     31   4  1.500000     5.318784335     1.803912683    12.705087684   0   0   0 # ca+t
   1342     31   5  1.000000     8.073909839     7.130537472    11.756308131   0   0   0 # sc2
   1343     31   6  1.000000     8.822572028     1.823061773     9.756096769   0   0   0 # sc3
   1344     31   5  1.000000     8.193097672     4.093440551    11.679658107   0   0   0 # sc2
   1345     31   7 -0.580000     7.917001632     0.592955068    10.343293601   0   0   0 # oc12
   1346     31   7 -0.580000     8.072131572     5.680203694    11.144635380   0   0   0 # oc12
   1347     31   8 -0.940000     9.413747565     7.428062742    12.589290563   0   0   0 # oc13
   1348     31   8 -0.940000     6.784037886     7.347240440    12.753791178   0   0   0 # oc13
   1349     31   3 -1.080000     9.688963121     5.637359941    81.267096680   0   0   0 # oc22
   1350     31   9 -0.670000    10.480244532     1.627953396    10.027591665   0   0   0 # oc14
   1351     31   1 -0.820000     5.251709421     2.098419363    10.104040000   0   0   0 # o*
   1352     31   7 -0.580000     8.293429051     3.233995337    10.255513106   0   0   0 # oc12
   1353     31   8 -0.940000     6.942367451     3.643581652    12.629398259   0   0   0 # oc13
   1354     31   1 -0.820000    10.219983372     2.083506149    81.390921653   0   0   0 # o*
   1355     31   1 -0.820000     5.991579910     0.254237062     8.213300010   0   0   0 # o*
   1356     31  11  1.700000     9.261936268     3.659014878     6.953950378   0   0   0 # casl
   1357     31   1 -0.820000     8.296349312    22.104369629     6.056695850   0  -1   0 # o*
   1358     31   4  1.500000     6.763621280     1.896583631    76.620516520   0   0   0 # ca+t
   1359     31   4  1.500000     9.841015873    -0.032495403    26.977283358   0   0   0 # ca+t
   1360     31   5  1.000000     6.843853486     1.538080600    25.669459564   0   0   0 # sc2
   1361     31   6  1.000000     7.484162594     3.674074763    23.783733628   0   0   0 # sc3
   1362     31   5  1.000000     6.783070929     5.886515316    25.782969855   0   0   0 # sc2
   1363     31   7 -0.580000     6.828592839     2.343516382    24.289406871   0   0   0 # oc12
   1364     31   7 -0.580000     6.787384241     7.431268256    25.175804197   0   0   0 # oc12
   1365     31   8 -0.940000     8.175627040     1.732372012    26.508209207   0   0   0 # oc13
   1366     31   8 -0.940000     5.606645135     1.869832445    26.608814057   0   0   0 # oc13
   1367     31   3 -1.080000     6.128102700     0.046452440    19.570133220   0   0   0 # oc22
   1368     31   9 -0.670000     9.118084520     3.750570893    24.030841964   0   0   0 # oc14
   1369     31   1 -0.820000    10.784924628     1.921301742    22.217368635   0   0   0 # o*
   1370     31   7 -0.580000     6.698159038     4.985642763    24.415414169   0   0   0 # oc12
   1371     31   8 -0.940000     5.489405046     5.653280871    26.720008040   0   0   0 # oc13
   1372     31   1 -0.820000     5.218607668     3.697483738    19.773629675   0   0   0 # o*
   1373     31   4  1.500000     9.412671853     3.687112904    26.816459957   0   0   0 # ca+t
   1374     31   4  1.500000     6.812776193     5.587851526    76.728610226   0   0   0 # ca+t
   1375     31   5  1.000000     9.511036180     3.445691805    77.791996323   0   0   0 # sc2
   1376     31   6  1.000000    10.147874680     5.575790473    79.748310079   0   0   0 # sc3
   1377     31   5  1.000000     9.677179930     0.337776346    77.796086332   0   0   0 # sc2
   1378     31   7 -0.580000     9.388285489     4.342958733    79.175747949   0   0   0 # oc12
   1379     31   7 -0.580000     9.529898204     1.900456977    78.362505670   0   0   0 # oc12
   1380     31   8 -0.940000     8.324873635     3.700042383    76.808022743   0   0   0 # oc13
   1381     31   3 -1.080000     8.646632009     1.767348453     8.191034998   0   0   0 # oc22
   1382     31   9 -0.670000    11.819084069     5.475793185    79.556241969   0   0   0 # oc14
   1383     31   1 -0.820000     6.922992379     5.376958488    79.382679891   0   0   0 # o*
   1384     31   7 -0.580000     9.562173467     6.936085624    79.187430700   0   0   0 # oc12
   1385     31   8 -0.940000     8.495114662     0.004183079    76.798127435   0   0   0 # oc13
   1386     31   1 -0.820000     8.433599219     5.645664322     8.326537350   0   0   0 # o*
   1387     31   1 -0.820000     6.514908761     3.658384689    82.031942165   0   0   0 # o*
   1388     31   4  1.500000     5.157904822     5.580946471    13.017720712   0   0   0 # ca+t
   1389     31   4  1.500000     8.085904689     3.806683632    14.830366449   0   0   0 # ca+t
   1390     31   5  1.000000     5.142637424     5.317272495    16.063294581   0   0   0 # sc2
   1391     31   6  1.000000     6.166509566     0.003903558    18.026468211   0   0   0 # sc3
   1392     31   5  1.000000     5.265904081     2.217894607    16.048553038   0   0   0 # sc2
   1393     31   7 -0.580000     5.023865150     6.207466829    17.380452102   0   0   0 # oc12
   1394     31   7 -0.580000     5.191973996     3.785351986    16.595717682   0   0   0 # oc12
   1395     31   8 -0.940000     3.825503780     5.495460747    15.157747875   0   0   0 # oc13
   1396     31   3 -1.080000     7.179460833     3.787630223    22.227647401   0   0   0 # oc22
   1397     31   9 -0.670000     7.694317390    -0.057123662    17.619906049   0   0   0 # oc14
   1398     31   1 -0.820000     8.153180669     3.931508316    17.637200452   0   0   0 # o*
   1399     31   7 -0.580000     5.496383187     1.376557129    17.509528157   0   0   0 # oc12
   1400     31   8 -0.940000     3.890201775     1.834152962    15.339058466   0   0   0 # oc13
   1401     31   8 -0.940000     6.453961814     1.909713508    15.028860434   0   0   0 # oc13
   1402     31   1 -0.820000     9.460382510     5.408513055    21.295231593   0   0   0 # o*
   1403     31   1 -0.820000     7.501213150     0.221543876    22.380813669   0   0   0 # o*
   1404     31  11  1.700000     6.785585723     1.979240631    20.823788169   0   0   0 # casl
   1405     31   1 -0.820000     4.997485597     5.946053606    21.828171433   0   0   0 # o*
   1406     31  10  0.400000    12.181027519     5.168692679    80.370719465   0   0   0 # hoy
   1407     31  10  0.400000     9.370989674     4.276890007    23.318348765   0   0   0 # hoy
   1408     31  10  0.400000    10.774444882     1.679329003     9.120691464   0   0   0 # hoy
   1409     31   2  0.410000     8.327629124     5.877430392     9.301313766   0   0   0 # h*
   1410     31   2  0.410000     9.061362323     6.372171921     8.185140325   0   0   0 # h*
   1411     31   2  0.410000     4.802745514     2.869028029     9.810430847   0   0   0 # h*
   1412     31   2  0.410000     6.142374807     2.320820510     9.648709612   0   0   0 # h*
   1413     31   2  0.410000     6.886546685     0.463222360     7.838315087   0   0   0 # h*
   1414     31   2  0.410000     6.202675186     0.117835524     9.125711084   0   0   0 # h*
   1415     31   2  0.410000     8.627604686     0.520714534     6.646435485   0   0   0 # h*
   1416     31   2  0.410000     9.150312179    21.701425853     5.769488584   0  -1   0 # h*
   1417     31   2  0.410000     8.623763474     4.686971145    18.061059191   0   0   0 # h*
   1418     31   2  0.410000     8.773696483     3.229208189    18.015915081   0   0   0 # h*
   1419     31   2  0.410000     4.865346777     4.447370412    20.259239519   0   0   0 # h*
   1420     31   2  0.410000     5.261669913     4.013716041    18.832448841   0   0   0 # h*
   1421     31   2  0.410000     7.327430199     0.338083181    23.326158641   0   0   0 # h*
   1422     31   2  0.410000     7.521632918    21.484227192    22.330445539   0  -1   0 # h*
   1423     31   2  0.410000     8.749630139     4.765499360    21.075323569   0   0   0 # h*
   1424     31   2  0.410000     8.929366355     6.197769972    21.577215480   0   0   0 # h*
   1425     31   2  0.410000     5.888589019     5.364252094    21.964823862   0   0   0 # h*
   1426     31   2  0.410000     5.225325353     6.581404794    21.072493051   0   0   0 # h*
   1427     31   2  0.410000    11.387902823     1.075702376    22.436972709   0   0   0 # h*
   1428     31   2  0.410000    10.537509319     2.114630996    23.125018851   0   0   0 # h*
   1429     31   2  0.410000     7.701484336     4.805434518    79.643737972   0   0   0 # h*
   1430     31   2  0.410000     7.329461665     6.230117092    79.646728594   0   0   0 # h*
   1431     31   2  0.410000     5.948834456     4.425525319    81.905718520   0   0   0 # h*
   1432     31   2  0.410000     5.911642868     2.898793239    81.900818804   0   0   0 # h*
   1433     31   2  0.410000    10.841198824     2.416801982    80.643701227   0   0   0 # h*
   1434     31   2  0.410000     9.616358302     1.416178945    81.049952277   0   0   0 # h*
   1435     32   4  1.500000    19.098471324     0.061367517    14.931103812   0   0   0 # ca+t
   1436     32   4  1.500000    16.441337133     1.986221116    12.935417922   0   0   0 # ca+t
   1437     32   5  1.000000    19.293579175     7.152621619    11.823783054   0   0   0 # sc2
   1438     32   6  1.000000    20.023538200     1.855315052     9.883375374   0   0   0 # sc3
   1439     32   5  1.000000    19.235078092     4.018159174    11.698287380   0   0   0 # sc2
   1440     32   7 -0.580000    19.152288854     0.657446271    10.399469754   0   0   0 # oc12
   1441     32   7 -0.580000    19.168511451     5.610064000    11.234294893   0   0   0 # oc12
   1442     32   8 -0.940000    20.638571478     7.328852520    12.642797731   0   0   0 # oc13
   1443     32   8 -0.940000    17.997637684     7.482569860    12.766231752   0   0   0 # oc13
   1444     32   3 -1.080000    21.111281595     5.450369805    81.106493396   0   0   0 # oc22
   1445     32   9 -0.670000    21.598748334     1.778198249    10.312341536   0   0   0 # oc14
   1446     32   1 -0.820000    16.962021852     3.361550210     7.991385465   0   0   0 # o*
   1447     32   7 -0.580000    19.337225987     3.255863562    10.293193078   0   0   0 # oc12
   1448     32   8 -0.940000    17.898222467     3.711412112    12.504915556   0   0   0 # oc13
   1449     32   1 -0.820000    21.907731557     1.504982825    81.492732381   0   0   0 # o*
   1450     32   1 -0.820000    17.247250137     0.188551054     8.350082803   0   0   0 # o*
   1451     32  11  1.700000    20.965957846     3.686778416     7.127085692   0   0   0 # casl
   1452     32   1 -0.820000    19.525156961     0.034303828     6.356035663   0   0   0 # o*
   1453     32   4  1.500000    17.925790301     1.798884837    76.792552302   0   0   0 # ca+t
   1454     32   4  1.500000    20.951405910     0.115196438    26.563969312   0   0   0 # ca+t
   1455     32   5  1.000000    17.992274091     1.533735751    25.853777064   0   0   0 # sc2
   1456     32   6  1.000000    18.796957258     3.637387730    23.826584188   0   0   0 # sc3
   1457     32   5  1.000000    18.097615367     5.884563615    25.763338233   0   0   0 # sc2
   1458     32   7 -0.580000    17.954918468     2.404888419    24.472164115   0   0   0 # oc12
   1459     32   7 -0.580000    17.960207507     7.391094131    25.227585742   0   0   0 # oc12
   1460     32   8 -0.940000    19.298699198     1.902942900    26.746365795   0   0   0 # oc13
   1461     32   8 -0.940000    16.728833830     1.744484793    26.794565729   0   0   0 # oc13
   1462     32   3 -1.080000    17.022695088    22.211021786    19.473446854   0  -1   0 # oc22
   1463     32   9 -0.670000    20.370073067     3.487833419    24.113445493   0   0   0 # oc14
   1464     32   1 -0.820000    20.859067048     0.304874780    23.656859497   0   0   0 # o*
   1465     32   7 -0.580000    18.150666378     5.017545127    24.369973402   0   0   0 # oc12
   1466     32   8 -0.940000    16.841435131     5.532235414    26.658997348   0   0   0 # oc13
   1467     32   1 -0.820000    16.625807422     3.703442492    19.550111262   0   0   0 # o*
   1468     32   4  1.500000    20.783773637     3.653558308    26.922006195   0   0   0 # ca+t
   1469     32   4  1.500000    18.216129749     5.499590981    76.710614983   0   0   0 # ca+t
   1470     32   5  1.000000    20.827651035     3.368412454    77.652372297   0   0   0 # sc2
   1471     32   6  1.000000    21.411100859     5.562340882    79.580161156   0   0   0 # sc3
   1472     32   5  1.000000    20.962556469     0.316393602    77.690962941   0   0   0 # sc2
   1473     32   7 -0.580000    20.680163625     4.292205334    78.934450639   0   0   0 # oc12
   1474     32   7 -0.580000    20.975646937     1.839720393    78.206758052   0   0   0 # oc12
   1475     32   8 -0.940000    19.541200893     3.484395102    76.738414145   0   0   0 # oc13
   1476     32   3 -1.080000    19.888143449     1.881778158     8.291045724   0   0   0 # oc22
   1477     32   9 -0.670000     0.509534660     5.532551414    79.385041125   1   0   0 # oc14
   1478     32   1 -0.820000    19.033223620     7.575922157    81.442156745   0   0   0 # o*
   1479     32   7 -0.580000    20.642373964     6.855655499    79.039851364   0   0   0 # oc12
   1480     32   8 -0.940000    19.548341709     0.064840991    76.828186687   0   0   0 # oc13
   1481     32   1 -0.820000    19.780653822     5.379573900     8.316937125   0   0   0 # o*
   1482     32   1 -0.820000    18.018913830     4.062220867    81.623552721   0   0   0 # o*
   1483     32   4  1.500000    16.493409448     5.618595102    12.782329706   0   0   0 # ca+t
   1484     32   4  1.500000    19.369548247     3.777534865    14.971818143   0   0   0 # ca+t
   1485     32   5  1.000000    16.432817485     5.272505118    16.083284977   0   0   0 # sc2
   1486     32   6  1.000000    17.169797808     0.068228309    17.954846119   0   0   0 # sc3
   1487     32   5  1.000000    16.389083160     2.262564675    16.117023921   0   0   0 # sc2
   1488     32   7 -0.580000    16.604701145     6.129877480    17.458736588   0   0   0 # oc12
   1489     32   7 -0.580000    16.315150507     3.757411511    16.646514839   0   0   0 # oc12
   1490     32   8 -0.940000    15.106241206     5.685783405    15.297239962   0   0   0 # oc13
   1491     32   3 -1.080000    18.518115722     3.596050683    22.293850108   0   0   0 # oc22
   1492     32   9 -0.670000    18.728117404    -0.023902735    17.536837464   0   0   0 # oc14
   1493     32   1 -0.820000    19.102384961     4.055648189    17.910859713   0   0   0 # o*
   1494     32   7 -0.580000    16.480531657     1.397329215    17.470530385   0   0   0 # oc12
   1495     32   8 -0.940000    15.066385138     1.899100860    15.218683970   0   0   0 # oc13
   1496     32   8 -0.940000    17.687717303     2.043354646    15.155459696   0   0   0 # oc13
   1497     32   1 -0.820000    20.643707903     5.478841017    21.307253734   0   0   0 # o*
   1498     32   1 -0.820000    20.174114459     1.776242797    19.695437505   0   0   0 # o*
   1499     32  11  1.700000    17.787749975     1.844129723    20.789767610   0   0   0 # casl
   1500     32   1 -0.820000    16.375171678     5.977237069    21.825417671   0   0   0 # o*
   1501     32  10  0.400000     0.723199557     5.165704811    80.231356933   1   0   0 # hoy
   1502     32  10  0.400000    20.751756858     3.403410419    23.239979615   0   0   0 # hoy
   1503     32  10  0.400000    22.107610148     1.330841854     9.621478068   0   0   0 # hoy
   1504     32   2  0.410000    20.109960798     6.223850598     8.667889185   0   0   0 # h*
   1505     32   2  0.410000    19.108572881     5.105409548     8.982742400   0   0   0 # h*
   1506     32   2  0.410000    16.581519867     2.620320790     7.490121136   0   0   0 # h*
   1507     32   2  0.410000    17.751364408     2.864142112     8.349462363   0   0   0 # h*
   1508     32   2  0.410000    17.793381103     0.680574121     9.063128414   0   0   0 # h*
   1509     32   2  0.410000    17.902321577     0.430544751     7.611843442   0   0   0 # h*
   1510     32   2  0.410000    20.229351360    21.667461855     6.472981616   0  -1   0 # h*
   1511     32   2  0.410000    19.626699475     0.688521493     7.109565152   0   0   0 # h*
   1512     32   2  0.410000    18.119346453     3.924145202    18.075978256   0   0   0 # h*
   1513     32   2  0.410000    19.498809336     3.975048560    18.796520254   0   0   0 # h*
   1514     32   2  0.410000    15.974091670     3.653171011    18.893227337   0   0   0 # h*
   1515     32   2  0.410000    16.753381595     4.666062361    19.407289601   0   0   0 # h*
   1516     32   2  0.410000    20.645889278     2.257095290    20.461793885   0   0   0 # h*
   1517     32   2  0.410000    20.743936154     2.157571447    19.007094425   0   0   0 # h*
   1518     32   2  0.410000    19.873714571     4.991994226    21.707203987   0   0   0 # h*
   1519     32   2  0.410000    20.116410628     6.282375026    21.039900828   0   0   0 # h*
   1520     32   2  0.410000    17.207782197     5.440930777    21.966775703   0   0   0 # h*
   1521     32   2  0.410000    16.674763603     6.458232615    21.012827824   0   0   0 # h*
   1522     32   2  0.410000    21.530492377     0.795342202    23.145031363   0   0   0 # h*
   1523     32   2  0.410000    19.997621790     0.598954569    23.228169832   0   0   0 # h*
   1524     32   2  0.410000    19.747479449     6.864479765    81.343714985   0   0   0 # h*
   1525     32   2  0.410000    19.487001123     8.130441436    82.110857005   0   0   0 # h*
   1526     32   2  0.410000    17.424183449     4.835537702    81.485695807   0   0   0 # h*
   1527     32   2  0.410000    17.359674436     3.325640188    81.316710559   0   0   0 # h*
   1528     32   2  0.410000     0.326058444     1.214620473    81.619189120   1   0   0 # h*
   1529     32   2  0.410000    21.570050554     0.715734049    80.995954859   0   0   0 # h*
   1530     33   4  1.500000     7.895209052     7.488454354    14.983087453   0   0   0 # ca+t
   1531     33   4  1.500000     5.430986166     9.292923727    13.107137137   0   0   0 # ca+t
   1532     33   5  1.000000     8.006578299    14.463366858    11.875455669   0   0   0 # sc2
   1533     33   6  1.000000     8.732013413     9.373841146     9.852698710   0   0   0 # sc3
   1534     33   5  1.000000     8.076184711    11.420214013    11.917585830   0   0   0 # sc2
   1535     33   7 -0.580000     7.920120463     8.096588589    10.399750011   0   0   0 # oc12
   1536     33   7 -0.580000     7.965548707    12.993761791    11.346596549   0   0   0 # oc12
   1537     33   8 -0.940000     9.303502868    14.739969058    12.778972223   0   0   0 # oc13
   1538     33   8 -0.940000     6.729494782    14.827414244    12.725417951   0   0   0 # oc13
   1539     33   3 -1.080000     9.845102542    12.947979850    81.149838268   0   0   0 # oc22
   1540     33   9 -0.670000    10.379178165     9.246569047     9.990171174   0   0   0 # oc14
   1541     33   1 -0.820000     5.689008606    10.561325327     8.301278745   0   0   0 # o*
   1542     33   7 -0.580000     8.094151005    10.697523079    10.481339506   0   0   0 # oc12
   1543     33   8 -0.940000     6.778876015    11.023429323    12.824210146   0   0   0 # oc13
   1544     33   1 -0.820000    10.023064741     9.447739286    81.242423758   0   0   0 # o*
   1545     33   1 -0.820000     5.980232569     7.512665568     8.190586576   0   0   0 # o*
   1546     33  11  1.700000     9.503184926    11.107864552     6.929009668   0   0   0 # casl
   1547     33   1 -0.820000     8.111974734     7.577824890     6.093540669   0   0   0 # o*
   1548     33   4  1.500000     6.587849191     9.300819438    76.575433403   0   0   0 # ca+t
   1549     33   4  1.500000     9.643803901     7.370502821    26.929102294   0   0   0 # ca+t
   1550     33   5  1.000000     6.782984917     8.968802390    25.693407588   0   0   0 # sc2
   1551     33   6  1.000000     7.527898953    11.144214352    23.782325480   0   0   0 # sc3
   1552     33   5  1.000000     6.741768892    13.301318414    25.693161610   0   0   0 # sc2
   1553     33   7 -0.580000     6.767518793     9.842799711    24.334101916   0   0   0 # oc12
   1554     33   7 -0.580000     6.730233189    14.868270606    25.106587706   0   0   0 # oc12
   1555     33   8 -0.940000     8.035943211     9.374180822    26.577164295   0   0   0 # oc13
   1556     33   8 -0.940000     5.426201625     9.128705464    26.542571453   0   0   0 # oc13
   1557     33   3 -1.080000     5.770039071     7.386358844    19.608351138   0   0   0 # oc22
   1558     33   9 -0.670000     9.104908395    11.064555925    24.230773541   0   0   0 # oc14
   1559     33   1 -0.820000     9.832314341     7.622535710    24.069924588   0   0   0 # o*
   1560     33   7 -0.580000     6.747074216    12.446554200    24.272768436   0   0   0 # oc12
   1561     33   8 -0.940000     5.484418845    13.060942885    26.605683160   0   0   0 # oc13
   1562     33   1 -0.820000     5.530895212    10.899486806    19.566317939   0   0   0 # o*
   1563     33   4  1.500000     9.544754873    11.095524560    26.754469046   0   0   0 # ca+t
   1564     33   4  1.500000     6.796862880    12.923453338    76.652323963   0   0   0 # ca+t
   1565     33   5  1.000000     9.438841450    10.872932525    77.560857506   0   0   0 # sc2
   1566     33   6  1.000000    10.203664224    12.948683418    79.633622853   0   0   0 # sc3
   1567     33   5  1.000000     9.585929700     7.780538394    77.749948340   0   0   0 # sc2
   1568     33   7 -0.580000     9.413032519    11.748517235    78.905975337   0   0   0 # oc12
   1569     33   7 -0.580000     9.508437929     9.335163555    78.250593321   0   0   0 # oc12
   1570     33   8 -0.940000     8.149653564    11.017286473    76.650704103   0   0   0 # oc13
   1571     33   3 -1.080000     8.415891181     9.473450199     8.287759621   0   0   0 # oc22
   1572     33   9 -0.670000    11.817396665    12.841163032    79.428110187   0   0   0 # oc14
   1573     33   1 -0.820000     6.781690975    12.779757699    79.418965436   0   0   0 # o*
   1574     33   7 -0.580000     9.544072820    14.313810302    79.076155459   0   0   0 # oc12
   1575     33   8 -0.940000     8.300336892     7.414095865    76.817326790   0   0   0 # oc13
   1576     33   8 -0.940000    10.929212683     7.488376122    76.914085572   0   0   0 # oc13
   1577     33   1 -0.820000     8.408275155    12.903798523     8.296229351   0   0   0 # o*
   1578     33   1 -0.820000     6.861871523    10.980694019    82.082896422   0   0   0 # o*
   1579     33   4  1.500000     5.142801427    12.919602542    12.928170981   0   0   0 # ca+t
   1580     33   4  1.500000     8.043549198    11.236982422    15.239944546   0   0   0 # ca+t
   1581     33   5  1.000000     5.245287617    12.703756402    16.119639018   0   0   0 # sc2
   1582     33   6  1.000000     5.858030592     7.434997131    18.069956183   0   0   0 # sc3
   1583     33   5  1.000000     5.197965269     9.646827466    16.183304911   0   0   0 # sc2
   1584     33   7 -0.580000     5.266446091    13.649290533    17.464428503   0   0   0 # oc12
   1585     33   7 -0.580000     5.150057757    11.167422980    16.713494480   0   0   0 # oc12
   1586     33   8 -0.940000     3.962798583    13.056707345    15.233229043   0   0   0 # oc13
   1587     33   3 -1.080000     7.444713320    11.027555242    22.221652460   0   0   0 # oc22
   1588     33   9 -0.670000     7.421512436     7.415803321    17.624363242   0   0   0 # oc14
   1589     33   1 -0.820000     8.160402735    11.459425083    18.083690048   0   0   0 # o*
   1590     33   7 -0.580000     5.191592825     8.734619876    17.570493545   0   0   0 # oc12
   1591     33   8 -0.940000     3.889959741     9.357688995    15.232506321   0   0   0 # oc13
   1592     33   8 -0.940000     6.530422319     9.273731446    15.270920197   0   0   0 # oc13
   1593     33   1 -0.820000     7.570638830     7.223522915    22.364207295   0   0   0 # o*
   1594     33   1 -0.820000     9.615538300    12.849785551    21.556507610   0   0   0 # o*
   1595     33   1 -0.820000     8.797103423     9.151748114    19.651852056   0   0   0 # o*
   1596     33  11  1.700000     6.703836549     9.192879782    20.870073759   0   0   0 # casl
   1597     33   1 -0.820000     5.225405551    13.028547261    21.591052281   0   0   0 # o*
   1598     33  10  0.400000    12.167711364    12.608100264    80.259900693   0   0   0 # hoy
   1599     33  10  0.400000     9.619109814    11.171844576    23.487548700   0   0   0 # hoy
   1600     33  10  0.400000     7.891338557     7.606952220    18.439482756   0   0   0 # hoy
   1601     33  10  0.400000    10.569444414     8.755474309     9.224462984   0   0   0 # hoy
   1602     33   2  0.410000     8.572650349    13.663876348     8.859535844   0   0   0 # h*
   1603     33   2  0.410000     7.886536078    12.438947296     8.979050790   0   0   0 # h*
   1604     33   2  0.410000     6.522639566    10.135686452     8.679968424   0   0   0 # h*
   1605     33   2  0.410000     5.633569851     9.912898769     7.525783649   0   0   0 # h*
   1606     33   2  0.410000     6.466774899     7.698311187     8.991408087   0   0   0 # h*
   1607     33   2  0.410000     6.666274424     7.509572138     7.475438761   0   0   0 # h*
   1608     33   2  0.410000     8.332354740     8.156268484     6.868551231   0   0   0 # h*
   1609     33   2  0.410000     8.996062605     7.175215963     5.979317286   0   0   0 # h*
   1610     33   2  0.410000     9.039243377    11.680522589    18.458995804   0   0   0 # h*
   1611     33   2  0.410000     7.387353852    11.842615861    18.593409280   0   0   0 # h*
   1612     33   2  0.410000     5.346408655    10.969391118    18.562731874   0   0   0 # h*
   1613     33   2  0.410000     4.693945346    11.281078965    19.975402921   0   0   0 # h*
   1614     33   2  0.410000     9.387144331     9.188899087    20.377573160   0   0   0 # h*
   1615     33   2  0.410000     9.335170203     9.642544877    18.976659243   0   0   0 # h*
   1616     33   2  0.410000     9.004546396    12.053115376    21.544095992   0   0   0 # h*
   1617     33   2  0.410000     8.945818505    13.466380404    21.890160344   0   0   0 # h*
   1618     33   2  0.410000     7.033741597     6.746605639    23.060780595   0   0   0 # h*
   1619     33   2  0.410000     8.303645735     7.481531067    23.035778859   0   0   0 # h*
   1620     33   2  0.410000     5.661760278    13.680154637    20.952196872   0   0   0 # h*
   1621     33   2  0.410000     5.927847223    12.326605687    21.742800729   0   0   0 # h*
   1622     33   2  0.410000    10.568393096     7.251615704    23.522548199   0   0   0 # h*
   1623     33   2  0.410000     9.897692636     8.574164937    23.923858512   0   0   0 # h*
   1624     33   2  0.410000     7.167362201    13.708774709    79.545021840   0   0   0 # h*
   1625     33   2  0.410000     7.605703298    12.305569147    79.308143969   0   0   0 # h*
   1626     33   2  0.410000     6.277389835    11.740627336    82.205745436   0   0   0 # h*
   1627     33   2  0.410000     6.270964453    10.192942813    81.890588306   0   0   0 # h*
   1628     33   2  0.410000    10.005576408     8.575722083    80.680496534   0   0   0 # h*
   1629     33   2  0.410000    10.635098815     9.873598450    80.610277333   0   0   0 # h*
   1630     34   4  1.500000    19.181221013     7.332522148    14.969824268   0   0   0 # ca+t
   1631     34   4  1.500000    16.627857830     9.436680647    12.858935456   0   0   0 # ca+t
   1632     34   5  1.000000    19.367218372    14.546141793    11.786833635   0   0   0 # sc2
   1633     34   6  1.000000    20.144964533     9.227956660     9.918960898   0   0   0 # sc3
   1634     34   5  1.000000    19.433976602    11.470726360    11.838910540   0   0   0 # sc2
   1635     34   7 -0.580000    19.236467537     8.101318018    10.470415530   0   0   0 # oc12
   1636     34   7 -0.580000    19.545451320    12.991689186    11.249203560   0   0   0 # oc12
   1637     34   8 -0.940000    20.553288261    14.978178718    12.817179706   0   0   0 # oc13
   1638     34   8 -0.940000    18.030510972    14.731479534    12.603584160   0   0   0 # oc13
   1639     34   3 -1.080000    21.225873323    12.899328370    81.229808855   0   0   0 # oc22
   1640     34   9 -0.670000    21.752785475     9.111624177    10.320011200   0   0   0 # oc14
   1641     34   1 -0.820000    16.548553075     9.576015722    10.234418374   0   0   0 # o*
   1642     34   7 -0.580000    19.476627815    10.661674992    10.420190007   0   0   0 # oc12
   1643     34   8 -0.940000    18.094860292    11.191822453    12.645007805   0   0   0 # oc13
   1644     34   1 -0.820000    21.549829205     9.451962262    81.222323150   0   0   0 # o*
   1645     34   1 -0.820000    17.352407793     7.637545154     8.294414761   0   0   0 # o*
   1646     34  11  1.700000    20.829820690    10.821286065     6.833340780   0   0   0 # casl
   1647     34   1 -0.820000    19.426853720     7.551580523     6.326158825   0   0   0 # o*
   1648     34   4  1.500000    17.997811187     9.253174001    76.627891243   0   0   0 # ca+t
   1649     34   4  1.500000    21.009885803     7.347206342    26.640967663   0   0   0 # ca+t
   1650     34   5  1.000000    18.083439938     8.961069776    25.822904343   0   0   0 # sc2
   1651     34   6  1.000000    18.902924598    11.063420814    23.872621551   0   0   0 # sc3
   1652     34   5  1.000000    18.104377359    13.319302887    25.776682101   0   0   0 # sc2
   1653     34   7 -0.580000    18.070663900     9.821681488    24.452414856   0   0   0 # oc12
   1654     34   7 -0.580000    18.179825105    14.823582406    25.269811672   0   0   0 # oc12
   1655     34   8 -0.940000    19.386575138     9.170232526    26.689285013   0   0   0 # oc13
   1656     34   8 -0.940000    16.818319283     9.237026422    26.788594650   0   0   0 # oc13
   1657     34   3 -1.080000    17.276656701     7.398957508    19.613187892   0   0   0 # oc22
   1658     34   9 -0.670000    20.489427804    10.858305537    24.275078557   0   0   0 # oc14
   1659     34   1 -0.820000    21.009723976     6.816113997    24.045856213   0   0   0 # o*
   1660     34   7 -0.580000    18.230157695    12.489479190    24.351906112   0   0   0 # oc12
   1661     34   8 -0.940000    16.756877640    13.031941101    26.594114451   0   0   0 # oc13
   1662     34   1 -0.820000    13.574862508     9.106240388    20.269177929   0   0   0 # o*
   1663     34   4  1.500000    20.829248617    11.102746170    26.901663862   0   0   0 # ca+t
   1664     34   4  1.500000    18.073159513    13.018194020    76.715304331   0   0   0 # ca+t
   1665     34   5  1.000000    20.808798347    10.797361454    77.686308344   0   0   0 # sc2
   1666     34   6  1.000000    21.569379238    12.981379011    79.655634399   0   0   0 # sc3
   1667     34   5  1.000000    20.773932820     7.774396778    77.671887428   0   0   0 # sc2
   1668     34   7 -0.580000    20.772369993    11.728585622    79.026104773   0   0   0 # oc12
   1669     34   7 -0.580000    20.770954090     9.291182830    78.215887958   0   0   0 # oc12
   1670     34   8 -0.940000    19.552404594    11.131488159    76.697027047   0   0   0 # oc13
   1671     34   3 -1.080000    20.008098311     9.252841601     8.371655201   0   0   0 # oc22
   1672     34   9 -0.670000     0.667131079    12.767973069    79.421999604   1   0   0 # oc14
   1673     34   1 -0.820000    18.233285536    13.385108333    79.498805946   0   0   0 # o*
   1674     34   7 -0.580000    20.998353693    14.363175090    79.135130713   0   0   0 # oc12
   1675     34   8 -0.940000    19.481537444     7.490557748    76.789987693   0   0   0 # oc13
   1676     34   8 -0.940000    22.034178107     7.447439750    76.781201967   0   0   0 # oc13
   1677     34   1 -0.820000    20.278819827    12.597402167     8.247264366   0   0   0 # o*
   1678     34   1 -0.820000    18.071717245    11.205102990    81.710215656   0   0   0 # o*
   1679     34   4  1.500000    16.389502399    12.944272706    12.836881863   0   0   0 # ca+t
   1680     34   4  1.500000    19.448382714    11.067803912    14.898264896   0   0   0 # ca+t
   1681     34   5  1.000000    16.494160882    12.667682509    15.990389129   0   0   0 # sc2
   1682     34   6  1.000000    17.419967200     7.425068532    17.986730354   0   0   0 # sc3
   1683     34   5  1.000000    16.586539708     9.575225749    16.091157245   0   0   0 # sc2
   1684     34   7 -0.580000    16.524112574    13.575063755    17.362779151   0   0   0 # oc12
   1685     34   7 -0.580000    16.531076393    11.122139981    16.581309745   0   0   0 # oc12
   1686     34   8 -0.940000    15.161127275    12.928166416    15.195080588   0   0   0 # oc13
   1687     34   3 -1.080000    18.833623569    10.981409729    22.341080611   0   0   0 # oc22
   1688     34   9 -0.670000    18.979480676     7.428333262    17.589915568   0   0   0 # oc14
   1689     34   1 -0.820000    16.180342816    10.660595329    19.649694003   0   0   0 # o*
   1690     34   7 -0.580000    16.725822324     8.778466134    17.526581973   0   0   0 # oc12
   1691     34   8 -0.940000    15.306319928     9.235558028    15.191666935   0   0   0 # oc13
   1692     34   8 -0.940000    17.859692201     9.328111722    15.208948799   0   0   0 # oc13
   1693     34   1 -0.820000    19.462399580     7.871452731    22.076758558   0   0   0 # o*
   1694     34   1 -0.820000    20.825716333    12.920616689    21.545438678   0   0   0 # o*
   1695     34   1 -0.820000    19.553675270    10.529752375    19.193172838   0   0   0 # o*
   1696     34  11  1.700000    17.928267123     9.323299822    20.886271733   0   0   0 # casl
   1697     34   1 -0.820000    16.356702329    13.139734092    21.788018108   0   0   0 # o*
   1698     34  10  0.400000     1.018837562    12.346342059    80.175915131   1   0   0 # hoy
   1699     34  10  0.400000    20.780035956    10.509440654    23.459009316   0   0   0 # hoy
   1700     34  10  0.400000    19.276179506     7.160230871    18.447511501   0   0   0 # hoy
   1701     34  10  0.400000    22.251900697     9.689615234     9.763703527   0   0   0 # hoy
   1702     34   2  0.410000    20.914531269    13.309866803     8.368796900   0   0   0 # h*
   1703     34   2  0.410000    20.026055646    12.530095278     9.203068101   0   0   0 # h*
   1704     34   2  0.410000    16.944382177    10.121038881     9.510848150   0   0   0 # h*
   1705     34   2  0.410000    15.723858180     9.243994290     9.738663856   0   0   0 # h*
   1706     34   2  0.410000    18.082777791     7.929956669     7.763130476   0   0   0 # h*
   1707     34   2  0.410000    17.610182497     8.093032406     9.119312435   0   0   0 # h*
   1708     34   2  0.410000    19.686704400     8.194384707     7.115118255   0   0   0 # h*
   1709     34   2  0.410000    19.950518776     6.755853215     6.501936892   0   0   0 # h*
   1710     34   2  0.410000    16.150352602    10.611409136    18.642000098   0   0   0 # h*
   1711     34   2  0.410000    15.215039816    10.533368256    19.756421565   0   0   0 # h*
   1712     34   2  0.410000    13.069192438     8.391235486    20.707801936   0   0   0 # h*
   1713     34   2  0.410000    12.903454155     9.752784434    20.195813083   0   0   0 # h*
   1714     34   2  0.410000    20.510144959    10.432296740    19.318525522   0   0   0 # h*
   1715     34   2  0.410000    19.591722322    11.447744977    18.955986957   0   0   0 # h*
   1716     34   2  0.410000    19.880045738    13.233511583    21.418146095   0   0   0 # h*
   1717     34   2  0.410000    20.533637469    12.005861238    21.887853102   0   0   0 # h*
   1718     34   2  0.410000    20.192915006     8.565081510    22.276961782   0   0   0 # h*
   1719     34   2  0.410000    19.337294698     7.515851965    23.047968618   0   0   0 # h*
   1720     34   2  0.410000    16.777047493    13.451479194    20.892379437   0   0   0 # h*
   1721     34   2  0.410000    17.177142193    12.565575378    21.971191263   0   0   0 # h*
   1722     34   2  0.410000    21.272574267     5.863639180    24.012244531   0   0   0 # h*
   1723     34   2  0.410000    21.667031414     7.202595917    23.459028536   0   0   0 # h*
   1724     34   2  0.410000    19.012322080    12.897981442    79.785021672   0   0   0 # h*
   1725     34   2  0.410000    18.491456021    14.191703011    79.958759727   0   0   0 # h*
   1726     34   2  0.410000    17.457971357    12.014404233    81.680008650   0   0   0 # h*
   1727     34   2  0.410000    17.435759945    10.602443112    81.200009453   0   0   0 # h*
   1728     34   2  0.410000    22.264541717     9.783572975    80.588917460   0   0   0 # h*
   1729     34   2  0.410000    20.993796973     9.028666628    80.467170527   0   0   0 # h*
   1730     35   4  1.500000     7.974387091    14.786860985    15.039657197   0   0   0 # ca+t
   1731     35   4  1.500000     5.267902958    16.677503114    12.783142467   0   0   0 # ca+t
   1732     35   5  1.000000     7.949250625    21.973049805    11.687270781   0   0   0 # sc2
   1733     35   6  1.000000     8.629639429    16.644967302     9.934218011   0   0   0 # sc3
   1734     35   5  1.000000     7.976609758    18.818547578    11.794284052   0   0   0 # sc2
   1735     35   7 -0.580000     8.029254339    15.247753267    10.447988221   0   0   0 # oc12
   1736     35   7 -0.580000     7.928392621    20.338098483    11.159735264   0   0   0 # oc12
   1737     35   8 -0.940000     6.663769079    -0.033299754    12.564882643   0   1   0 # oc13
   1738     35   3 -1.080000     9.942771042    20.158763303    81.265590829   0   0   0 # oc22
   1739     35   9 -0.670000    10.280518885    16.764311380    10.217927286   0   0   0 # oc14
   1740     35   1 -0.820000     5.657390482    18.181139009     8.035905396   0   0   0 # o*
   1741     35   7 -0.580000     7.825491724    17.857217721    10.484296306   0   0   0 # oc12
   1742     35   8 -0.940000     6.736069715    18.603171970    12.835364192   0   0   0 # oc13
   1743     35   1 -0.820000    10.362690032    16.933684757    81.191506650   0   0   0 # o*
   1744     35   1 -0.820000     6.110773254    15.226679323     8.332918916   0   0   0 # o*
   1745     35  11  1.700000     9.454417820    18.614751816     7.045071675   0   0   0 # casl
   1746     35   1 -0.820000     8.294942360    14.766460602     6.070334091   0   0   0 # o*
   1747     35   4  1.500000     6.672388271    16.712932105    76.455994261   0   0   0 # ca+t
   1748     35   4  1.500000     9.644379909    14.763118920    26.757510749   0   0   0 # ca+t
   1749     35   5  1.000000     6.687897688    16.404581888    25.663314004   0   0   0 # sc2
   1750     35   6  1.000000     7.571082801    18.598402678    23.738839385   0   0   0 # sc3
   1751     35   5  1.000000     6.862972798    20.798652770    25.713173175   0   0   0 # sc2
   1752     35   7 -0.580000     6.763556737    17.361310132    24.322245336   0   0   0 # oc12
   1753     35   8 -0.940000     7.999001177    16.700446219    26.628908351   0   0   0 # oc13
   1754     35   8 -0.940000     5.343846934    16.674213543    26.532677327   0   0   0 # oc13
   1755     35   3 -1.080000     5.926565250    14.863572441    19.621816777   0   0   0 # oc22
   1756     35   9 -0.670000     9.205896696    18.406548417    23.934890495   0   0   0 # oc14
   1757     35   1 -0.820000     9.606051059    15.038553138    23.811252765   0   0   0 # o*
   1758     35   7 -0.580000     7.028429624    20.010362929    24.272635778   0   0   0 # oc12
   1759     35   8 -0.940000     5.462909830    20.572386896    26.408138820   0   0   0 # oc13
   1760     35   1 -0.820000     6.231923772    18.538677412    19.350410813   0   0   0 # o*
   1761     35   4  1.500000     9.533985950    18.518202845    26.767513666   0   0   0 # ca+t
   1762     35   4  1.500000     7.020987777    20.464168523    76.709337477   0   0   0 # ca+t
   1763     35   5  1.000000     9.548734381    18.211942288    77.678359148   0   0   0 # sc2
   1764     35   6  1.000000    10.275721452    20.293944519    79.703242164   0   0   0 # sc3
   1765     35   5  1.000000     9.511138013    15.143568573    77.700487132   0   0   0 # sc2
   1766     35   7 -0.580000     9.473354844    19.067903110    79.041166802   0   0   0 # oc12
   1767     35   7 -0.580000     9.508241435    16.658185358    78.217173442   0   0   0 # oc12
   1768     35   8 -0.940000     8.359185585    18.506724748    76.645378822   0   0   0 # oc13
   1769     35   3 -1.080000     8.445113830    16.695889944     8.358111170   0   0   0 # oc22
   1770     35   9 -0.670000    11.901560357    20.068056317    79.465508991   0   0   0 # oc14
   1771     35   1 -0.820000     6.985852002    20.646410271    79.481958155   0   0   0 # o*
   1772     35   7 -0.580000     9.645221888    21.686071029    79.180294479   0   0   0 # oc12
   1773     35   8 -0.940000     8.213212650    14.897707805    76.848420306   0   0   0 # oc13
   1774     35   8 -0.940000    10.769871321    14.784698715    76.789686221   0   0   0 # oc13
   1775     35   1 -0.820000     8.892858456    20.427772533     8.557947128   0   0   0 # o*
   1776     35   1 -0.820000     7.538166002    18.393753298    81.099064599   0   0   0 # o*
   1777     35   4  1.500000     5.169746693    20.452856885    12.854421659   0   0   0 # ca+t
   1778     35   4  1.500000     8.095741583    18.583769029    14.962009685   0   0   0 # ca+t
   1779     35   5  1.000000     5.301419138    20.151417322    16.099797468   0   0   0 # sc2
   1780     35   6  1.000000     6.114814547    14.958825538    18.058553244   0   0   0 # sc3
   1781     35   5  1.000000     5.203854915    17.019962823    16.043495460   0   0   0 # sc2
   1782     35   7 -0.580000     5.355328876    20.970040878    17.478448882   0   0   0 # oc12
   1783     35   7 -0.580000     5.444778311    18.603173024    16.571653878   0   0   0 # oc12
   1784     35   8 -0.940000     3.974013187    20.407995837    15.287803910   0   0   0 # oc13
   1785     35   3 -1.080000     7.200001889    18.644519654    22.229457389   0   0   0 # oc22
   1786     35   9 -0.670000     7.706800130    14.917915573    17.654481178   0   0   0 # oc14
   1787     35   1 -0.820000     9.727808347    20.054146951    21.795207719   0   0   0 # o*
   1788     35   7 -0.580000     5.307751288    16.237188406    17.502379396   0   0   0 # oc12
   1789     35   8 -0.940000     3.801904297    16.845549735    15.357490398   0   0   0 # oc13
   1790     35   8 -0.940000     6.398708141    16.587800886    15.086681673   0   0   0 # oc13
   1791     35   1 -0.820000     7.299556031    14.787445603    22.371036632   0   0   0 # o*
   1792     35   1 -0.820000    13.064038536    18.478462743    22.394246663   0   0   0 # o*
   1793     35   1 -0.820000     8.697881997    17.079723932    19.387685354   0   0   0 # o*
   1794     35  11  1.700000     6.455570183    16.701496426    20.923897202   0   0   0 # casl
   1795     35   1 -0.820000     5.001757880    20.391713968    21.660415362   0   0   0 # o*
   1796     35  10  0.400000    12.230198099    19.633416272    80.278699216   0   0   0 # hoy
   1797     35  10  0.400000     9.492755368    18.066452270    23.111359825   0   0   0 # hoy
   1798     35  10  0.400000     8.217611683    15.246935401    18.377174769   0   0   0 # hoy
   1799     35  10  0.400000    10.661769158    16.977495358     9.377617855   0   0   0 # hoy
   1800     35   2  0.410000     8.575634162    21.246445572     8.127814037   0   0   0 # h*
   1801     35   2  0.410000     8.503259104    20.591122716     9.466001448   0   0   0 # h*
   1802     35   2  0.410000     6.496579691    17.792361905     8.333742015   0   0   0 # h*
   1803     35   2  0.410000     5.532319147    17.621067713     7.191142367   0   0   0 # h*
   1804     35   2  0.410000     6.956709880    15.607733138     8.038470023   0   0   0 # h*
   1805     35   2  0.410000     6.401569811    15.127441488     9.302331528   0   0   0 # h*
   1806     35   2  0.410000     8.442844132    14.720280238     7.100163682   0   0   0 # h*
   1807     35   2  0.410000     9.000903684    14.118772595     5.820190706   0   0   0 # h*
   1808     35   2  0.410000     8.850003060    19.675805415    21.484075644   0   0   0 # h*
   1809     35   2  0.410000     9.705301003    19.710984328    22.769724217   0   0   0 # h*
   1810     35   2  0.410000     5.645882062    18.778874255    18.576992226   0   0   0 # h*
   1811     35   2  0.410000     6.494413017    19.469668831    19.687171460   0   0   0 # h*
   1812     35   2  0.410000     9.384074763    17.559604613    19.891819180   0   0   0 # h*
   1813     35   2  0.410000     8.836368913    17.506189126    18.518565179   0   0   0 # h*
   1814     35   2  0.410000    12.410943274    17.794527999    22.749247574   0   0   0 # h*
   1815     35   2  0.410000    13.674923632    18.521727342    23.247009682   0   0   0 # h*
   1816     35   2  0.410000     7.779339700    14.973666525    23.188934480   0   0   0 # h*
   1817     35   2  0.410000     6.820197463    13.978128350    22.559840062   0   0   0 # h*
   1818     35   2  0.410000     5.832574766    19.941626658    21.752239284   0   0   0 # h*
   1819     35   2  0.410000     5.373433642    21.271638632    21.307639042   0   0   0 # h*
   1820     35   2  0.410000    10.251736879    14.302555906    23.569703706   0   0   0 # h*
   1821     35   2  0.410000    10.308763808    15.723129540    23.758984627   0   0   0 # h*
   1822     35   2  0.410000     7.796050461    21.274058613    79.599262015   0   0   0 # h*
   1823     35   2  0.410000     6.466775589    20.989671103    80.213070609   0   0   0 # h*
   1824     35   2  0.410000     7.918643322    19.098369282    80.428266884   0   0   0 # h*
   1825     35   2  0.410000     7.039371360    17.789086014    80.459567842   0   0   0 # h*
   1826     35   2  0.410000     9.714731428    16.822999005    80.463159125   0   0   0 # h*
   1827     35   2  0.410000    11.193377613    17.143363028    80.658549747   0   0   0 # h*
   1828     36   4  1.500000    19.223099372    14.887381901    14.930916705   0   0   0 # ca+t
   1829     36   4  1.500000    16.806137583    16.702006140    12.901096122   0   0   0 # ca+t
   1830     36   5  1.000000    19.092324546    22.048729932    11.773991226   0   0   0 # sc2
   1831     36   6  1.000000    19.991605184    16.827466482     9.886998529   0   0   0 # sc3
   1832     36   5  1.000000    19.246487888    18.950814984    11.849790876   0   0   0 # sc2
   1833     36   7 -0.580000    19.352840774    15.409057597    10.388603247   0   0   0 # oc12
   1834     36   7 -0.580000    19.012514612    20.463632205    11.293971583   0   0   0 # oc12
   1835     36   8 -0.940000    17.850454655     0.139630693    12.732812262   0   1   0 # oc13
   1836     36   3 -1.080000    21.443836513    20.582634610    81.163913486   0   0   0 # oc22
   1837     36   9 -0.670000    21.611203181    16.972392569    10.271086829   0   0   0 # oc14
   1838     36   1 -0.820000    16.857933593    18.367455536     7.721953356   0   0   0 # o*
   1839     36   7 -0.580000    19.129343191    18.033950943    10.535940949   0   0   0 # oc12
   1840     36   8 -0.940000    18.109751815    18.560604497    13.008826190   0   0   0 # oc13
   1841     36   1 -0.820000    21.949529608    17.288498923    81.184193663   0   0   0 # o*
   1842     36   1 -0.820000    17.260858768    15.054683505     8.248954616   0   0   0 # o*
   1843     36  11  1.700000    20.819369026    18.471060858     6.974802762   0   0   0 # casl
   1844     36   1 -0.820000    19.430070893    14.874480068     6.319915552   0   0   0 # o*
   1845     36   4  1.500000    18.133023019    16.632753282    76.738393532   0   0   0 # ca+t
   1846     36   4  1.500000    20.955527046    14.885247019    26.794893179   0   0   0 # ca+t
   1847     36   5  1.000000    18.040678920    16.342616262    25.877815184   0   0   0 # sc2
   1848     36   6  1.000000    18.712906660    18.466125653    23.893646231   0   0   0 # sc3
   1849     36   5  1.000000    18.196210712    20.721521398    25.792788444   0   0   0 # sc2
   1850     36   7 -0.580000    17.909704568    17.245353820    24.480115776   0   0   0 # oc12
   1851     36   8 -0.940000    19.316665645    16.806662366    26.697614728   0   0   0 # oc13
   1852     36   8 -0.940000    16.774115237    16.506334637    26.811519535   0   0   0 # oc13
   1853     36   3 -1.080000    17.163901479    14.830774329    19.553142428   0   0   0 # oc22
   1854     36   9 -0.670000    20.299784817    18.260016694    24.087798367   0   0   0 # oc14
   1855     36   1 -0.820000    20.856780921    14.903807979    23.965584036   0   0   0 # o*
   1856     36   7 -0.580000    18.188416552    19.867861121    24.400850990   0   0   0 # oc12
   1857     36   8 -0.940000    16.936716526    20.360676443    26.757142118   0   0   0 # oc13
   1858     36   1 -0.820000    17.168086726    18.578094247    19.627456255   0   0   0 # o*
   1859     36   4  1.500000    20.748881243    18.567567314    26.744757473   0   0   0 # ca+t
   1860     36   4  1.500000    18.123650965    20.455688505    76.681677928   0   0   0 # ca+t
   1861     36   5  1.000000    20.869382895    18.226896601    77.650047272   0   0   0 # sc2
   1862     36   6  1.000000    21.679670133    20.437164957    79.612606839   0   0   0 # sc3
   1863     36   5  1.000000    20.898140613    15.231497302    77.705260530   0   0   0 # sc2
   1864     36   7 -0.580000    20.866311344    19.198635455    79.078773643   0   0   0 # oc12
   1865     36   7 -0.580000    20.867473692    16.797115730    78.219886046   0   0   0 # oc12
   1866     36   8 -0.940000    19.531491018    18.498354287    76.772051335   0   0   0 # oc13
   1867     36   3 -1.080000    19.834049246    16.945937679     8.326236783   0   0   0 # oc22
   1868     36   9 -0.670000     0.781783066    20.339076920    79.321811043   1   0   0 # oc14
   1869     36   1 -0.820000    18.211896722    20.676630550    79.671723946   0   0   0 # o*
   1870     36   7 -0.580000    21.086526381    21.762323514    79.061341726   0   0   0 # oc12
   1871     36   8 -0.940000    19.677832773    14.832873630    76.856136161   0   0   0 # oc13
   1872     36   8 -0.940000    22.176539717    14.966094027    76.795774026   0   0   0 # oc13
   1873     36   1 -0.820000    19.540632596    20.195637619     8.324009324   0   0   0 # o*
   1874     36   1 -0.820000    18.969769092    18.095661866    81.410052938   0   0   0 # o*
   1875     36   4  1.500000    16.367015386    20.475578887    12.883455082   0   0   0 # ca+t
   1876     36   4  1.500000    19.373807138    18.635732118    15.122495850   0   0   0 # ca+t
   1877     36   5  1.000000    16.465146297    20.161337908    16.016327783   0   0   0 # sc2
   1878     36   6  1.000000    17.310251691    14.857036196    18.003886293   0   0   0 # sc3
   1879     36   5  1.000000    16.559749966    17.019417409    16.071201558   0   0   0 # sc2
   1880     36   7 -0.580000    16.378628670    21.089965032    17.331356674   0   0   0 # oc12
   1881     36   7 -0.580000    16.621973291    18.589783877    16.584453993   0   0   0 # oc12
   1882     36   8 -0.940000    15.189178138    20.294335702    15.084553212   0   0   0 # oc13
   1883     36   3 -1.080000    18.396176370    18.518333258    22.370002250   0   0   0 # oc22
   1884     36   9 -0.670000    18.916996289    14.766243934    17.550213754   0   0   0 # oc14
   1885     36   1 -0.820000    19.726798009    20.046472524    19.542145951   0   0   0 # o*
   1886     36   7 -0.580000    16.644400829    16.208558911    17.485978385   0   0   0 # oc12
   1887     36   8 -0.940000    15.174095194    16.742863036    15.271150152   0   0   0 # oc13
   1888     36   8 -0.940000    17.770559512    16.706458962    15.149647406   0   0   0 # oc13
   1889     36   1 -0.820000    18.641235941    14.955195255    22.465322055   0   0   0 # o*
   1890     36   1 -0.820000    21.079492235    20.310491210    22.101088001   0   0   0 # o*
   1891     36   1 -0.820000    19.969023175    17.098575314    19.883094974   0   0   0 # o*
   1892     36  11  1.700000    17.684832370    16.610656147    20.890269859   0   0   0 # casl
   1893     36   1 -0.820000    16.344790333    20.369933542    21.967948203   0   0   0 # o*
   1894     36  10  0.400000     1.224277509    19.842747991    80.023152063   1   0   0 # hoy
   1895     36  10  0.400000    20.571322114    17.804552135    23.305838975   0   0   0 # hoy
   1896     36  10  0.400000    19.292813349    14.847223037    18.378059256   0   0   0 # hoy
   1897     36  10  0.400000    21.986241384    17.126423824     9.422226302   0   0   0 # hoy
   1898     36   2  0.410000    19.118978271    20.996511616     8.080340260   0   0   0 # h*
   1899     36   2  0.410000    19.536939942    20.179417796     9.316860879   0   0   0 # h*
   1900     36   2  0.410000    16.810896626    17.653223853     7.016758359   0   0   0 # h*
   1901     36   2  0.410000    17.581423521    18.238632557     8.388055689   0   0   0 # h*
   1902     36   2  0.410000    17.767795133    15.122184658     7.451913669   0   0   0 # h*
   1903     36   2  0.410000    17.953359651    15.490275457     8.815672218   0   0   0 # h*
   1904     36   2  0.410000    20.016683810    15.247727829     7.052859269   0   0   0 # h*
   1905     36   2  0.410000    20.154842089    14.310007110     5.912265048   0   0   0 # h*
   1906     36   2  0.410000    20.604432786    20.030074586    19.176413085   0   0   0 # h*
   1907     36   2  0.410000    19.848890985    20.569846163    20.333676050   0   0   0 # h*
   1908     36   2  0.410000    18.093996443    18.896567280    19.532398850   0   0   0 # h*
   1909     36   2  0.410000    16.635659679    19.164060268    19.064637564   0   0   0 # h*
   1910     36   2  0.410000    20.017953976    17.730263457    19.119994905   0   0   0 # h*
   1911     36   2  0.410000    20.850167285    17.319619928    20.299993954   0   0   0 # h*
   1912     36   2  0.410000    21.110236447    20.840797908    22.995088309   0   0   0 # h*
   1913     36   2  0.410000    20.250474930    19.679316044    22.168673914   0   0   0 # h*
   1914     36   2  0.410000    19.511771389    15.185607547    22.857398084   0   0   0 # h*
   1915     36   2  0.410000    18.378397683    14.403860622    23.316413777   0   0   0 # h*
   1916     36   2  0.410000    17.141107383    19.791290556    22.176895782   0   0   0 # h*
   1917     36   2  0.410000    16.642868366    20.988447103    21.245624754   0   0   0 # h*
   1918     36   2  0.410000    21.240181956    14.043624412    23.649865706   0   0   0 # h*
   1919     36   2  0.410000    21.657663162    15.476366915    23.915393249   0   0   0 # h*
   1920     36   2  0.410000    18.560882520    21.579441013    79.853190944   0   0   0 # h*
   1921     36   2  0.410000    18.976217420    20.112620944    79.939455951   0   0   0 # h*
   1922     36   2  0.410000    18.525009208    18.031967133    80.501711315   0   0   0 # h*
   1923     36   2  0.410000    18.286379941    17.766176992    82.008015887   0   0   0 # h*
   1924     36   2  0.410000    21.166938717    17.054270845    80.623680562   0   0   0 # h*
   1925     36   2  0.410000     0.051187062    17.226149550    80.397938736   1   0   0 # h*
   1926     37   4  1.500000     8.050317484     0.133771693    90.736959731   0   0   0 # ca+t
   1927     37   4  1.500000     5.393123726     2.011031013    88.421522972   0   0   0 # ca+t
   1928     37   5  1.000000     8.002344547     7.180912589    87.546143170   0   0   0 # sc2
   1929     37   6  1.000000     8.933547483     1.920574193    85.615747472   0   0   0 # sc3
   1930     37   5  1.000000     8.161867626     4.080327545    87.553394043   0   0   0 # sc2
   1931     37   7 -0.580000     8.147077788     0.698763217    86.165837439   0   0   0 # oc12
   1932     37   7 -0.580000     8.166992688     5.641115347    87.000157088   0   0   0 # oc12
   1933     37   8 -0.940000     9.195033683     7.553936829    88.493254157   0   0   0 # oc13
   1934     37   8 -0.940000     6.645703020     7.429393802    88.377210335   0   0   0 # oc13
   1935     37   9 -0.670000    10.551836746     1.791482433    85.929827265   0   0   0 # oc14
   1936     37   1 -0.820000     5.543513870     2.739370042    85.294874686   0   0   0 # o*
   1937     37   7 -0.580000     8.217681922     3.241058946    86.150699090   0   0   0 # oc12
   1938     37   8 -0.940000     6.800292850     3.842073124    88.363287248   0   0   0 # oc13
   1939     37   1 -0.820000     5.998110558     0.389326718    83.821312355   0   0   0 # o*
   1940     37  11  1.700000     9.031896013     3.779001170    82.662900042   0   0   0 # casl
   1941     37   1 -0.820000     8.002347968     0.253797302    81.584431290   0   0   0 # o*
   1942     37   4  1.500000     9.556410737    -0.029712008   102.250622773   0   0   0 # ca+t
   1943     37   5  1.000000     6.630765406     1.574828146   101.464905515   0   0   0 # sc2
   1944     37   6  1.000000     7.371428003     3.723704843    99.476765198   0   0   0 # sc3
   1945     37   5  1.000000     6.753533623     5.868017910   101.555643754   0   0   0 # sc2
   1946     37   7 -0.580000     6.639586815     2.359530884   100.016596184   0   0   0 # oc12
   1947     37   7 -0.580000     6.643233438     7.416175019   101.013571150   0   0   0 # oc12
   1948     37   8 -0.940000     8.004331009     1.792425119   102.231793767   0   0   0 # oc13
   1949     37   8 -0.940000     5.309723392     1.834164050   102.413995693   0   0   0 # oc13
   1950     37   3 -1.080000     5.696804232     0.110674735    95.162237186   0   0   0 # oc22
   1951     37   9 -0.670000     9.030830585     3.691076535    99.632836022   0   0   0 # oc14
   1952     37   1 -0.820000     9.820750922     0.799365851    99.300744162   0   0   0 # o*
   1953     37   7 -0.580000     6.642590723     5.070775275   100.182041264   0   0   0 # oc12
   1954     37   8 -0.940000     5.517756337     5.432476381   102.506498296   0   0   0 # oc13
   1955     37   1 -0.820000     5.734079027     3.722399135    95.156333780   0   0   0 # o*
   1956     37   4  1.500000     9.487144225     3.644722948   102.626447496   0   0   0 # ca+t
   1957     37   3 -1.080000     8.782103501     1.918328962    84.046653857   0   0   0 # oc22
   1958     37   1 -0.820000     8.194637205     5.463913117    84.112622121   0   0   0 # o*
   1959     37   4  1.500000     5.224115329     5.672331453    88.581423641   0   0   0 # ca+t
   1960     37   4  1.500000     8.334105093     3.818411855    90.784764462   0   0   0 # ca+t
   1961     37   5  1.000000     5.288487107     5.377145276    91.685922964   0   0   0 # sc2
   1962     37   6  1.000000     6.028215876     0.082720037    93.647736387   0   0   0 # sc3
   1963     37   5  1.000000     5.384683235     2.287142007    91.768510308   0   0   0 # sc2
   1964     37   7 -0.580000     5.289240728     6.152516824    93.088872873   0   0   0 # oc12
   1965     37   7 -0.580000     5.299134404     3.814893020    92.250726129   0   0   0 # oc12
   1966     37   8 -0.940000     4.012876450     5.568504106    90.688253230   0   0   0 # oc13
   1967     37   3 -1.080000     7.077267118     3.730203424    97.945512539   0   0   0 # oc22
   1968     37   9 -0.670000     7.626223882     0.029977617    93.362873468   0   0   0 # oc14
   1969     37   1 -0.820000     8.198211684     4.417252425    93.863509395   0   0   0 # o*
   1970     37   7 -0.580000     5.417997395     1.491914855    93.120298451   0   0   0 # oc12
   1971     37   8 -0.940000     3.994755164     1.972960872    90.878498095   0   0   0 # oc13
   1972     37   8 -0.940000     6.742787872     1.996725300    90.920575135   0   0   0 # oc13
   1973     37   1 -0.820000     9.116442510     5.849955166    97.217466077   0   0   0 # o*
   1974     37   1 -0.820000     7.503827456    20.325777492    96.084097066   0  -1   0 # o*
   1975     37  11  1.700000     6.497414678     1.936902626    96.548894261   0   0   0 # casl
   1976     37   1 -0.820000     5.134998280     5.658207816    97.280412051   0   0   0 # o*
   1977     37  10  0.400000     9.372471375     3.884286588    98.754541906   0   0   0 # hoy
   1978     37  10  0.400000    10.928774238     2.051490205    85.134687895   0   0   0 # hoy
   1979     37   2  0.410000     8.119632446     5.191936572    85.039096178   0   0   0 # h*
   1980     37   2  0.410000     8.256018988     6.478859319    84.261916398   0   0   0 # h*
   1981     37   2  0.410000     6.188058362     3.467191896    85.507621166   0   0   0 # h*
   1982     37   2  0.410000     4.788745279     3.328375817    85.252633899   0   0   0 # h*
   1983     37   2  0.410000     5.751827913     0.993122813    84.609335940   0   0   0 # h*
   1984     37   2  0.410000     6.845259574     0.888944134    83.592541687   0   0   0 # h*
   1985     37   2  0.410000     8.513960477    21.700011429    81.369819339   0  -1   0 # h*
   1986     37   2  0.410000     8.428702607     0.537389851    82.417497802   0   0   0 # h*
   1987     37   2  0.410000     9.122688444     4.687057399    93.595629970   0   0   0 # h*
   1988     37   2  0.410000     8.401348353     3.746338011    94.597484942   0   0   0 # h*
   1989     37   2  0.410000     6.250025936     4.539307080    94.943552159   0   0   0 # h*
   1990     37   2  0.410000     5.151337930     3.773047719    94.297682153   0   0   0 # h*
   1991     37   2  0.410000     6.740152869    20.951353974    95.993043566   0  -1   0 # h*
   1992     37   2  0.410000     7.098105625    19.616017211    96.632761800   0  -1   0 # h*
   1993     37   2  0.410000     8.712470164     6.648704484    97.574181482   0   0   0 # h*
   1994     37   2  0.410000     8.389467906     5.217556677    97.299797926   0   0   0 # h*
   1995     37   2  0.410000     5.619560569     6.118368060    96.455988184   0   0   0 # h*
   1996     37   2  0.410000     5.761488931     4.926568509    97.478935947   0   0   0 # h*
   1997     37   2  0.410000    10.714102387     0.425798714    99.044212969   0   0   0 # h*
   1998     37   2  0.410000    10.004503792     1.738605764    99.406220549   0   0   0 # h*
   1999     38   4  1.500000    19.444920535     0.022520034    90.614563041   0   0   0 # ca+t
   2000     38   4  1.500000    16.768223741     1.868605952    88.546470262   0   0   0 # ca+t
   2001     38   5  1.000000    19.294677853     7.111700536    87.450215760   0   0   0 # sc2
   2002     38   6  1.000000    20.097569620     1.900792971    85.343795099   0   0   0 # sc3
   2003     38   5  1.000000    19.414629407     4.022047514    87.366280240   0   0   0 # sc2
   2004     38   7 -0.580000    19.396166510     0.589164608    85.923109016   0   0   0 # oc12
   2005     38   7 -0.580000    19.294316209     5.592760934    86.872713283   0   0   0 # oc12
   2006     38   8 -0.940000    20.552127532     7.328234785    88.352112378   0   0   0 # oc13
   2007     38   8 -0.940000    18.001250839     7.382940756    88.385242566   0   0   0 # oc13
   2008     38   9 -0.670000    21.696289070     2.024215668    85.698731977   0   0   0 # oc14
   2009     38   1 -0.820000    16.650319565     2.324809925    85.576459305   0   0   0 # o*
   2010     38   7 -0.580000    19.311167048     3.162342111    86.004158719   0   0   0 # oc12
   2011     38   8 -0.940000    18.227148600     3.658155706    88.392845028   0   0   0 # oc13
   2012     38   1 -0.820000    17.149637909    -0.019433875    83.601564778   0   0   0 # o*
   2013     38  11  1.700000    20.348974311     3.585104889    82.299805122   0   0   0 # casl
   2014     38   1 -0.820000    19.231585162     0.312521768    81.615697113   0   0   0 # o*
   2015     38   4  1.500000    20.874510205    -0.031371432   102.384615842   0   0   0 # ca+t
   2016     38   5  1.000000    18.074684959     1.520669042   101.483858960   0   0   0 # sc2
   2017     38   6  1.000000    18.768134665     3.801631655    99.623596471   0   0   0 # sc3
   2018     38   5  1.000000    17.906495205     5.880570027   101.628522917   0   0   0 # sc2
   2019     38   7 -0.580000    18.076045784     2.402926603   100.128477689   0   0   0 # oc12
   2020     38   7 -0.580000    17.966798624     7.454924554   101.133917412   0   0   0 # oc12
   2021     38   8 -0.940000    19.322906782     1.743770548   102.401808954   0   0   0 # oc13
   2022     38   8 -0.940000    16.669714007     1.794838986   102.269672600   0   0   0 # oc13
   2023     38   3 -1.080000    17.163152165     0.091407179    95.446799372   0   0   0 # oc22
   2024     38   9 -0.670000    20.389469682     3.844081266    99.887761491   0   0   0 # oc14
   2025     38   1 -0.820000    21.351657920    20.313416990    97.672826407   0  -1   0 # o*
   2026     38   7 -0.580000    17.986147172     5.146740246   100.215799127   0   0   0 # oc12
   2027     38   8 -0.940000    16.614624432     5.532329276   102.462214162   0   0   0 # oc13
   2028     38   1 -0.820000    17.097543160     3.820386100    94.959626916   0   0   0 # o*
   2029     38   4  1.500000    20.562916892     3.753462146   102.487022018   0   0   0 # ca+t
   2030     38   3 -1.080000    19.878710295     1.986108674    83.776686054   0   0   0 # oc22
   2031     38   1 -0.820000    19.834196972     5.278252622    84.038842040   0   0   0 # o*
   2032     38   4  1.500000    16.459177463     5.585192747    88.560381772   0   0   0 # ca+t
   2033     38   4  1.500000    19.387089463     3.754036205    90.521916687   0   0   0 # ca+t
   2034     38   5  1.000000    16.582252549     5.289931770    91.812587196   0   0   0 # sc2
   2035     38   6  1.000000    17.360624166     0.031886622    93.844971452   0   0   0 # sc3
   2036     38   5  1.000000    16.648724522     2.220286998    91.763448783   0   0   0 # sc2
   2037     38   7 -0.580000    16.679789494     6.128004692    93.236994556   0   0   0 # oc12
   2038     38   7 -0.580000    16.750490780     3.764034863    92.292508991   0   0   0 # oc12
   2039     38   8 -0.940000    15.226997998     5.533162783    91.039102356   0   0   0 # oc13
   2040     38   3 -1.080000    18.621949315     3.795775506    98.039823420   0   0   0 # oc22
   2041     38   9 -0.670000    18.910097163    -0.048083374    93.438272021   0   0   0 # oc14
   2042     38   1 -0.820000    19.874844203     2.776879080    95.170851811   0   0   0 # o*
   2043     38   7 -0.580000    16.633640907     1.339707366    93.243309819   0   0   0 # oc12
   2044     38   8 -0.940000    15.307856689     1.929198716    90.971851859   0   0   0 # oc13
   2045     38   8 -0.940000    17.982775436     1.911174984    90.898926296   0   0   0 # oc13
   2046     38   1 -0.820000    20.573912005     5.855343043    97.286160585   0   0   0 # o*
   2047     38   1 -0.820000    21.653856949     1.917750991    97.572363677   0   0   0 # o*
   2048     38  11  1.700000    17.781682657     2.178412909    96.597904841   0   0   0 # casl
   2049     38   1 -0.820000    16.546472331     5.689622455    97.182265703   0   0   0 # o*
   2050     38  10  0.400000    20.724916345     3.401408425    99.169715571   0   0   0 # hoy
   2051     38  10  0.400000    22.103568662     2.570973429    85.051919627   0   0   0 # hoy
   2052     38   2  0.410000    19.939631075     6.209079943    84.400773220   0   0   0 # h*
   2053     38   2  0.410000    19.772949647     4.802858866    84.927979818   0   0   0 # h*
   2054     38   2  0.410000    16.177705353     2.370600449    84.716431895   0   0   0 # h*
   2055     38   2  0.410000    17.462272324     2.841960294    85.457563040   0   0   0 # h*
   2056     38   2  0.410000    17.635287815     0.338799015    84.376155658   0   0   0 # h*
   2057     38   2  0.410000    17.948408078    22.111083359    83.020238912   0  -1   0 # h*
   2058     38   2  0.410000    19.993630431    21.953332818    81.614176025   0  -1   0 # h*
   2059     38   2  0.410000    19.573120957     0.781398166    82.427352736   0   0   0 # h*
   2060     38   2  0.410000    20.410561767     3.431909971    95.628378900   0   0   0 # h*
   2061     38   2  0.410000    20.477350463     2.683386168    94.396984021   0   0   0 # h*
   2062     38   2  0.410000    16.989091252     4.800733396    94.913797199   0   0   0 # h*
   2063     38   2  0.410000    17.048529987     3.637688036    94.010129540   0   0   0 # h*
   2064     38   2  0.410000    22.003408621     2.651333739    97.047394827   0   0   0 # h*
   2065     38   2  0.410000    -0.093553745     1.283306943    97.699593897   1   0   0 # h*
   2066     38   2  0.410000    20.056789363     4.979815395    97.512074581   0   0   0 # h*
   2067     38   2  0.410000    20.272571320     6.356865709    98.065236531   0   0   0 # h*
   2068     38   2  0.410000    17.472963412     5.443701215    97.432967480   0   0   0 # h*
   2069     38   2  0.410000    16.854816717     6.372809510    96.517871584   0   0   0 # h*
   2070     38   2  0.410000    21.008893977    19.717481626    98.361482363   0  -1   0 # h*
   2071     38   2  0.410000    20.666333248    20.089864609    96.976636107   0  -1   0 # h*
   2072     39   4  1.500000     8.124003563     7.607757579    90.652232527   0   0   0 # ca+t
   2073     39   4  1.500000     5.385837594     9.390412694    88.528262081   0   0   0 # ca+t
   2074     39   5  1.000000     8.129411948    14.704246160    87.545435905   0   0   0 # sc2
   2075     39   6  1.000000     8.807180537     9.301612257    85.538543816   0   0   0 # sc3
   2076     39   5  1.000000     8.141980989    11.587276890    87.436559948   0   0   0 # sc2
   2077     39   7 -0.580000     7.990885292     8.038615749    86.182969856   0   0   0 # oc12
   2078     39   7 -0.580000     8.145346830    13.190129047    86.938203901   0   0   0 # oc12
   2079     39   8 -0.940000     9.458390583    14.940911497    88.383956073   0   0   0 # oc13
   2080     39   8 -0.940000     6.798906461    14.889863326    88.451494806   0   0   0 # oc13
   2081     39   9 -0.670000    10.414394075     9.224333701    85.874092922   0   0   0 # oc14
   2082     39   1 -0.820000     5.474718652    10.169933872    85.860293337   0   0   0 # o*
   2083     39   7 -0.580000     8.204673363    10.685239527    86.038548899   0   0   0 # oc12
   2084     39   8 -0.940000     6.768042596    11.341244298    88.283368313   0   0   0 # oc13
   2085     39   1 -0.820000     5.745918877     7.868689577    84.218515938   0   0   0 # o*
   2086     39  11  1.700000     9.135879256    11.271285143    82.640436078   0   0   0 # casl
   2087     39   1 -0.820000     7.485599859     7.576655951    81.256702500   0   0   0 # o*
   2088     39   4  1.500000     9.641388158     7.501098417   102.367777942   0   0   0 # ca+t
   2089     39   5  1.000000     6.567965344     8.920412130   101.626258464   0   0   0 # sc2
   2090     39   6  1.000000     6.949344335    11.147277128    99.507312683   0   0   0 # sc3
   2091     39   5  1.000000     6.539985686    13.313197310   101.589802101   0   0   0 # sc2
   2092     39   7 -0.580000     6.353184609     9.861304808   100.245940549   0   0   0 # oc12
   2093     39   7 -0.580000     6.559984249    14.930966896   101.152534509   0   0   0 # oc12
   2094     39   8 -0.940000     8.038956221     9.193101263   102.383723957   0   0   0 # oc13
   2095     39   8 -0.940000     5.317652268     9.032957131   102.633623370   0   0   0 # oc13
   2096     39   3 -1.080000     5.714596950     7.353359128    95.269985276   0   0   0 # oc22
   2097     39   9 -0.670000     8.578518485    11.061399751    99.451733603   0   0   0 # oc14
   2098     39   1 -0.820000     9.562357082     8.198412664    99.592430507   0   0   0 # o*
   2099     39   7 -0.580000     6.504470090    12.590128377   100.101506502   0   0   0 # oc12
   2100     39   8 -0.940000     5.280106718    12.981547099   102.540820514   0   0   0 # oc13
   2101     39   1 -0.820000     5.294761219    11.055084874    95.130272690   0   0   0 # o*
   2102     39   4  1.500000     9.414719088    11.151746964   102.251422436   0   0   0 # ca+t
   2103     39   3 -1.080000     8.622822631     9.187556598    83.977212473   0   0   0 # oc22
   2104     39   1 -0.820000     8.560029089    13.287197601    84.150290044   0   0   0 # o*
   2105     39   4  1.500000     5.162147870    13.141605862    88.466865678   0   0   0 # ca+t
   2106     39   4  1.500000     8.196425710    11.302849361    90.976202645   0   0   0 # ca+t
   2107     39   5  1.000000     5.351636206    12.805747124    91.718385091   0   0   0 # sc2
   2108     39   6  1.000000     6.017856183     7.442889181    93.735764563   0   0   0 # sc3
   2109     39   5  1.000000     5.356566978     9.681484839    91.734324677   0   0   0 # sc2
   2110     39   7 -0.580000     5.184249322    13.696180475    93.065895483   0   0   0 # oc12
   2111     39   7 -0.580000     5.269217970    11.264801018    92.256844225   0   0   0 # oc12
   2112     39   8 -0.940000     4.152058454    13.096153729    90.662448868   0   0   0 # oc13
   2113     39   3 -1.080000     6.382093888    11.059528971    98.039067328   0   0   0 # oc22
   2114     39   9 -0.670000     7.655613700     7.359884258    93.474949552   0   0   0 # oc14
   2115     39   1 -0.820000     7.707627409    12.703911615    96.140495977   0   0   0 # o*
   2116     39   7 -0.580000     5.373908869     8.806232500    93.194747623   0   0   0 # oc12
   2117     39   8 -0.940000     4.064032389     9.396443299    90.831751441   0   0   0 # oc13
   2118     39   8 -0.940000     6.609200068     9.462238065    90.808689007   0   0   0 # oc13
   2119     39   1 -0.820000     8.197208454     9.392438989    96.001696360   0   0   0 # o*
   2120     39   1 -0.820000    10.276113342    13.584994106    96.858726503   0   0   0 # o*
   2121     39   1 -0.820000     8.213370564    11.365200624    93.697383979   0   0   0 # o*
   2122     39  11  1.700000     5.767021336     9.230281064    96.664931988   0   0   0 # casl
   2123     39   1 -0.820000     4.401637022    13.103226047    97.508833622   0   0   0 # o*
   2124     39  10  0.400000     8.866036335    11.170730401    98.541873400   0   0   0 # hoy
   2125     39  10  0.400000     7.882060424     6.900138714    94.273093941   0   0   0 # hoy
   2126     39  10  0.400000    10.702666249     9.307843820    84.959256148   0   0   0 # hoy
   2127     39   2  0.410000     8.593143059    14.267208061    84.078900239   0   0   0 # h*
   2128     39   2  0.410000     8.621379957    13.254149398    85.124987142   0   0   0 # h*
   2129     39   2  0.410000     6.379967392    10.551464984    85.784300157   0   0   0 # h*
   2130     39   2  0.410000     5.002664774    11.000215497    85.892996017   0   0   0 # h*
   2131     39   2  0.410000     5.634455308     8.637442791    84.909466606   0   0   0 # h*
   2132     39   2  0.410000     6.706903121     8.213800614    84.013721941   0   0   0 # h*
   2133     39   2  0.410000     7.963498730     8.146163676    81.954670443   0   0   0 # h*
   2134     39   2  0.410000     8.204916168     7.037114292    80.874732498   0   0   0 # h*
   2135     39   2  0.410000     6.975352599    13.396700237    95.934153293   0   0   0 # h*
   2136     39   2  0.410000     7.266740344    11.953255203    96.596599258   0   0   0 # h*
   2137     39   2  0.410000     5.161410994    11.272577701    94.183180225   0   0   0 # h*
   2138     39   2  0.410000     5.144231358    11.917052374    95.543398905   0   0   0 # h*
   2139     39   2  0.410000     7.852315732    11.543181315    94.624985144   0   0   0 # h*
   2140     39   2  0.410000     9.073041731    10.873687687    93.869895399   0   0   0 # h*
   2141     39   2  0.410000     9.579264136    13.174733865    96.273602334   0   0   0 # h*
   2142     39   2  0.410000     9.864749998    14.486309210    96.986876019   0   0   0 # h*
   2143     39   2  0.410000     9.118568211     9.467070589    96.361718629   0   0   0 # h*
   2144     39   2  0.410000     8.334876458     8.958343742    95.138060527   0   0   0 # h*
   2145     39   2  0.410000     5.106162188    13.725749502    97.085430538   0   0   0 # h*
   2146     39   2  0.410000     5.063411446    12.529500504    98.031973310   0   0   0 # h*
   2147     39   2  0.410000    10.346996175     7.751153609    99.150326434   0   0   0 # h*
   2148     39   2  0.410000     9.598910313     9.056933483    99.121941224   0   0   0 # h*
   2149     40   4  1.500000    19.282477330     7.529905820    90.671380971   0   0   0 # ca+t
   2150     40   4  1.500000    16.607506433     9.455908485    88.440697959   0   0   0 # ca+t
   2151     40   5  1.000000    19.406100383    14.670026922    87.568207333   0   0   0 # sc2
   2152     40   6  1.000000    20.044831221     9.315067277    85.526508385   0   0   0 # sc3
   2153     40   5  1.000000    19.378154787    11.559466444    87.510069926   0   0   0 # sc2
   2154     40   7 -0.580000    19.240422086     8.072368130    86.130740462   0   0   0 # oc12
   2155     40   7 -0.580000    19.412794396    13.105970887    86.992244872   0   0   0 # oc12
   2156     40   8 -0.940000    20.676735148    14.876873988    88.437735034   0   0   0 # oc13
   2157     40   8 -0.940000    18.119692097    14.998812020    88.379153727   0   0   0 # oc13
   2158     40   9 -0.670000    21.646799723     9.220617747    85.887498174   0   0   0 # oc14
   2159     40   1 -0.820000    16.969818692    10.564566765    84.553756899   0   0   0 # o*
   2160     40   7 -0.580000    19.375580832    10.675437561    86.097323928   0   0   0 # oc12
   2161     40   8 -0.940000    18.047545799    11.340257142    88.476285609   0   0   0 # oc13
   2162     40   1 -0.820000    15.728733281     5.477155491    81.130326027   0   0   0 # o*
   2163     40  11  1.700000    20.328741619    11.210490074    82.549652163   0   0   0 # casl
   2164     40   1 -0.820000    17.328777635     7.169121680    83.893053119   0   0   0 # o*
   2165     40   4  1.500000    20.835937311     7.424865041   102.508910699   0   0   0 # ca+t
   2166     40   5  1.000000    17.965724652     8.995232194   101.781589653   0   0   0 # sc2
   2167     40   6  1.000000    18.731604305    11.142845349    99.759681422   0   0   0 # sc3
   2168     40   5  1.000000    18.008647785    13.366371940   101.766470006   0   0   0 # sc2
   2169     40   7 -0.580000    17.930114178     9.856949085   100.320571913   0   0   0 # oc12
   2170     40   7 -0.580000    17.890501759    14.860446662   101.063097868   0   0   0 # oc12
   2171     40   8 -0.940000    19.371049869     9.323348690   102.591985770   0   0   0 # oc13
   2172     40   8 -0.940000    16.592373380     9.231476808   102.623011579   0   0   0 # oc13
   2173     40   3 -1.080000    17.306978676     7.591845900    95.266630815   0   0   0 # oc22
   2174     40   9 -0.670000    20.306540232    11.139938636   100.209735285   0   0   0 # oc14
   2175     40   1 -0.820000    20.889391829     7.624485062    99.812806026   0   0   0 # o*
   2176     40   7 -0.580000    17.997383848    12.466538505   100.368826034   0   0   0 # oc12
   2177     40   8 -0.940000    16.696049504    13.104625672   102.638286921   0   0   0 # oc13
   2178     40   1 -0.820000    16.757559351    11.185142877    95.145232908   0   0   0 # o*
   2179     40   4  1.500000    20.747443164    11.151097774   102.790031096   0   0   0 # ca+t
   2180     40   3 -1.080000    19.764279978     9.311028257    83.948702211   0   0   0 # oc22
   2181     40   1 -0.820000    19.178365945    13.045399975    83.887170599   0   0   0 # o*
   2182     40   4  1.500000    16.521852392    13.093101620    88.567888732   0   0   0 # ca+t
   2183     40   4  1.500000    19.656085347    11.159713116    90.599941420   0   0   0 # ca+t
   2184     40   5  1.000000    16.664833728    12.754740942    91.682657081   0   0   0 # sc2
   2185     40   6  1.000000    17.386431034     7.501750901    93.672405246   0   0   0 # sc3
   2186     40   5  1.000000    16.498048599     9.723946211    91.804902595   0   0   0 # sc2
   2187     40   7 -0.580000    16.648292102    13.633987999    93.092131348   0   0   0 # oc12
   2188     40   7 -0.580000    16.509891691    11.250953294    92.266038500   0   0   0 # oc12
   2189     40   8 -0.940000    15.362574765    13.116210080    90.766359386   0   0   0 # oc13
   2190     40   3 -1.080000    18.558532851    11.209236786    98.187475733   0   0   0 # oc22
   2191     40   9 -0.670000    18.953045880     7.455555555    93.231492837   0   0   0 # oc14
   2192     40   1 -0.820000    19.507359564    11.922069219    93.464580838   0   0   0 # o*
   2193     40   7 -0.580000    16.587158985     8.872719705    93.157208611   0   0   0 # oc12
   2194     40   8 -0.940000    15.184842161     9.381761496    90.935180075   0   0   0 # oc13
   2195     40   8 -0.940000    17.767584925     9.489974810    90.837723361   0   0   0 # oc13
   2196     40   1 -0.820000    18.452196527     7.867675639    98.369422770   0   0   0 # o*
   2197     40   1 -0.820000    20.649161275    12.674913868    97.336750207   0   0   0 # o*
   2198     40   1 -0.820000    19.996444755     9.724330753    95.251022605   0   0   0 # o*
   2199     40  11  1.700000    18.018019655     9.479412511    96.592542666   0   0   0 # casl
   2200     40   1 -0.820000    15.427264930    11.410648789    99.586629746   0   0   0 # o*
   2201     40  10  0.400000    20.692329072    11.045695274    99.392958942   0   0   0 # hoy
   2202     40  10  0.400000    19.406767183     6.990089014    93.950808932   0   0   0 # hoy
   2203     40  10  0.400000    22.074363968     9.710539081    85.170364242   0   0   0 # hoy
   2204     40   2  0.410000    19.347378940    13.901107646    83.426883936   0   0   0 # h*
   2205     40   2  0.410000    19.201326301    13.332251719    84.814280638   0   0   0 # h*
   2206     40   2  0.410000    17.124682988    10.424538416    83.601423334   0   0   0 # h*
   2207     40   2  0.410000    17.946681832    10.607863027    84.739054715   0   0   0 # h*
   2208     40   2  0.410000    15.330481034     4.605321761    81.208684827   0   0   0 # h*
   2209     40   2  0.410000    15.533315778     5.666291348    80.122822466   0   0   0 # h*
   2210     40   2  0.410000    18.021619955     7.855666579    84.226287478   0   0   0 # h*
   2211     40   2  0.410000    17.879769758     6.836529443    83.166406610   0   0   0 # h*
   2212     40   2  0.410000    19.010557997    12.747352130    93.732750869   0   0   0 # h*
   2213     40   2  0.410000    20.380341546    12.316983007    93.481774740   0   0   0 # h*
   2214     40   2  0.410000    16.434260824    10.753654787    94.296841023   0   0   0 # h*
   2215     40   2  0.410000    16.718161672    12.124762522    94.793983252   0   0   0 # h*
   2216     40   2  0.410000    20.849326468    10.044935398    95.563269847   0   0   0 # h*
   2217     40   2  0.410000    20.053509013    10.205598039    94.443434257   0   0   0 # h*
   2218     40   2  0.410000    19.853922759    12.216303604    97.636440640   0   0   0 # h*
   2219     40   2  0.410000    20.281331079    12.794183328    96.449280649   0   0   0 # h*
   2220     40   2  0.410000    19.268592381     8.155260502    98.888261707   0   0   0 # h*
   2221     40   2  0.410000    17.984710091     7.390153327    99.104916809   0   0   0 # h*
   2222     40   2  0.410000    16.132169980    10.793567977    99.303893378   0   0   0 # h*
   2223     40   2  0.410000    15.830349288    12.134446061    99.094972433   0   0   0 # h*
   2224     40   2  0.410000    21.196988243     8.547775385    99.810470993   0   0   0 # h*
   2225     40   2  0.410000    21.745544009     7.210867992    99.474592407   0   0   0 # h*
   2226     41   4  1.500000     8.158569208    14.899015120    90.758187685   0   0   0 # ca+t
   2227     41   4  1.500000     5.417836572    16.843073237    88.527270180   0   0   0 # ca+t
   2228     41   5  1.000000     8.198890646    22.087612853    87.508411966   0   0   0 # sc2
   2229     41   6  1.000000     8.949114173    16.711064345    85.550266667   0   0   0 # sc3
   2230     41   5  1.000000     8.224011919    18.976818129    87.428434767   0   0   0 # sc2
   2231     41   7 -0.580000     8.117408485    15.528034976    86.171714071   0   0   0 # oc12
   2232     41   7 -0.580000     8.209300641    20.542127499    86.893943622   0   0   0 # oc12
   2233     41   8 -0.940000     6.946862734     0.126349629    88.359625434   0   1   0 # oc13
   2234     41   9 -0.670000    10.598111713    16.565111602    85.699758561   0   0   0 # oc14
   2235     41   1 -0.820000     5.531996923    17.285729887    85.625935784   0   0   0 # o*
   2236     41   7 -0.580000     8.335381202    18.130033702    86.007754496   0   0   0 # oc12
   2237     41   8 -0.940000     6.878546312    18.683217757    88.205299755   0   0   0 # oc13
   2238     41   1 -0.820000     5.612555962    14.810618493    83.494280556   0   0   0 # o*
   2239     41  11  1.700000     9.380630890    18.440577487    82.745639869   0   0   0 # casl
   2240     41   1 -0.820000     7.821937966    15.023691849    81.352889197   0   0   0 # o*
   2241     41   4  1.500000     9.590903933    14.805755018   102.199340552   0   0   0 # ca+t
   2242     41   5  1.000000     6.560073022    16.384423894   101.810324344   0   0   0 # sc2
   2243     41   6  1.000000     6.988200038    18.453783968    99.766169660   0   0   0 # sc3
   2244     41   5  1.000000     6.503782043    20.739477901   101.590978448   0   0   0 # sc2
   2245     41   7 -0.580000     6.206345295    17.337973854   100.533859537   0   0   0 # oc12
   2246     41   8 -0.940000     8.032850949    16.677344854   102.402797289   0   0   0 # oc13
   2247     41   8 -0.940000     5.352797708    16.609265546   102.927556129   0   0   0 # oc13
   2248     41   3 -1.080000     5.774283149    14.738925047    95.312389896   0   0   0 # oc22
   2249     41   9 -0.670000     8.607615094    18.271106135    99.928026785   0   0   0 # oc14
   2250     41   1 -0.820000     9.635203342    14.861419358    99.356736727   0   0   0 # o*
   2251     41   7 -0.580000     6.351973331    19.815451412   100.259505460   0   0   0 # oc12
   2252     41   8 -0.940000     5.235805946    20.586485683   102.661090226   0   0   0 # oc13
   2253     41   1 -0.820000     4.902714566    18.386144225    95.069766260   0   0   0 # o*
   2254     41   4  1.500000     9.426367041    18.463009396   102.441258265   0   0   0 # ca+t
   2255     41   3 -1.080000     8.655885849    16.640137057    84.046724398   0   0   0 # oc22
   2256     41   1 -0.820000     7.875522090    20.191951293    83.859479317   0   0   0 # o*
   2257     41   4  1.500000     5.299357074    20.443000039    88.380257402   0   0   0 # ca+t
   2258     41   4  1.500000     8.252299103    18.633219143    90.667996618   0   0   0 # ca+t
   2259     41   5  1.000000     5.295730672    20.218434956    91.695155645   0   0   0 # sc2
   2260     41   6  1.000000     5.965389064    14.867491066    93.734307086   0   0   0 # sc3
   2261     41   5  1.000000     5.277283462    17.054187214    91.769615708   0   0   0 # sc2
   2262     41   7 -0.580000     5.233797789    21.078791815    93.038557500   0   0   0 # oc12
   2263     41   7 -0.580000     5.207970859    18.644620369    92.205795071   0   0   0 # oc12
   2264     41   8 -0.940000     4.099775803    20.536607680    90.730723204   0   0   0 # oc13
   2265     41   3 -1.080000     6.661451650    18.356198162    98.278133594   0   0   0 # oc22
   2266     41   9 -0.670000     7.569765828    14.909626693    93.464161321   0   0   0 # oc14
   2267     41   1 -0.820000     8.053079158    19.154044663    93.386246011   0   0   0 # o*
   2268     41   7 -0.580000     5.306073080    16.205780841    93.215069272   0   0   0 # oc12
   2269     41   8 -0.940000     3.949553527    16.759072384    90.870168905   0   0   0 # oc13
   2270     41   8 -0.940000     6.644105326    16.754931207    90.815152618   0   0   0 # oc13
   2271     41   1 -0.820000     6.724287843    15.048500927    98.369400441   0   0   0 # o*
   2272     41   1 -0.820000     9.548175100    20.505663653    97.820933777   0   0   0 # o*
   2273     41   1 -0.820000     8.519599000    16.858165503    95.990970171   0   0   0 # o*
   2274     41  11  1.700000     6.077127784    16.626907499    96.651772694   0   0   0 # casl
   2275     41   1 -0.820000     3.003956721    20.850527014    95.434264715   0   0   0 # o*
   2276     41  10  0.400000     8.704889219    17.532140988    99.359583696   0   0   0 # hoy
   2277     41  10  0.400000     7.917789828    14.341581936    94.107407051   0   0   0 # hoy
   2278     41  10  0.400000    10.852577647    16.762154261    84.805538762   0   0   0 # hoy
   2279     41   2  0.410000     8.232099625    20.399844739    84.739203388   0   0   0 # h*
   2280     41   2  0.410000     7.277150334    20.930388028    83.633849908   0   0   0 # h*
   2281     41   2  0.410000     5.665379407    18.267758979    85.599442080   0   0   0 # h*
   2282     41   2  0.410000     6.184533401    16.980737669    84.909400204   0   0   0 # h*
   2283     41   2  0.410000     6.174238398    15.041725837    84.277604666   0   0   0 # h*
   2284     41   2  0.410000     6.336514576    14.690420807    82.825811919   0   0   0 # h*
   2285     41   2  0.410000     8.200694753    15.478572149    82.141983260   0   0   0 # h*
   2286     41   2  0.410000     8.532355023    14.362647035    81.232538543   0   0   0 # h*
   2287     41   2  0.410000     7.570921658    19.404099643    94.195667681   0   0   0 # h*
   2288     41   2  0.410000     8.972498199    19.444958237    93.542281389   0   0   0 # h*
   2289     41   2  0.410000     4.920145366    18.262936548    94.118442128   0   0   0 # h*
   2290     41   2  0.410000     4.849084721    19.389587197    95.196594113   0   0   0 # h*
   2291     41   2  0.410000     9.343295078    16.930059780    96.607705069   0   0   0 # h*
   2292     41   2  0.410000     8.976027520    16.994035631    95.148702743   0   0   0 # h*
   2293     41   2  0.410000     8.922413271    20.661151443    97.069828498   0   0   0 # h*
   2294     41   2  0.410000     9.151277981    19.697805036    98.316415763   0   0   0 # h*
   2295     41   2  0.410000     7.375819552    14.310514307    98.412679517   0   0   0 # h*
   2296     41   2  0.410000     6.573021338    15.213261611    99.345876808   0   0   0 # h*
   2297     41   2  0.410000     3.725716932    21.114221321    96.059897066   0   0   0 # h*
   2298     41   2  0.410000     3.447844029    21.284305948    94.650253631   0   0   0 # h*
   2299     41   2  0.410000     9.984334753    13.948866418    99.223804949   0   0   0 # h*
   2300     41   2  0.410000    10.413492741    15.320527286    98.796056456   0   0   0 # h*
   2301     42   4  1.500000    19.348728743    14.889986669    90.587609863   0   0   0 # ca+t
   2302     42   4  1.500000    16.781466835    16.848969670    88.529856603   0   0   0 # ca+t
   2303     42   5  1.000000    19.467325772    21.997542191    87.314968986   0   0   0 # sc2
   2304     42   6  1.000000    20.219246316    16.777627540    85.589971575   0   0   0 # sc3
   2305     42   5  1.000000    19.505610491    18.924325938    87.503549812   0   0   0 # sc2
   2306     42   7 -0.580000    19.505758581    15.448776396    86.149295910   0   0   0 # oc12
   2307     42   7 -0.580000    19.447638067    20.405659479    86.894198305   0   0   0 # oc12
   2308     42   8 -0.940000    18.264648063     0.047459076    88.247903311   0   1   0 # oc13
   2309     42   9 -0.670000    21.750700782    16.820129147    86.076991560   0   0   0 # oc14
   2310     42   1 -0.820000    16.555183684    18.257367282    83.309951252   0   0   0 # o*
   2311     42   7 -0.580000    19.470329101    18.046796787    86.127381373   0   0   0 # oc12
   2312     42   8 -0.940000    18.199249938    18.677609323    88.409869136   0   0   0 # oc13
   2313     42   1 -0.820000    17.369749611    15.293656915    83.931085022   0   0   0 # o*
   2314     42  11  1.700000    20.927272300    18.845375625    82.783865136   0   0   0 # casl
   2315     42   1 -0.820000    19.616201959    15.093944063    81.832718535   0   0   0 # o*
   2316     42   4  1.500000    20.957695886    14.915424033   102.184622867   0   0   0 # ca+t
   2317     42   5  1.000000    17.890423360    16.430145934   101.599486493   0   0   0 # sc2
   2318     42   6  1.000000    18.715315287    18.583017497    99.580175918   0   0   0 # sc3
   2319     42   5  1.000000    18.025128746    20.679123107   101.519563415   0   0   0 # sc2
   2320     42   7 -0.580000    17.859729977    17.353964178   100.213853642   0   0   0 # oc12
   2321     42   8 -0.940000    19.263414215    16.640905332   102.440318359   0   0   0 # oc13
   2322     42   8 -0.940000    16.527531824    16.611754643   102.454470824   0   0   0 # oc13
   2323     42   3 -1.080000    17.170308069    14.856910455    95.132218866   0   0   0 # oc22
   2324     42   9 -0.670000    20.329586171    18.433084741    99.818734778   0   0   0 # oc14
   2325     42   1 -0.820000    20.811224879    14.992623792    99.424952074   0   0   0 # o*
   2326     42   7 -0.580000    18.049235959    19.905459956   100.113705618   0   0   0 # oc12
   2327     42   8 -0.940000    16.632056259    20.481815799   102.367139707   0   0   0 # oc13
   2328     42   1 -0.820000    16.351829275    18.439869639    95.336608360   0   0   0 # o*
   2329     42   4  1.500000    20.669422259    18.603752796   102.332026803   0   0   0 # ca+t
   2330     42   3 -1.080000    20.146981193    16.846585002    83.986501467   0   0   0 # oc22
   2331     42   1 -0.820000    19.051786479    20.234436693    83.760194196   0   0   0 # o*
   2332     42   4  1.500000    16.621091465    20.467818162    88.591495966   0   0   0 # ca+t
   2333     42   4  1.500000    19.553580709    18.578978445    90.857117825   0   0   0 # ca+t
   2334     42   5  1.000000    16.620911413    20.162955939    91.834137081   0   0   0 # sc2
   2335     42   6  1.000000    17.367467329    14.912603042    93.607391959   0   0   0 # sc3
   2336     42   5  1.000000    16.580732725    17.047620020    91.718852488   0   0   0 # sc2
   2337     42   7 -0.580000    16.546425850    21.071157417    93.234847486   0   0   0 # oc12
   2338     42   7 -0.580000    16.566012112    18.590092606    92.303596133   0   0   0 # oc12
   2339     42   8 -0.940000    15.319619103    20.500165061    90.930842536   0   0   0 # oc13
   2340     42   3 -1.080000    18.331947009    18.496971857    98.048595963   0   0   0 # oc22
   2341     42   9 -0.670000    18.926229457    14.959933085    93.138939159   0   0   0 # oc14
   2342     42   1 -0.820000    19.448539764    18.982987891    93.480364351   0   0   0 # o*
   2343     42   7 -0.580000    16.628183748    16.262386595    93.100028800   0   0   0 # oc12
   2344     42   8 -0.940000    15.225572513    16.852021806    90.868723609   0   0   0 # oc13
   2345     42   8 -0.940000    17.882250144    16.809280766    90.780735678   0   0   0 # oc13
   2346     42   1 -0.820000    17.802545133    14.906011694    97.977821201   0   0   0 # o*
   2347     42   1 -0.820000    18.962121711    20.158973101    96.063795694   0   0   0 # o*
   2348     42   1 -0.820000    19.847807380    16.968143058    95.672490458   0   0   0 # o*
   2349     42  11  1.700000    17.576779349    16.779089941    96.570160870   0   0   0 # casl
   2350     42   1 -0.820000    14.213730007    20.614082033    95.840292513   0   0   0 # o*
   2351     42  10  0.400000    20.703735719    17.866563909    99.113103005   0   0   0 # hoy
   2352     42  10  0.400000    19.290420160    15.129175570    94.012871924   0   0   0 # hoy
   2353     42  10  0.400000    -0.145595908    17.011997644    85.378607170   1   0   0 # hoy
   2354     42   2  0.410000    18.148176885    19.905255416    83.509676556   0   0   0 # h*
   2355     42   2  0.410000    19.111686183    20.355939174    84.687115868   0   0   0 # h*
   2356     42   2  0.410000    16.257750977    17.925386219    82.473318378   0   0   0 # h*
   2357     42   2  0.410000    16.143281083    19.143053621    83.413972980   0   0   0 # h*
   2358     42   2  0.410000    17.683427268    14.868413180    84.810054609   0   0   0 # h*
   2359     42   2  0.410000    18.080532061    16.006359203    83.706430214   0   0   0 # h*
   2360     42   2  0.410000    20.259523139    14.423265912    81.572091948   0   0   0 # h*
   2361     42   2  0.410000    20.075472888    15.576643845    82.663437684   0   0   0 # h*
   2362     42   2  0.410000    20.169705794    19.632334577    93.258173935   0   0   0 # h*
   2363     42   2  0.410000    18.904033302    19.427119484    94.217802725   0   0   0 # h*
   2364     42   2  0.410000    16.259887257    18.457428196    94.368638489   0   0   0 # h*
   2365     42   2  0.410000    15.980783661    19.354733802    95.582078022   0   0   0 # h*
   2366     42   2  0.410000    20.097062419    17.587388607    94.875981349   0   0   0 # h*
   2367     42   2  0.410000    20.510975757    17.361606412    96.363840798   0   0   0 # h*
   2368     42   2  0.410000    18.374981848    20.933239045    96.219769302   0   0   0 # h*
   2369     42   2  0.410000    18.615786549    19.604543577    96.874911284   0   0   0 # h*
   2370     42   2  0.410000    17.798836339    13.924359337    98.074474044   0   0   0 # h*
   2371     42   2  0.410000    18.229107994    15.012969350    98.823731971   0   0   0 # h*
   2372     42   2  0.410000    14.325547214    21.257236574    95.094456901   0   0   0 # h*
   2373     42   2  0.410000    14.878574487    20.807434618    96.521951835   0   0   0 # h*
   2374     42   2  0.410000    21.709789535    14.616880516    99.256378431   0   0   0 # h*
   2375     42   2  0.410000    20.657691701    15.629281305    98.693215616   0   0   0 # h*
   2376     43   8 -0.940000     9.194220778     0.002095562    12.635913040   0   0   0 # oc13
   2377     43   7 -0.580000     6.878574489     0.043429062    25.119300434   0   0   0 # oc12
   2378     44   8 -0.940000    20.410952229     0.017506527    12.643605801   0   0   0 # oc13
   2379     44   7 -0.580000    18.085052693     0.001877417    25.280229334   0   0   0 # oc12
   2380     45   8 -0.940000     9.431552289     0.157249851    88.470800463   0   0   0 # oc13
   2381     45   7 -0.580000     6.496293846     0.000795470   100.895505746   0   0   0 # oc12
   2382     46   8 -0.940000    20.717161509     0.038463484    88.231113485   0   0   0 # oc13
   2383     46   7 -0.580000    18.080936056    -0.031667469   100.970070838   0   0   0 # oc12
   2384     49   8 -0.940000    11.318918947    -0.008238135     1.298021237   0   1   0 # oc13
   2385     50   8 -0.940000    -0.012315280    22.025659338     1.363898000   1   0   0 # oc13
   2386     51   8 -0.940000    11.015163607     0.107838295    76.952321696   0   1   0 # oc13
   2387     51   1 -0.820000     4.548706251     1.703520688    21.983757513   0   1   0 # o*
   2388     51  10  0.400000     8.086045300    21.888722974    18.399167148   0   0   0 # hoy
   2389     51   2  0.410000     4.268719958     1.449248616    22.857985282   0   1   0 # h*
   2390     51   2  0.410000     3.809933229     1.629858124    21.405548821   0   1   0 # h*
   2391     52   8 -0.940000    22.268752208     0.078480067    76.789860408   0   1   0 # oc13
   2392     52   1 -0.820000    18.518645379    22.140923127    22.149649995   0   0   0 # o*
   2393     52  10  0.400000    19.025163511    21.802206701    18.361564488   0   0   0 # hoy
   2394     52   2  0.410000    17.898605913    22.060240866    22.919937694   0   0   0 # h*
   2395     52   2  0.410000    18.506645736    21.197262247    22.002759709   0   0   0 # h*
   2396     53   1 -0.820000     7.134623149     0.267486625    98.126605573   0   1   0 # o*
   2397     53  10  0.400000     8.050875691    22.110132724    94.149975699   0   0   0 # hoy
   2398     53   2  0.410000     8.163660365    -0.008974150    98.118780607   0   1   0 # h*
   2399     53   2  0.410000     7.058435947     0.654681334    99.049368891   0   1   0 # h*
   2400     54   1 -0.820000    18.913101348     0.517543852    97.967335103   0   1   0 # o*
   2401     54  10  0.400000    19.282674490    -0.000764827    94.352964173   0   1   0 # hoy
   2402     54   2  0.410000    18.643582241     0.715214163    98.883331214   0   1   0 # h*
   2403     54   2  0.410000    19.829027088     0.249313198    98.221058464   0   1   0 # h*
   2404     55   8 -0.940000     3.797038961     7.616573407    12.801622397   0   0   0 # oc13
   2405     55   8 -0.940000     2.499024143     9.273633322    26.535149203   0   0   0 # oc13
   2406     55   8 -0.940000     5.309998893    14.745790628    76.774846871   0   0   0 # oc13
   2407     55   8 -0.940000     0.825834205     9.156999439    15.161309519   0   0   0 # oc13
   2408     56   8 -0.940000    15.071561110     7.466153111    12.701964031   0   0   0 # oc13
   2409     56   8 -0.940000    13.696552440     9.332511547    26.754999636   0   0   0 # oc13
   2410     56   8 -0.940000    16.539255640    14.899174243    76.769140825   0   0   0 # oc13
   2411     56   8 -0.940000    12.152959726     9.365754124    15.183187239   0   0   0 # oc13
   2412     57   8 -0.940000     3.658800645    14.885513121    12.747250432   0   0   0 # oc13
   2413     57   8 -0.940000     2.552991498    16.795843230    26.506793645   0   0   0 # oc13
   2414     57   8 -0.940000     0.879475646    16.780811689    15.292782991   0   0   0 # oc13
   2415     58   8 -0.940000    14.914482005    14.830660263    12.855086979   0   0   0 # oc13
   2416     58   8 -0.940000    13.629029465    16.674447131    26.758146382   0   0   0 # oc13
   2417     58   8 -0.940000    12.126771958    16.780565988    15.305598043   0   0   0 # oc13
   2418     59   8 -0.940000     3.699377041     0.036014113    12.818071501   0   1   0 # oc13
   2419     60   8 -0.940000    14.819592888     0.156587553    12.877275564   0   1   0 # oc13
   2420     61   8 -0.940000     3.644304822     7.624357601    88.352143823   0   0   0 # oc13
   2421     61   8 -0.940000     2.386783128     9.352181662   102.311251847   0   0   0 # oc13
   2422     61   8 -0.940000     0.905319295     9.437415110    90.781559384   0   0   0 # oc13
   2423     62   8 -0.940000    15.082302501     7.522615613    88.395326530   0   0   0 # oc13
   2424     62   8 -0.940000    13.711758938     9.446160793   102.442726745   0   0   0 # oc13
   2425     62   8 -0.940000    12.141006509     9.404332391    90.649053932   0   0   0 # oc13
   2426     63   8 -0.940000     3.761453936    15.008548504    88.260635908   0   0   0 # oc13
   2427     63   8 -0.940000     2.410361486    16.756927599   102.313124294   0   0   0 # oc13
   2428     63   8 -0.940000     0.983854734    16.823688559    90.851222537   0   0   0 # oc13
   2429     64   8 -0.940000    15.100309005    14.928098577    88.527502266   0   0   0 # oc13
   2430     64   8 -0.940000    13.702617122    16.817457488   102.579874186   0   0   0 # oc13
   2431     64   8 -0.940000    12.365914879    16.784441355    91.050750272   0   0   0 # oc13
   2432     65   8 -0.940000     3.946608445     0.183351267    88.237794858   0   1   0 # oc13
   2433     66   8 -0.940000    15.080140392     0.182809827    88.426131130   0   1   0 # oc13
   2434     67   8 -0.940000     5.612625547     7.358890575     1.343701756   0   0   0 # oc13
   2435     68   8 -0.940000    16.736921001     7.250133377     1.413303546   0   0   0 # oc13
   2436     69   8 -0.940000     5.609750829    14.706992411     1.341100459   0   0   0 # oc13
   2437     70   8 -0.940000    16.825783106    14.703435813     1.315389200   0   0   0 # oc13
   2438     73   8 -0.940000     2.462298312     1.827134826    26.548555486   0   0   0 # oc13
   2439     73   8 -0.940000     5.119273024     7.519362925    76.790506449   0   0   0 # oc13
   2440     73   8 -0.940000     0.747170127     1.837957018    15.252075019   0   0   0 # oc13
   2441     74   8 -0.940000    13.800358882     1.824324754    26.722374912   0   0   0 # oc13
   2442     74   8 -0.940000    16.443635101     7.346596967    76.846530978   0   0   0 # oc13
   2443     74   8 -0.940000    12.066528658     1.910490881    15.117165084   0   0   0 # oc13
   2444     75   8 -0.940000     2.351578644     1.867628228   102.377709843   0   0   0 # oc13
   2445     75   8 -0.940000     1.007542145     2.079720012    90.908561287   0   0   0 # oc13
   2446     76   8 -0.940000    13.621841829     1.927019141   102.438638141   0   0   0 # oc13
   2447     76   8 -0.940000    12.250566572     1.898927483    90.941417607   0   0   0 # oc13
   2448     77   8 -0.940000     5.633182591    21.962131704     1.153551687   0  -1   0 # oc13
   2449     78   8 -0.940000    16.896032847    22.094024564     1.592635419   0  -1   0 # oc13
   2450     79   8 -0.940000     5.325368420     0.007446999    76.699159168   0   0   0 # oc13
   2451     80   8 -0.940000    16.533693908    -0.022740153    76.783517707   0   0   0 # oc13
   2452     81   8 -0.940000     9.502314103     3.914273549    12.546677217   0   0   0 # oc13
   2453     81   8 -0.940000     8.122616510     5.597787961    26.717744356   0   0   0 # oc13
   2454     81   8 -0.940000    10.843845223     3.759567687    76.955636508   0   0   0 # oc13
   2455     81   8 -0.940000     6.418596419     5.705477653    15.167709701   0   0   0 # oc13
   2456     82   8 -0.940000    20.478580808     3.676541779    12.721206374   0   0   0 # oc13
   2457     82   8 -0.940000    19.448665858     5.731856037    26.587203227   0   0   0 # oc13
   2458     82   8 -0.940000    22.116473616     3.716076660    76.743798384   0   0   0 # oc13
   2459     82   8 -0.940000    17.651768835     5.482291231    15.093981927   0   0   0 # oc13
   2460     83   8 -0.940000     9.391707551    11.208791743    12.774049188   0   0   0 # oc13
   2461     83   8 -0.940000     8.073862397    13.007245060    26.621336359   0   0   0 # oc13
   2462     83   8 -0.940000    10.753791613    11.090496644    76.718769769   0   0   0 # oc13
   2463     83   8 -0.940000     6.505524604    12.931688040    15.174935814   0   0   0 # oc13
   2464     84   8 -0.940000    20.706284039    11.092115248    12.728305557   0   0   0 # oc13
   2465     84   8 -0.940000    19.341164951    12.973090966    26.747804990   0   0   0 # oc13
   2466     84   8 -0.940000    22.124978053    11.060678424    76.933347620   0   0   0 # oc13
   2467     84   8 -0.940000    17.745879471    12.931720573    15.028609169   0   0   0 # oc13
   2468     85   8 -0.940000     9.345852842    18.607075406    12.595559049   0   0   0 # oc13
   2469     85   8 -0.940000     8.086049835    20.519260432    26.829794390   0   0   0 # oc13
   2470     85   8 -0.940000    10.921619342    18.477308975    76.892751458   0   0   0 # oc13
   2471     85   8 -0.940000     6.519659482    20.506365364    15.121780903   0   0   0 # oc13
   2472     86   8 -0.940000    20.649078646    18.801059853    12.597657425   0   0   0 # oc13
   2473     86   8 -0.940000    19.512826827    20.548155516    26.717662415   0   0   0 # oc13
   2474     86   8 -0.940000    22.131890420    18.497250035    76.745131940   0   0   0 # oc13
   2475     86   8 -0.940000    17.691274939    20.547061930    15.108058560   0   0   0 # oc13
   2476     87   8 -0.940000     9.405705264     3.870585997    88.504976822   0   0   0 # oc13
   2477     87   8 -0.940000     8.168503614     5.603475439   102.326323980   0   0   0 # oc13
   2478     87   8 -0.940000     6.629953794     5.702802179    90.787480619   0   0   0 # oc13
   2479     88   8 -0.940000    20.783056129     3.772716915    88.104548072   0   0   0 # oc13
   2480     88   8 -0.940000    19.281452097     5.616421598   102.466375603   0   0   0 # oc13
   2481     88   8 -0.940000    17.727417050     5.671553117    90.781252716   0   0   0 # oc13
   2482     89   8 -0.940000     9.398054685    11.204453683    88.416806998   0   0   0 # oc13
   2483     89   8 -0.940000     7.945770009    12.958618135   102.291085637   0   0   0 # oc13
   2484     89   8 -0.940000     6.714242334    13.063417133    91.001402542   0   0   0 # oc13
   2485     90   8 -0.940000    20.659321235    11.226588634    88.429261339   0   0   0 # oc13
   2486     90   8 -0.940000    19.376623980    13.177717958   102.619564395   0   0   0 # oc13
   2487     90   8 -0.940000    18.088153154    12.943818700    90.857858199   0   0   0 # oc13
   2488     91   8 -0.940000     9.500215208    18.712848054    88.355698912   0   0   0 # oc13
   2489     91   8 -0.940000     7.961614272    20.399423977   102.367397584   0   0   0 # oc13
   2490     91   8 -0.940000     6.609670708    20.424172544    90.845855083   0   0   0 # oc13
   2491     92   8 -0.940000    20.780626044    18.802164336    88.422414895   0   0   0 # oc13
   2492     92   8 -0.940000    19.330177943    20.338954145   102.378152459   0   0   0 # oc13
   2493     92   8 -0.940000    17.925317628    20.453951223    90.957321795   0   0   0 # oc13
   2494     93   8 -0.940000    11.191675901     3.654680051     1.275672375   0   0   0 # oc13
   2495     94   8 -0.940000    -0.009636183     3.517497903     1.348511522   1   0   0 # oc13
   2496     95   8 -0.940000    11.133189105    11.020000861     1.062829367   0   0   0 # oc13
   2497     96   8 -0.940000     0.055441054    10.898937169     1.522748181   1   0   0 # oc13
   2498     97   8 -0.940000    11.312552981    18.421482957     1.359144256   0   0   0 # oc13
   2499     98   8 -0.940000     0.117807225    18.343799179     1.648216664   1   0   0 # oc13
   2500      1   1 -0.820000    10.029776716    12.933400887    38.449435327   0   0   0 # o*
   2501      1   2  0.410000    10.215568922    13.652752735    37.773004997   0   0   0 # h*
   2502      1   2  0.410000     9.549355896    12.307868789    37.858925498   0   0   0 # h*
   2503      1   1 -0.820000     1.596481590    13.952463871    37.543724033   0   0   0 # o*
   2504      1   2  0.410000     1.813192362    14.506303365    38.295310925   0   0   0 # h*
   2505      1   2  0.410000     2.220446697    13.190810114    37.704602338   0   0   0 # h*
   2506      1   1 -0.820000    18.423709796    20.070586830    48.257230156   0   0   0 # o*
   2507      1   2  0.410000    17.645902715    20.277576212    48.790656534   0   0   0 # h*
   2508      1   2  0.410000    19.005753101    19.699402886    48.962590618   0   0   0 # h*
   2509      1   1 -0.820000    17.892076219     0.334215260    31.859706085   0   0   0 # o*
   2510      1   2  0.410000    18.441235397    22.074066028    32.458601801   0  -1   0 # h*
   2511      1   2  0.410000    17.314136660     0.810379329    32.476173297   0   0   0 # h*
   2512      1   1 -0.820000     3.007757786     6.656707400    35.729144044   0   0   0 # o*
   2513      1   2  0.410000     2.491168914     6.764203467    34.919922067   0   0   0 # h*
   2514      1   2  0.410000     2.323622090     6.394723270    36.378472142   0   0   0 # h*
   2515      1   1 -0.820000     3.414171485     3.769027271    68.668556781   0   0   0 # o*
   2516      1   2  0.410000     3.478035623     4.383527779    67.907443313   0   0   0 # h*
   2517      1   2  0.410000     2.992066042     4.332999106    69.338681750   0   0   0 # h*
   2518      1   1 -0.820000     1.061591511    11.213061733    59.926165193   0   0   0 # o*
   2519      1   2  0.410000     0.640159314    10.352295572    60.121832059   0   0   0 # h*
   2520      1   2  0.410000     1.932299880    10.880551759    59.579430162   0   0   0 # h*
   2521      1   1 -0.820000    19.990410293    21.456307181    31.454939400   0   0   0 # o*
   2522      1   2  0.410000    20.866228446    21.619497366    31.853967575   0   0   0 # h*
   2523      1   2  0.410000    19.893830904    20.456733749    31.554761913   0   0   0 # h*
   2524      1   1 -0.820000    18.629769945    10.930655128    72.714094916   0   0   0 # o*
   2525      1   2  0.410000    18.076494237    11.755095085    72.821899613   0   0   0 # h*
   2526      1   2  0.410000    18.109256335    10.461749143    72.034271323   0   0   0 # h*
   2527      1   1 -0.820000    10.582121460    17.186439226    54.418236453   0   0   0 # o*
   2528      1   2  0.410000    10.613381231    16.267530041    54.051749928   0   0   0 # h*
   2529      1   2  0.410000    10.943875599    16.970580316    55.331428987   0   0   0 # h*
   2530      1   1 -0.820000     8.641284091     4.254920407    29.613959482   0   0   0 # o*
   2531      1   2  0.410000     9.328414316     4.311771886    28.872213396   0   0   0 # h*
   2532      1   2  0.410000     7.887901073     4.564511358    29.081122730   0   0   0 # h*
   2533      1   1 -0.820000    20.950610646    22.021299217    59.139398033   0   0   0 # o*
   2534      1   2  0.410000    21.420052658    21.354276470    59.688041353   0   0   0 # h*
   2535      1   2  0.410000    20.731537253    21.450528892    58.326913976   0   0   0 # h*
   2536      1   1 -0.820000    14.980780587    18.796149202    35.595673696   0   0   0 # o*
   2537      1   2  0.410000    14.921793209    19.750920659    35.621457671   0   0   0 # h*
   2538      1   2  0.410000    14.960162619    18.691536340    34.635942285   0   0   0 # h*
   2539      1   1 -0.820000    21.905388845    22.039054571    41.303576690   0  -1   0 # o*
   2540      1   2  0.410000    21.081147383     0.108789257    41.689731491   0   0   0 # h*
   2541      1   2  0.410000    -0.041900929     0.074894948    42.072751764   1   0   0 # h*
   2542      1   1 -0.820000    17.086054581    15.853507385    29.215026850   0   0   0 # o*
   2543      1   2  0.410000    16.347164570    16.523094753    29.267250093   0   0   0 # h*
   2544      1   2  0.410000    17.579343231    16.054724436    29.994550013   0   0   0 # h*
   2545      1   1 -0.820000    15.271533535     7.134611733    49.400759846   0   0   0 # o*
   2546      1   2  0.410000    14.479509333     7.415354768    49.906888092   0   0   0 # h*
   2547      1   2  0.410000    15.763723101     6.583148081    50.060927696   0   0   0 # h*
   2548      1   1 -0.820000    17.512840086     9.721485068    30.195460158   0   0   0 # o*
   2549      1   2  0.410000    17.382654294    10.628626904    30.601635343   0   0   0 # h*
   2550      1   2  0.410000    17.993593412    10.044495918    29.423881301   0   0   0 # h*
   2551      1   1 -0.820000    11.660071163     2.059784754    33.315075552   0   0   0 # o*
   2552      1   2  0.410000    12.267511561     2.207683957    34.029168277   0   0   0 # h*
   2553      1   2  0.410000    11.153287886     1.313544790    33.693464011   0   0   0 # h*
   2554      1   1 -0.820000    10.075948624    15.777302667    40.172260922   0   0   0 # o*
   2555      1   2  0.410000    10.063743907    16.352152865    39.401983209   0   0   0 # h*
   2556      1   2  0.410000    10.835054155    16.209577417    40.661026076   0   0   0 # h*
   2557      1   1 -0.820000    10.743833624    10.550532123    65.280529426   0   0   0 # o*
   2558      1   2  0.410000    10.173186496    11.128430355    65.795875785   0   0   0 # h*
   2559      1   2  0.410000    10.325424494    10.718931848    64.375055774   0   0   0 # h*
   2560      1   1 -0.820000     4.463137694     9.014724549    28.936467534   0   0   0 # o*
   2561      1   2  0.410000     4.438035202     9.603447986    29.739511551   0   0   0 # h*
   2562      1   2  0.410000     4.986991474     9.617797762    28.351569884   0   0   0 # h*
   2563      1   1 -0.820000    11.583278342     4.879923207    49.842407831   0   0   0 # o*
   2564      1   2  0.410000    11.946434938     4.276535715    50.508510891   0   0   0 # h*
   2565      1   2  0.410000    12.051092705     4.551697363    49.009127307   0   0   0 # h*
   2566      1   1 -0.820000    15.675171235    16.220678446    45.345294476   0   0   0 # o*
   2567      1   2  0.410000    15.028103349    16.621028862    44.777560788   0   0   0 # h*
   2568      1   2  0.410000    16.517939764    16.715834714    45.083928192   0   0   0 # h*
   2569      1   1 -0.820000     7.235807830    20.303122563    29.110865864   0   0   0 # o*
   2570      1   2  0.410000     6.915399164    19.506103380    29.600650323   0   0   0 # h*
   2571      1   2  0.410000     8.185373521    20.055056692    29.087095906   0   0   0 # h*
   2572      1   1 -0.820000     5.615173836     3.869429028    50.226171387   0   0   0 # o*
   2573      1   2  0.410000     5.156313923     3.838920951    49.335145661   0   0   0 # h*
   2574      1   2  0.410000     5.289781159     4.736406487    50.534466251   0   0   0 # h*
   2575      1   1 -0.820000    10.394592589    18.900624180    71.798369797   0   0   0 # o*
   2576      1   2  0.410000     9.946082911    19.777015471    71.883665824   0   0   0 # h*
   2577      1   2  0.410000    10.702290626    18.828743080    70.878553316   0   0   0 # h*
   2578      1   1 -0.820000    16.999889401    19.992844741    54.885347422   0   0   0 # o*
   2579      1   2  0.410000    17.706288898    19.786551756    55.600307172   0   0   0 # h*
   2580      1   2  0.410000    16.683788376    20.798462097    55.332401761   0   0   0 # h*
   2581      1   1 -0.820000    20.181017228    15.053319428    52.242586811   0   0   0 # o*
   2582      1   2  0.410000    19.823318734    15.807781973    52.708336631   0   0   0 # h*
   2583      1   2  0.410000    21.141434425    15.272458916    52.100108390   0   0   0 # h*
   2584      1   1 -0.820000    10.629496666    20.027353370    74.176372478   0   0   0 # o*
   2585      1   2  0.410000     9.953199865    19.762188274    74.833313454   0   0   0 # h*
   2586      1   2  0.410000    11.132486190    20.625933404    74.773877682   0   0   0 # h*
   2587      1   1 -0.820000    22.231200843     6.866131375    33.571521499   0   0   0 # o*
   2588      1   2  0.410000    21.803068596     5.970614453    33.742863496   0   0   0 # h*
   2589      1   2  0.410000    -0.222357802     7.155566028    34.541642961   1   0   0 # h*
   2590      1   1 -0.820000    12.288047066    11.977975381    40.487861041   0   0   0 # o*
   2591      1   2  0.410000    12.368875035    12.569103942    41.276877660   0   0   0 # h*
   2592      1   2  0.410000    11.794802326    12.597822703    39.874270662   0   0   0 # h*
   2593      1   1 -0.820000     7.282287921     2.367248279    43.777927567   0   0   0 # o*
   2594      1   2  0.410000     6.301316854     2.291003397    43.772329086   0   0   0 # h*
   2595      1   2  0.410000     7.403575718     2.742847525    44.695615139   0   0   0 # h*
   2596      1   1 -0.820000     5.162142338     7.842030554    70.813553859   0   0   0 # o*
   2597      1   2  0.410000     6.004672200     8.287908729    70.744986623   0   0   0 # h*
   2598      1   2  0.410000     5.450832910     6.906745941    70.733206791   0   0   0 # h*
   2599      1   1 -0.820000    17.837234316     4.072188892    61.775211535   0   0   0 # o*
   2600      1   2  0.410000    18.753705639     3.880530815    61.459475386   0   0   0 # h*
   2601      1   2  0.410000    17.471922279     4.666112357    61.020282861   0   0   0 # h*
   2602      1   1 -0.820000     0.690332151     1.761362657    53.757767092   0   0   0 # o*
   2603      1   2  0.410000     0.467667791     2.149584219    52.869456956   0   0   0 # h*
   2604      1   2  0.410000    -0.215627385     1.320227437    53.920546582   0   0   0 # h*
   2605      1   1 -0.820000     7.940258395    10.804112426    60.905739945   0   0   0 # o*
   2606      1   2  0.410000     8.216379948    11.691405569    60.652830503   0   0   0 # h*
   2607      1   2  0.410000     7.873035865    10.965623781    61.870594218   0   0   0 # h*
   2608      1   1 -0.820000    12.767924819     8.368817889    65.745126465   0   0   0 # o*
   2609      1   2  0.410000    13.452278571     9.048659369    65.953994388   0   0   0 # h*
   2610      1   2  0.410000    11.935961371     8.893155987    65.726387265   0   0   0 # h*
   2611      1   1 -0.820000    10.423784936    19.153682142    35.833383237   0   0   0 # o*
   2612      1   2  0.410000     9.890246564    19.983620911    35.864616216   0   0   0 # h*
   2613      1   2  0.410000    11.351192996    19.561716730    36.077619881   0   0   0 # h*
   2614      1   1 -0.820000     9.210538143     6.654684770    68.567505862   0   0   0 # o*
   2615      1   2  0.410000     9.132919594     5.686339401    68.502936602   0   0   0 # h*
   2616      1   2  0.410000    10.189220801     6.690204314    68.458370501   0   0   0 # h*
   2617      1   1 -0.820000    16.529628667    19.670833093    58.857730765   0   0   0 # o*
   2618      1   2  0.410000    16.525186274    19.260830842    57.943746906   0   0   0 # h*
   2619      1   2  0.410000    16.075513158    20.534270632    58.727455037   0   0   0 # h*
   2620      1   1 -0.820000     3.867823591     1.148305885    32.310759335   0   0   0 # o*
   2621      1   2  0.410000     4.713883079     0.647607770    32.347455755   0   0   0 # h*
   2622      1   2  0.410000     4.077926717     1.670824326    33.132954766   0   0   0 # h*
   2623      1   1 -0.820000    13.787634653     3.815744182    62.288551370   0   0   0 # o*
   2624      1   2  0.410000    13.832557647     4.800102445    62.494766232   0   0   0 # h*
   2625      1   2  0.410000    12.828058988     3.610286683    62.235208945   0   0   0 # h*
   2626      1   1 -0.820000     9.262804314    21.277082392    51.172852717   0   0   0 # o*
   2627      1   2  0.410000     8.378610047    21.376928891    51.615280712   0   0   0 # h*
   2628      1   2  0.410000     9.577468510    -0.040039458    51.237301150   0   1   0 # h*
   2629      1   1 -0.820000     2.097122146    14.027324157    65.509633794   0   0   0 # o*
   2630      1   2  0.410000     1.492632463    14.218475154    66.264563404   0   0   0 # h*
   2631      1   2  0.410000     2.026629230    13.060752135    65.551013944   0   0   0 # h*
   2632      1   1 -0.820000    15.437212162    19.014016160    65.374206014   0   0   0 # o*
   2633      1   2  0.410000    16.051097016    18.558869601    64.761547719   0   0   0 # h*
   2634      1   2  0.410000    15.093702275    18.208003578    65.892526851   0   0   0 # h*
   2635      1   1 -0.820000    20.619400485     9.650755693    47.729387358   0   0   0 # o*
   2636      1   2  0.410000    20.763021623     9.122662751    48.593207854   0   0   0 # h*
   2637      1   2  0.410000    19.916978721     9.085558728    47.323131925   0   0   0 # h*
   2638      1   1 -0.820000    10.581930608    17.329647637    60.841308809   0   0   0 # o*
   2639      1   2  0.410000    10.422133704    16.609353417    60.190894944   0   0   0 # h*
   2640      1   2  0.410000    10.128383814    18.032861967    60.344499806   0   0   0 # h*
   2641      1   1 -0.820000     8.005026671     8.077544040    35.278515172   0   0   0 # o*
   2642      1   2  0.410000     8.055674717     8.900348266    34.759424802   0   0   0 # h*
   2643      1   2  0.410000     7.044866124     8.030193147    35.342305099   0   0   0 # h*
   2644      1   1 -0.820000     9.522447038    21.160405371    68.844794687   0   0   0 # o*
   2645      1   2  0.410000     9.567085666    21.322078533    69.774454602   0   0   0 # h*
   2646      1   2  0.410000     9.031795331    20.295346975    68.861669926   0   0   0 # h*
   2647      1   1 -0.820000     2.508336155    18.655005379    44.733333687   0   0   0 # o*
   2648      1   2  0.410000     3.442153802    18.791546374    45.053117384   0   0   0 # h*
   2649      1   2  0.410000     2.407187820    17.699784155    44.735178343   0   0   0 # h*
   2650      1   1 -0.820000    17.753304748     1.868257528    67.077082331   0   0   0 # o*
   2651      1   2  0.410000    17.238568044     2.297491073    67.787967250   0   0   0 # h*
   2652      1   2  0.410000    17.926176994     0.961426935    67.471576589   0   0   0 # h*
   2653      1   1 -0.820000    16.480230561    19.871662905    70.732258091   0   0   0 # o*
   2654      1   2  0.410000    15.918111956    20.103405156    69.972453204   0   0   0 # h*
   2655      1   2  0.410000    16.863772438    19.046661342    70.422356917   0   0   0 # h*
   2656      1   1 -0.820000    20.009007664    19.718343818    70.022153300   0   0   0 # o*
   2657      1   2  0.410000    20.709142341    20.389916725    70.171908066   0   0   0 # h*
   2658      1   2  0.410000    20.281607039    19.375271822    69.156639135   0   0   0 # h*
   2659      1   1 -0.820000    22.033672554     7.275366792    36.464920680   0   0   0 # o*
   2660      1   2  0.410000    -0.060001806     7.072716162    37.313961328   1   0   0 # h*
   2661      1   2  0.410000    21.090937768     7.485751720    36.748916973   0   0   0 # h*
   2662      1   1 -0.820000    20.401452859     7.929354196    31.787666060   0   0   0 # o*
   2663      1   2  0.410000    20.540075115     7.244202719    31.079743076   0   0   0 # h*
   2664      1   2  0.410000    21.150940955     7.561779581    32.337339251   0   0   0 # h*
   2665      1   1 -0.820000    14.880921213    14.342641095    47.441077655   0   0   0 # o*
   2666      1   2  0.410000    15.122100879    14.755578889    46.567379353   0   0   0 # h*
   2667      1   2  0.410000    15.204741099    15.039311562    48.048859142   0   0   0 # h*
   2668      1   1 -0.820000     6.047788961    10.841771075    44.766856349   0   0   0 # o*
   2669      1   2  0.410000     5.913496059    11.584404946    45.408678967   0   0   0 # h*
   2670      1   2  0.410000     6.144399348    11.339035557    43.961807134   0   0   0 # h*
   2671      1   1 -0.820000    17.887062785    16.981672417    31.541549433   0   0   0 # o*
   2672      1   2  0.410000    17.895532112    17.873650053    31.038679915   0   0   0 # h*
   2673      1   2  0.410000    18.516876351    17.233182420    32.243794372   0   0   0 # h*
   2674      1   1 -0.820000    21.924208538    21.042435497    34.905493019   0   0   0 # o*
   2675      1   2  0.410000    22.183562411    20.350270977    34.306659126   0   0   0 # h*
   2676      1   2  0.410000    -0.100732148    21.792938413    34.597198125   1   0   0 # h*
   2677      1   1 -0.820000    15.347420797    17.970094692    32.918518220   0   0   0 # o*
   2678      1   2  0.410000    15.958835075    17.178794785    32.821266963   0   0   0 # h*
   2679      1   2  0.410000    15.963637936    18.715433467    32.926051001   0   0   0 # h*
   2680      1   1 -0.820000    17.381087105    14.082257237    41.660578511   0   0   0 # o*
   2681      1   2  0.410000    16.748281859    13.748690467    40.966641360   0   0   0 # h*
   2682      1   2  0.410000    18.101714735    13.421714809    41.520749674   0   0   0 # h*
   2683      1   1 -0.820000    11.382876552    14.466820661    69.185758689   0   0   0 # o*
   2684      1   2  0.410000    11.714304388    13.827970069    68.508148764   0   0   0 # h*
   2685      1   2  0.410000    10.447075099    14.656822928    68.919408977   0   0   0 # h*
   2686      1   1 -0.820000    15.092333940     5.359209038    32.219523720   0   0   0 # o*
   2687      1   2  0.410000    15.451526897     5.126318399    33.147096015   0   0   0 # h*
   2688      1   2  0.410000    15.839812760     5.261291604    31.645856381   0   0   0 # h*
   2689      1   1 -0.820000    13.484532937     0.614991840    59.179484139   0   0   0 # o*
   2690      1   2  0.410000    12.995395042     1.332528314    58.741212648   0   0   0 # h*
   2691      1   2  0.410000    14.127274812     1.105800756    59.725107976   0   0   0 # h*
   2692      1   1 -0.820000     9.971794528    17.603058733    48.648175495   0   0   0 # o*
   2693      1   2  0.410000     9.321366575    17.527607396    49.385294503   0   0   0 # h*
   2694      1   2  0.410000    10.695410936    18.091177870    49.140279884   0   0   0 # h*
   2695      1   1 -0.820000     7.111140205     0.953623968    70.410705716   0   0   0 # o*
   2696      1   2  0.410000     6.879195875     0.497817240    71.273484156   0   0   0 # h*
   2697      1   2  0.410000     6.250126746     1.454728402    70.270465928   0   0   0 # h*
   2698      1   1 -0.820000     4.761736708    18.585715660    58.970253273   0   0   0 # o*
   2699      1   2  0.410000     4.777383543    18.929457464    59.890674107   0   0   0 # h*
   2700      1   2  0.410000     4.989985285    17.626800704    59.026155198   0   0   0 # h*
   2701      1   1 -0.820000    10.106770988    16.743434736    67.011443285   0   0   0 # o*
   2702      1   2  0.410000     9.935109662    17.119341501    67.898498767   0   0   0 # h*
   2703      1   2  0.410000    10.672337440    17.483738011    66.608782893   0   0   0 # h*
   2704      1   1 -0.820000    19.896315052    20.623705240    45.008596934   0   0   0 # o*
   2705      1   2  0.410000    20.259824459    19.812947515    45.394786727   0   0   0 # h*
   2706      1   2  0.410000    20.721388044    21.149944660    44.907339450   0   0   0 # h*
   2707      1   1 -0.820000     1.172674425    18.411566717    70.949016417   0   0   0 # o*
   2708      1   2  0.410000     0.355033991    18.852026093    70.645259831   0   0   0 # h*
   2709      1   2  0.410000     1.799480623    19.199170054    71.043732164   0   0   0 # h*
   2710      1   1 -0.820000    14.222338001     3.188723670    70.343950205   0   0   0 # o*
   2711      1   2  0.410000    14.137081997     2.402284996    70.922949152   0   0   0 # h*
   2712      1   2  0.410000    13.929097451     2.769315164    69.469641975   0   0   0 # h*
   2713      1   1 -0.820000     2.694059309     2.582105969    72.591742778   0   0   0 # o*
   2714      1   2  0.410000     2.382554806     3.271170667    73.224793079   0   0   0 # h*
   2715      1   2  0.410000     2.586710949     1.808725873    73.174085017   0   0   0 # h*
   2716      1   1 -0.820000     0.160341685     2.256238714    52.940206235   0   0   0 # o*
   2717      1   2  0.410000     1.086666463     2.225238313    53.287222423   0   0   0 # h*
   2718      1   2  0.410000     0.166299758     1.312678714    52.562582305   0   0   0 # h*
   2719      1   1 -0.820000    21.668335535    19.501640670    47.394435583   0   0   0 # o*
   2720      1   2  0.410000    21.296229544    19.114292618    46.573281521   0   0   0 # h*
   2721      1   2  0.410000    21.491182602    20.451380823    47.250633613   0   0   0 # h*
   2722      1   1 -0.820000    11.989293635    19.668257927    43.229919967   0   0   0 # o*
   2723      1   2  0.410000    11.650328901    19.622072544    42.310371430   0   0   0 # h*
   2724      1   2  0.410000    11.775911641    20.629081413    43.389214767   0   0   0 # h*
   2725      1   1 -0.820000    16.819289126     7.650671847    34.640406491   0   0   0 # o*
   2726      1   2  0.410000    17.457869149     6.952225648    34.934791394   0   0   0 # h*
   2727      1   2  0.410000    16.729812404     7.520931153    33.724456091   0   0   0 # h*
   2728      1   1 -0.820000    11.506297842     2.765817182    43.303438757   0   0   0 # o*
   2729      1   2  0.410000    10.676029186     3.085619993    42.817959624   0   0   0 # h*
   2730      1   2  0.410000    11.610993802     3.528651983    43.918974873   0   0   0 # h*
   2731      1   1 -0.820000     5.060325505     9.080154630    48.700390505   0   0   0 # o*
   2732      1   2  0.410000     5.824524859     9.692689878    48.891562455   0   0   0 # h*
   2733      1   2  0.410000     4.706509778     9.467620951    47.851445999   0   0   0 # h*
   2734      1   1 -0.820000    20.929043175     3.138122202    69.710985457   0   0   0 # o*
   2735      1   2  0.410000    20.625994827     3.343067973    68.831592742   0   0   0 # h*
   2736      1   2  0.410000    20.980531356     4.027060116    70.094278471   0   0   0 # h*
   2737      1   1 -0.820000    15.150736976     5.827917633    68.351539636   0   0   0 # o*
   2738      1   2  0.410000    15.922070384     5.202159829    68.575601472   0   0   0 # h*
   2739      1   2  0.410000    14.776763075     5.238560702    67.646857726   0   0   0 # h*
   2740      1   1 -0.820000    15.613581679     5.131463748    47.265942393   0   0   0 # o*
   2741      1   2  0.410000    15.269841717     5.705652944    47.951298497   0   0   0 # h*
   2742      1   2  0.410000    15.286658720     5.642326743    46.494913379   0   0   0 # h*
   2743      1   1 -0.820000     4.884107162    12.555459754    59.812348641   0   0   0 # o*
   2744      1   2  0.410000     4.131659689    12.231904729    59.267335227   0   0   0 # h*
   2745      1   2  0.410000     4.854460206    11.943950946    60.586321255   0   0   0 # h*
   2746      1   1 -0.820000     6.466268429    12.894809519    41.478615500   0   0   0 # o*
   2747      1   2  0.410000     7.243595948    12.219024523    41.466086983   0   0   0 # h*
   2748      1   2  0.410000     5.801373629    12.448339382    42.016196193   0   0   0 # h*
   2749      1   1 -0.820000     3.764832391    21.531997019    73.748011937   0   0   0 # o*
   2750      1   2  0.410000     4.429579703    -0.011296204    73.865313957   0   1   0 # h*
   2751      1   2  0.410000     3.725232307    21.286207495    74.721067987   0   0   0 # h*
   2752      1   1 -0.820000    20.994580316    20.889536073    73.165017211   0   0   0 # o*
   2753      1   2  0.410000    20.077257405    20.591385250    73.205388315   0   0   0 # h*
   2754      1   2  0.410000    20.936640449    21.821773314    73.541000000   0   0   0 # h*
   2755      1   1 -0.820000    18.788895057    14.557786134    70.074159326   0   0   0 # o*
   2756      1   2  0.410000    18.311673378    15.417386928    70.147814985   0   0   0 # h*
   2757      1   2  0.410000    18.261337268    14.125778682    70.846002688   0   0   0 # h*
   2758      1   1 -0.820000    15.824510192    15.974845104    50.007068291   0   0   0 # o*
   2759      1   2  0.410000    15.070558552    15.495309510    50.434817552   0   0   0 # h*
   2760      1   2  0.410000    16.561928553    15.704101694    50.595906464   0   0   0 # h*
   2761      1   1 -0.820000     0.642066126     8.975987459    29.900567899   0   0   0 # o*
   2762      1   2  0.410000     0.373654876     8.958857083    30.867819597   0   0   0 # h*
   2763      1   2  0.410000     1.593818628     9.227172233    29.963566797   0   0   0 # h*
   2764      1   1 -0.820000     8.427165001    12.197564236    47.927425530   0   0   0 # o*
   2765      1   2  0.410000     8.189819688    11.309660028    48.335455345   0   0   0 # h*
   2766      1   2  0.410000     7.630261628    12.693958751    48.195924058   0   0   0 # h*
   2767      1   1 -0.820000    14.858268243    11.895765353    56.242604228   0   0   0 # o*
   2768      1   2  0.410000    14.144641952    12.510143339    56.421480789   0   0   0 # h*
   2769      1   2  0.410000    14.758844142    11.320068723    56.994300025   0   0   0 # h*
   2770      1   1 -0.820000     4.346648660     4.650611314    61.208102460   0   0   0 # o*
   2771      1   2  0.410000     4.212546416     4.885604007    62.153689621   0   0   0 # h*
   2772      1   2  0.410000     4.866165760     5.433601136    60.948222029   0   0   0 # h*
   2773      1   1 -0.820000     7.325997155    14.953727320    62.025417325   0   0   0 # o*
   2774      1   2  0.410000     7.066688053    15.890462645    62.064166559   0   0   0 # h*
   2775      1   2  0.410000     6.454646723    14.500437054    62.117320625   0   0   0 # h*
   2776      1   1 -0.820000     6.716852922    17.096751209    36.600571001   0   0   0 # o*
   2777      1   2  0.410000     7.056907287    16.636160536    37.389365734   0   0   0 # h*
   2778      1   2  0.410000     5.794978565    17.346422286    36.909823639   0   0   0 # h*
   2779      1   1 -0.820000    14.188077386    18.623251749    55.315047025   0   0   0 # o*
   2780      1   2  0.410000    15.179270436    18.611992366    55.268422684   0   0   0 # h*
   2781      1   2  0.410000    14.166959766    18.547562216    56.293196405   0   0   0 # h*
   2782      1   1 -0.820000    19.165383229     4.106823271    31.873172227   0   0   0 # o*
   2783      1   2  0.410000    18.919519125     3.415222009    31.196158550   0   0   0 # h*
   2784      1   2  0.410000    18.486417934     4.795941894    31.657089174   0   0   0 # h*
   2785      1   1 -0.820000    15.478166814    14.135609935    59.992704884   0   0   0 # o*
   2786      1   2  0.410000    16.173079196    14.535545936    59.422168626   0   0   0 # h*
   2787      1   2  0.410000    15.685933428    14.563146524    60.866749919   0   0   0 # h*
   2788      1   1 -0.820000     9.032367657    12.784245932    66.889345186   0   0   0 # o*
   2789      1   2  0.410000     8.356241483    13.332928392    66.503368522   0   0   0 # h*
   2790      1   2  0.410000     8.925619624    13.037960536    67.805741060   0   0   0 # h*
   2791      1   1 -0.820000     3.994463355    20.269370122    31.435918287   0   0   0 # o*
   2792      1   2  0.410000     3.117244796    20.218810291    31.967798192   0   0   0 # h*
   2793      1   2  0.410000     4.324676376    21.024468972    31.933718176   0   0   0 # h*
   2794      1   1 -0.820000     1.861841676     9.743678341    34.238718204   0   0   0 # o*
   2795      1   2  0.410000     1.131777648     9.192967050    34.650146671   0   0   0 # h*
   2796      1   2  0.410000     1.585663202     9.712322877    33.275829435   0   0   0 # h*
   2797      1   1 -0.820000    14.605736530    19.689000649    30.080761262   0   0   0 # o*
   2798      1   2  0.410000    13.909893688    19.989394289    29.418583075   0   0   0 # h*
   2799      1   2  0.410000    14.398952522    18.744513007    30.132522729   0   0   0 # h*
   2800      1   1 -0.820000    19.519041422     7.676911932    37.716408341   0   0   0 # o*
   2801      1   2  0.410000    19.605602353     7.176694325    38.573982619   0   0   0 # h*
   2802      1   2  0.410000    18.543755773     7.541427296    37.593400119   0   0   0 # h*
   2803      1   1 -0.820000    17.339405566     2.905827509    48.224207486   0   0   0 # o*
   2804      1   2  0.410000    16.669006429     3.622349909    48.051260668   0   0   0 # h*
   2805      1   2  0.410000    16.769847811     2.278052767    48.697645037   0   0   0 # h*
   2806      1   1 -0.820000     1.288139315     7.880353434    44.442454675   0   0   0 # o*
   2807      1   2  0.410000     0.427654010     8.336271702    44.223678529   0   0   0 # h*
   2808      1   2  0.410000     1.171839833     7.292432302    45.211638437   0   0   0 # h*
   2809      1   1 -0.820000     5.878957837    13.549794031    48.230937291   0   0   0 # o*
   2810      1   2  0.410000     5.466320773    13.024995019    47.507918021   0   0   0 # h*
   2811      1   2  0.410000     5.990992930    14.378971975    47.773925915   0   0   0 # h*
   2812      1   1 -0.820000    10.119923856     2.719102638    56.043155014   0   0   0 # o*
   2813      1   2  0.410000    10.067145412     2.878960384    55.054110849   0   0   0 # h*
   2814      1   2  0.410000     9.993764914     1.744411329    56.121021587   0   0   0 # h*
   2815      1   1 -0.820000    15.854248337    11.720534309    44.602688914   0   0   0 # o*
   2816      1   2  0.410000    15.560436355    12.637075664    44.371374147   0   0   0 # h*
   2817      1   2  0.410000    15.235932922    11.219949395    44.020540553   0   0   0 # h*
   2818      1   1 -0.820000    -0.054735131     9.689907623    34.289696377   1   0   0 # o*
   2819      1   2  0.410000    21.915071224    10.481020989    34.207742167   0   0   0 # h*
   2820      1   2  0.410000    22.043985212     8.903962707    33.885755261   0   0   0 # h*
   2821      1   1 -0.820000     6.322884777     2.999466487    37.455635134   0   0   0 # o*
   2822      1   2  0.410000     5.503456960     3.428952894    37.194053446   0   0   0 # h*
   2823      1   2  0.410000     6.925684291     3.467219450    36.753180227   0   0   0 # h*
   2824      1   1 -0.820000     3.275812979    17.885349442    65.420161802   0   0   0 # o*
   2825      1   2  0.410000     3.897695054    17.121675375    65.312283385   0   0   0 # h*
   2826      1   2  0.410000     3.789333329    18.695187977    65.165136162   0   0   0 # h*
   2827      1   1 -0.820000    18.360455384    21.420907625    68.494917384   0   0   0 # o*
   2828      1   2  0.410000    17.639505697    20.958134231    67.967310310   0   0   0 # h*
   2829      1   2  0.410000    18.744408772    20.607916815    68.873334465   0   0   0 # h*
   2830      1   1 -0.820000    10.801545584     5.476596380    58.598497880   0   0   0 # o*
   2831      1   2  0.410000    10.398381379     6.269006709    58.078224057   0   0   0 # h*
   2832      1   2  0.410000    10.211250961     5.400276245    59.368177615   0   0   0 # h*
   2833      1   1 -0.820000     4.146437828     4.513657009    47.808642414   0   0   0 # o*
   2834      1   2  0.410000     4.687291159     5.227231375    47.432489892   0   0   0 # h*
   2835      1   2  0.410000     3.344126779     5.048896343    47.906176336   0   0   0 # h*
   2836      1   1 -0.820000    15.923869367    20.444722267    49.980700891   0   0   0 # o*
   2837      1   2  0.410000    15.766171672    19.558392045    50.396461370   0   0   0 # h*
   2838      1   2  0.410000    15.252799624    20.385067075    49.234411355   0   0   0 # h*
   2839      1   1 -0.820000    13.047174166     9.789077182    49.895720815   0   0   0 # o*
   2840      1   2  0.410000    12.883355521     8.994023203    50.482676908   0   0   0 # h*
   2841      1   2  0.410000    12.330657805    10.358590632    50.213636206   0   0   0 # h*
   2842      1   1 -0.820000    11.145082023     1.454199439    49.586701088   0   0   0 # o*
   2843      1   2  0.410000    11.045018350     1.194947107    50.523976508   0   0   0 # h*
   2844      1   2  0.410000    11.957009711     0.958791621    49.312094326   0   0   0 # h*
   2845      1   1 -0.820000     5.827544571    11.371109043    28.314389278   0   0   0 # o*
   2846      1   2  0.410000     6.677119211    11.396114476    28.821092496   0   0   0 # h*
   2847      1   2  0.410000     5.549644794    12.292773446    28.385158825   0   0   0 # h*
   2848      1   1 -0.820000     6.904686548    12.351764047    42.397249515   0   0   0 # o*
   2849      1   2  0.410000     6.066175833    12.742904251    41.998564987   0   0   0 # h*
   2850      1   2  0.410000     7.599798647    12.773452046    41.832063241   0   0   0 # h*
   2851      1   1 -0.820000     3.295521780     8.124924429    46.166190028   0   0   0 # o*
   2852      1   2  0.410000     3.196549415     7.682302649    45.358521554   0   0   0 # h*
   2853      1   2  0.410000     2.682405139     8.866688490    46.008540805   0   0   0 # h*
   2854      1   1 -0.820000     0.873694683    11.324269812    48.794325263   0   0   0 # o*
   2855      1   2  0.410000     0.268205843    10.561497722    48.994066046   0   0   0 # h*
   2856      1   2  0.410000     1.404994348    10.892635455    48.059337565   0   0   0 # h*
   2857      1   1 -0.820000     3.459325178    10.166949397    64.586248906   0   0   0 # o*
   2858      1   2  0.410000     4.309682991    10.581729608    64.917336505   0   0   0 # h*
   2859      1   2  0.410000     2.837445359    10.669710513    65.201969217   0   0   0 # h*
   2860      1   1 -0.820000    14.390904145     1.596622783    35.307677986   0   0   0 # o*
   2861      1   2  0.410000    14.273669087     0.616104788    35.470436645   0   0   0 # h*
   2862      1   2  0.410000    15.128151677     1.797230944    35.908274397   0   0   0 # h*
   2863      1   1 -0.820000     9.836661513    12.329427658    52.447829040   0   0   0 # o*
   2864      1   2  0.410000     9.372055987    11.476866323    52.323436919   0   0   0 # h*
   2865      1   2  0.410000    10.491999959    12.309566632    51.711578452   0   0   0 # h*
   2866      1   1 -0.820000    12.857082400    21.127582831    47.266299727   0   0   0 # o*
   2867      1   2  0.410000    12.480091698    22.008109469    47.042374808   0   0   0 # h*
   2868      1   2  0.410000    12.140500393    20.512964758    47.014282257   0   0   0 # h*
   2869      1   1 -0.820000     1.018988443     0.248289393    64.588738911   0   0   0 # o*
   2870      1   2  0.410000     1.827504416    22.082545851    64.254318973   0  -1   0 # h*
   2871      1   2  0.410000     0.917610368    22.002973160    65.413366359   0  -1   0 # h*
   2872      1   1 -0.820000     3.908019016     9.562105791    42.845739790   0   0   0 # o*
   2873      1   2  0.410000     4.339322266     8.708591616    43.184229942   0   0   0 # h*
   2874      1   2  0.410000     4.402092189    10.209403268    43.361203887   0   0   0 # h*
   2875      1   1 -0.820000     9.113242707     5.707544954    51.033381331   0   0   0 # o*
   2876      1   2  0.410000     9.767441220     5.227128290    50.467005604   0   0   0 # h*
   2877      1   2  0.410000     9.720680258     6.126495098    51.704800108   0   0   0 # h*
   2878      1   1 -0.820000     0.449714642     6.013104513    56.483260523   1   0   0 # o*
   2879      1   2  0.410000    22.049322748     6.059632266    56.159901427   0   0   0 # h*
   2880      1   2  0.410000     0.242079047     5.833016186    57.426977958   1   0   0 # h*
   2881      1   1 -0.820000     1.566202898     5.313167198    44.959882868   0   0   0 # o*
   2882      1   2  0.410000     1.142190113     6.146832725    45.219962586   0   0   0 # h*
   2883      1   2  0.410000     2.454974570     5.551412832    44.754559449   0   0   0 # h*
   2884      1   1 -0.820000     6.884514791     7.590470347    51.441638321   0   0   0 # o*
   2885      1   2  0.410000     5.959475525     7.304928062    51.310714540   0   0   0 # h*
   2886      1   2  0.410000     7.343948905     6.863269411    50.968947115   0   0   0 # h*
   2887      1   1 -0.820000    20.486934334    15.465846544    66.072959972   0   0   0 # o*
   2888      1   2  0.410000    20.410578910    14.828454071    66.802486409   0   0   0 # h*
   2889      1   2  0.410000    21.393774083    15.747257222    66.180190571   0   0   0 # h*
   2890      1   1 -0.820000    12.162337224     6.108874218    68.505544903   0   0   0 # o*
   2891      1   2  0.410000    11.687971785     5.244528796    68.674977191   0   0   0 # h*
   2892      1   2  0.410000    13.115673996     5.849679258    68.532775016   0   0   0 # h*
   2893      1   1 -0.820000    16.421038187    12.125571432    42.773482199   0   0   0 # o*
   2894      1   2  0.410000    15.464436254    12.215945626    42.812269982   0   0   0 # h*
   2895      1   2  0.410000    16.413938530    11.158648303    42.748396152   0   0   0 # h*
   2896      1   1 -0.820000     9.318623226    20.986836054    50.733820326   0   0   0 # o*
   2897      1   2  0.410000     9.453933492    21.754546013    51.323066636   0   0   0 # h*
   2898      1   2  0.410000     9.822026731    20.305689152    51.282301743   0   0   0 # h*
   2899      1   1 -0.820000    17.969851835    21.359604077    63.541711081   0   0   0 # o*
   2900      1   2  0.410000    18.645289975    21.129584424    62.833417228   0   0   0 # h*
   2901      1   2  0.410000    18.562985109    21.472989277    64.289470862   0   0   0 # h*
   2902      1   1 -0.820000     1.419698698    17.181473468    28.358666119   0   0   0 # o*
   2903      1   2  0.410000     1.541126787    17.432095854    27.408165191   0   0   0 # h*
   2904      1   2  0.410000     1.553750172    18.094382821    28.785497271   0   0   0 # h*
   2905      1   1 -0.820000     6.193531879    17.740109809    62.241312463   0   0   0 # o*
   2906      1   2  0.410000     6.575645372    18.385387096    62.896373161   0   0   0 # h*
   2907      1   2  0.410000     5.721188800    18.390115963    61.686684140   0   0   0 # h*
   2908      1   1 -0.820000    10.529626192     6.484779239    67.402192436   0   0   0 # o*
   2909      1   2  0.410000    10.490592824     5.610084678    66.911795122   0   0   0 # h*
   2910      1   2  0.410000    10.969972696     6.184329274    68.169706674   0   0   0 # h*
   2911      1   1 -0.820000    20.550911037    10.891542429    63.826385110   0   0   0 # o*
   2912      1   2  0.410000    19.938573055    10.257280118    64.275414600   0   0   0 # h*
   2913      1   2  0.410000    20.657194484    10.421607793    62.948277133   0   0   0 # h*
   2914      1   1 -0.820000    20.114485110     6.266267386    64.936636903   0   0   0 # o*
   2915      1   2  0.410000    19.644266776     5.840217986    65.709959749   0   0   0 # h*
   2916      1   2  0.410000    20.317813004     5.458100576    64.457139781   0   0   0 # h*
   2917      1   1 -0.820000    18.268445598     7.479581438    53.682044176   0   0   0 # o*
   2918      1   2  0.410000    17.716333012     6.714242159    53.953285270   0   0   0 # h*
   2919      1   2  0.410000    19.085164490     6.986371154    53.475760185   0   0   0 # h*
   2920      1   1 -0.820000    20.694885823     5.723821784    53.301452303   0   0   0 # o*
   2921      1   2  0.410000    20.644918074     4.970464059    53.940992652   0   0   0 # h*
   2922      1   2  0.410000    20.578505735     5.249845886    52.462001752   0   0   0 # h*
   2923      1   1 -0.820000    16.382820792     5.437125117    59.808297338   0   0   0 # o*
   2924      1   2  0.410000    15.469268083     5.549512899    59.416276623   0   0   0 # h*
   2925      1   2  0.410000    16.467530645     6.302471504    60.249075619   0   0   0 # h*
   2926      1   1 -0.820000     5.492132135    19.917871776    71.966047136   0   0   0 # o*
   2927      1   2  0.410000     6.305312758    20.224357500    72.484174252   0   0   0 # h*
   2928      1   2  0.410000     4.803714085    20.181877947    72.588313201   0   0   0 # h*
   2929      1   1 -0.820000    19.974446450    12.496394001    56.367958206   0   0   0 # o*
   2930      1   2  0.410000    20.695211142    11.945145407    55.919511172   0   0   0 # h*
   2931      1   2  0.410000    19.492539920    12.725394466    55.506489207   0   0   0 # h*
   2932      1   1 -0.820000     6.703802287    11.423970743    36.874331725   0   0   0 # o*
   2933      1   2  0.410000     7.512923284    11.926355485    36.563298280   0   0   0 # h*
   2934      1   2  0.410000     6.100260415    11.616522468    36.120801530   0   0   0 # h*
   2935      1   1 -0.820000    11.138894145    16.858547780    28.993716079   0   0   0 # o*
   2936      1   2  0.410000    11.109077906    16.733927362    28.020799901   0   0   0 # h*
   2937      1   2  0.410000    10.844535228    15.987263888    29.378874381   0   0   0 # h*
   2938      1   1 -0.820000     4.331539217    16.991164463    68.819694653   0   0   0 # o*
   2939      1   2  0.410000     4.236498313    15.999343761    68.860132602   0   0   0 # h*
   2940      1   2  0.410000     4.852668164    17.137205879    68.013151145   0   0   0 # h*
   2941      1   1 -0.820000    14.238254078     1.559609797    67.879149039   0   0   0 # o*
   2942      1   2  0.410000    13.302727569     1.314721836    67.842648196   0   0   0 # h*
   2943      1   2  0.410000    14.487296824     1.364225462    66.917697863   0   0   0 # h*
   2944      1   1 -0.820000    14.988129139     3.345973253    57.426077029   0   0   0 # o*
   2945      1   2  0.410000    14.234427436     2.818819104    57.009429788   0   0   0 # h*
   2946      1   2  0.410000    14.491377867     4.132214479    57.722132597   0   0   0 # h*
   2947      1   1 -0.820000     1.932596421    21.309344337    47.009210568   0   0   0 # o*
   2948      1   2  0.410000     2.513263104    21.657965549    47.761321866   0   0   0 # h*
   2949      1   2  0.410000     1.757119748    20.431029671    47.356169883   0   0   0 # h*
   2950      1   1 -0.820000     2.300558350    10.845727358    53.581422297   0   0   0 # o*
   2951      1   2  0.410000     3.130735081    10.802979363    53.078540611   0   0   0 # h*
   2952      1   2  0.410000     1.873423910     9.972291712    53.476103679   0   0   0 # h*
   2953      1   1 -0.820000    18.500472680    20.726873175    45.442170322   0   0   0 # o*
   2954      1   2  0.410000    18.303835261    20.646992505    46.439363574   0   0   0 # h*
   2955      1   2  0.410000    19.136605944    21.463450601    45.432219084   0   0   0 # h*
   2956      1   1 -0.820000    18.839289841    14.281932736    44.352542739   0   0   0 # o*
   2957      1   2  0.410000    18.186084686    13.841880978    43.775329773   0   0   0 # h*
   2958      1   2  0.410000    18.333740678    15.074881624    44.653454173   0   0   0 # h*
   2959      1   1 -0.820000     9.086915117     3.622717546    42.100859724   0   0   0 # o*
   2960      1   2  0.410000     8.470985812     2.973112451    42.544421655   0   0   0 # h*
   2961      1   2  0.410000     8.488715658     4.384182669    42.117968720   0   0   0 # h*
   2962      1   1 -0.820000     4.753104898    13.724249336    62.468790904   0   0   0 # o*
   2963      1   2  0.410000     3.832083416    13.364492059    62.193674955   0   0   0 # h*
   2964      1   2  0.410000     4.439546237    14.660682341    62.445400353   0   0   0 # h*
   2965      1   1 -0.820000    14.309510702     2.085096051    45.322390784   0   0   0 # o*
   2966      1   2  0.410000    15.310389662     2.260843860    45.376422935   0   0   0 # h*
   2967      1   2  0.410000    14.176512957     2.047444966    44.346432469   0   0   0 # h*
   2968      1   1 -0.820000     2.000298478    16.054783996    39.250904898   0   0   0 # o*
   2969      1   2  0.410000     2.191795861    16.431166944    40.113010834   0   0   0 # h*
   2970      1   2  0.410000     1.056684861    16.366065338    39.164265055   0   0   0 # h*
   2971      1   1 -0.820000     5.350135697    19.081455016    45.516854260   0   0   0 # o*
   2972      1   2  0.410000     5.051777968    19.222942830    46.402582433   0   0   0 # h*
   2973      1   2  0.410000     5.771236212    19.943799907    45.306249013   0   0   0 # h*
   2974      1   1 -0.820000    18.856101179     9.955002740    36.226845373   0   0   0 # o*
   2975      1   2  0.410000    18.412675308     9.632070540    35.414651837   0   0   0 # h*
   2976      1   2  0.410000    19.157161461     9.146209346    36.629034191   0   0   0 # h*
   2977      1   1 -0.820000     7.869151160    15.468668715    44.834626300   0   0   0 # o*
   2978      1   2  0.410000     8.809135913    15.643280085    44.560778450   0   0   0 # h*
   2979      1   2  0.410000     7.913377071    16.001836926    45.683652357   0   0   0 # h*
   2980      1   1 -0.820000     1.024968020    15.673315422    63.602316113   0   0   0 # o*
   2981      1   2  0.410000     1.436170831    14.965056112    64.142196675   0   0   0 # h*
   2982      1   2  0.410000     1.816332200    15.978437791    63.105925396   0   0   0 # h*
   2983      1   1 -0.820000    14.014796003    15.300186466    55.494087313   0   0   0 # o*
   2984      1   2  0.410000    14.544141296    15.753088192    56.163715896   0   0   0 # h*
   2985      1   2  0.410000    14.754573657    14.797742863    55.048578166   0   0   0 # h*
   2986      1   1 -0.820000    15.083342839    10.716133903    51.890348543   0   0   0 # o*
   2987      1   2  0.410000    15.168357522    10.502871663    50.950781024   0   0   0 # h*
   2988      1   2  0.410000    14.883977479     9.820123816    52.209568300   0   0   0 # h*
   2989      1   1 -0.820000    22.033683286     8.589974526    64.918530264   0   0   0 # o*
   2990      1   2  0.410000    21.809709607     7.656815662    64.943967488   0   0   0 # h*
   2991      1   2  0.410000    21.917102008     8.883320787    63.985967735   0   0   0 # h*
   2992      1   1 -0.820000    21.157612978     3.437015418    41.182407060   0   0   0 # o*
   2993      1   2  0.410000    21.093468502     2.696576355    41.848626298   0   0   0 # h*
   2994      1   2  0.410000    22.087913126     3.244590252    40.817175948   0   0   0 # h*
   2995      1   1 -0.820000    15.524176653    21.242906899    32.388721690   0   0   0 # o*
   2996      1   2  0.410000    14.940147896    21.079993354    31.608289630   0   0   0 # h*
   2997      1   2  0.410000    16.051249760    21.964009474    32.017530324   0   0   0 # h*
   2998      1   1 -0.820000     3.361291102     0.287635296    44.639465712   0   1   0 # o*
   2999      1   2  0.410000     2.863630174    -0.033862653    45.415473552   0   1   0 # h*
   3000      1   2  0.410000     4.287303815     0.094937082    44.912650658   0   1   0 # h*
   3001      1   1 -0.820000    18.874778270     8.721028056    64.720725974   0   0   0 # o*
   3002      1   2  0.410000    19.553700665     8.074152173    65.048770385   0   0   0 # h*
   3003      1   2  0.410000    18.056868626     8.319995013    65.125134585   0   0   0 # h*
   3004      1   1 -0.820000     9.308102946    10.967985782    52.503604008   0   0   0 # o*
   3005      1   2  0.410000     9.356271385    10.653159986    53.430327008   0   0   0 # h*
   3006      1   2  0.410000     8.893543207    11.833262431    52.669607818   0   0   0 # h*
   3007      1   1 -0.820000     3.698579741    19.314811019    61.811685968   0   0   0 # o*
   3008      1   2  0.410000     3.889717121    19.754487797    62.638248070   0   0   0 # h*
   3009      1   2  0.410000     2.750231003    19.638056846    61.640314922   0   0   0 # h*
   3010      1   1 -0.820000     1.852790202     3.451760483    61.758948388   0   0   0 # o*
   3011      1   2  0.410000     1.852830563     2.615308094    61.180567687   0   0   0 # h*
   3012      1   2  0.410000     2.631371513     3.929041207    61.509847233   0   0   0 # h*
   3013      1   1 -0.820000     3.668789276     4.329833062    37.594966914   0   0   0 # o*
   3014      1   2  0.410000     3.679529431     4.854242661    36.743419719   0   0   0 # h*
   3015      1   2  0.410000     3.447268696     5.069877062    38.251698643   0   0   0 # h*
   3016      1   1 -0.820000    10.972344371    12.118051333    49.806005011   0   0   0 # o*
   3017      1   2  0.410000    10.216053467    11.922584457    49.190729771   0   0   0 # h*
   3018      1   2  0.410000    11.208983660    12.997031449    49.484759167   0   0   0 # h*
   3019      1   1 -0.820000     3.902867468    11.564043773    47.333573927   0   0   0 # o*
   3020      1   2  0.410000     3.463707703    11.808483702    48.183501029   0   0   0 # h*
   3021      1   2  0.410000     3.157765382    11.389937821    46.798367678   0   0   0 # h*
   3022      1   1 -0.820000     6.217227604     9.293621177    59.037739554   0   0   0 # o*
   3023      1   2  0.410000     6.200553356     9.805052429    58.217020662   0   0   0 # h*
   3024      1   2  0.410000     6.654307500     9.930507416    59.656641718   0   0   0 # h*
   3025      1   1 -0.820000    18.056094760    17.257474186    67.007001055   0   0   0 # o*
   3026      1   2  0.410000    17.662072288    18.011763625    67.468325878   0   0   0 # h*
   3027      1   2  0.410000    18.970908406    17.619422094    66.849273291   0   0   0 # h*
   3028      1   1 -0.820000    16.345927690    19.093321835    38.111071395   0   0   0 # o*
   3029      1   2  0.410000    15.818687952    18.689923135    37.371582727   0   0   0 # h*
   3030      1   2  0.410000    15.811491095    18.784787744    38.841080206   0   0   0 # h*
   3031      1   1 -0.820000     1.439777357    21.881476272    36.947531808   0   0   0 # o*
   3032      1   2  0.410000     1.761095308    21.014179245    37.359819899   0   0   0 # h*
   3033      1   2  0.410000     0.917016060    -0.040407137    37.723877099   0   1   0 # h*
   3034      1   1 -0.820000    20.792669702     1.542330259    43.282296069   0   0   0 # o*
   3035      1   2  0.410000    20.336328214     0.819642934    43.757175193   0   0   0 # h*
   3036      1   2  0.410000    20.711433025     2.234181224    43.958725451   0   0   0 # h*
   3037      1   1 -0.820000    12.434076632    20.616574517    36.885034845   0   0   0 # o*
   3038      1   2  0.410000    12.211166879    21.485191827    37.263314398   0   0   0 # h*
   3039      1   2  0.410000    13.108476186    20.850807449    36.207916522   0   0   0 # h*
   3040      1   1 -0.820000    20.430691211     0.611383917    53.809169818   0   0   0 # o*
   3041      1   2  0.410000    19.858438936     0.839424949    53.070871631   0   0   0 # h*
   3042      1   2  0.410000    19.846139552     0.220738436    54.483446874   0   0   0 # h*
   3043      1   1 -0.820000    12.683083256     4.573869995    30.995187039   0   0   0 # o*
   3044      1   2  0.410000    13.410086147     5.151460534    31.402779311   0   0   0 # h*
   3045      1   2  0.410000    13.263201809     3.791042100    30.646229467   0   0   0 # h*
   3046      1   1 -0.820000    14.817887422     9.531827760    69.272338651   0   0   0 # o*
   3047      1   2  0.410000    15.064558223     9.487239767    68.358590028   0   0   0 # h*
   3048      1   2  0.410000    13.933916968     9.943018981    69.277820119   0   0   0 # h*
   3049      1   1 -0.820000    12.493856313    17.198684013    36.118537419   0   0   0 # o*
   3050      1   2  0.410000    13.107591778    17.926622980    36.427451510   0   0   0 # h*
   3051      1   2  0.410000    11.859906097    17.767283642    35.622584953   0   0   0 # h*
   3052      1   1 -0.820000    21.217220258     6.260943644    73.127047514   0   0   0 # o*
   3053      1   2  0.410000    20.716368146     6.850850852    72.502551296   0   0   0 # h*
   3054      1   2  0.410000    20.605471139     6.148534626    73.897498003   0   0   0 # h*
   3055      1   1 -0.820000     4.826524673    10.102500732    55.883971900   0   0   0 # o*
   3056      1   2  0.410000     5.520167037    10.617176350    55.435935616   0   0   0 # h*
   3057      1   2  0.410000     4.578498215     9.602287630    55.046803912   0   0   0 # h*
   3058      1   1 -0.820000     9.602536410     9.041134576    38.961009449   0   0   0 # o*
   3059      1   2  0.410000     8.841216907     9.616362949    39.303921813   0   0   0 # h*
   3060      1   2  0.410000     9.651844319     9.497987363    38.103224122   0   0   0 # h*
   3061      1   1 -0.820000     8.514112323    14.856593499    69.126485839   0   0   0 # o*
   3062      1   2  0.410000     8.644887948    15.303315367    69.989468146   0   0   0 # h*
   3063      1   2  0.410000     7.598228925    14.500768043    69.403467958   0   0   0 # h*
   3064      1   1 -0.820000    16.183272523    21.641422070    66.254471043   0   0   0 # o*
   3065      1   2  0.410000    16.879745111    21.630773335    65.541429234   0   0   0 # h*
   3066      1   2  0.410000    15.891756207    20.663138422    66.143571638   0   0   0 # h*
   3067      1   1 -0.820000     7.497030062    16.630029916    59.266536290   0   0   0 # o*
   3068      1   2  0.410000     7.804521811    15.998089042    58.541978571   0   0   0 # h*
   3069      1   2  0.410000     6.681653552    16.152427868    59.538654449   0   0   0 # h*
   3070      1   1 -0.820000    11.005050091     2.141887563    30.573970164   0   0   0 # o*
   3071      1   2  0.410000    10.520203070     2.981238801    30.690968818   0   0   0 # h*
   3072      1   2  0.410000    11.490756453     2.148195336    31.462081668   0   0   0 # h*
   3073      1   1 -0.820000     2.398726360    14.353158893    31.442645732   0   0   0 # o*
   3074      1   2  0.410000     2.440364194    13.940757478    32.332458822   0   0   0 # h*
   3075      1   2  0.410000     1.438508074    14.600187143    31.376280689   0   0   0 # h*
   3076      1   1 -0.820000    18.924936701     9.320054534    40.841422953   0   0   0 # o*
   3077      1   2  0.410000    17.971840679     9.251521397    40.908823500   0   0   0 # h*
   3078      1   2  0.410000    19.148090094     8.410175753    40.443093544   0   0   0 # h*
   3079      1   1 -0.820000    20.644657814    17.785339791    46.636659587   0   0   0 # o*
   3080      1   2  0.410000    20.636841794    17.991505227    45.650714373   0   0   0 # h*
   3081      1   2  0.410000    19.657354911    17.810597254    46.799633721   0   0   0 # h*
   3082      1   1 -0.820000    18.866061402     9.202084752    51.589919625   0   0   0 # o*
   3083      1   2  0.410000    18.747517834     8.604469494    52.392367961   0   0   0 # h*
   3084      1   2  0.410000    19.291012077     8.692513283    50.858683826   0   0   0 # h*
   3085      1   1 -0.820000    10.458680854     5.841728115    31.953587630   0   0   0 # o*
   3086      1   2  0.410000    11.042638096     5.303882704    31.412042580   0   0   0 # h*
   3087      1   2  0.410000    10.651669370     5.521460656    32.861026262   0   0   0 # h*
   3088      1   1 -0.820000     6.217562206     5.359945968    43.931640055   0   0   0 # o*
   3089      1   2  0.410000     6.540840865     5.305016998    44.849533558   0   0   0 # h*
   3090      1   2  0.410000     6.947737703     5.859547591    43.483083047   0   0   0 # h*
   3091      1   1 -0.820000    16.465337715     7.503850768    66.420041385   0   0   0 # o*
   3092      1   2  0.410000    16.188560038     6.871078780    67.103857826   0   0   0 # h*
   3093      1   2  0.410000    16.259849119     6.994047082    65.554732884   0   0   0 # h*
   3094      1   1 -0.820000    20.581246823     0.026113831    49.602130438   0   1   0 # o*
   3095      1   2  0.410000    20.781333733    21.717278326    48.839779556   0   0   0 # h*
   3096      1   2  0.410000    21.314238654    22.026312146    50.229345521   0   0   0 # h*
   3097      1   1 -0.820000    15.811860009     9.333721486    36.525912151   0   0   0 # o*
   3098      1   2  0.410000    16.407419081     8.932433977    35.844132182   0   0   0 # h*
   3099      1   2  0.410000    15.106852374     8.628465758    36.570165832   0   0   0 # h*
   3100      1   1 -0.820000    17.298299315    16.746192267    50.444269846   0   0   0 # o*
   3101      1   2  0.410000    17.556383698    17.630093547    50.158901696   0   0   0 # h*
   3102      1   2  0.410000    16.650897987    16.977775031    51.164764550   0   0   0 # h*
   3103      1   1 -0.820000    14.820490920     1.081524217    42.656532895   0   0   0 # o*
   3104      1   2  0.410000    15.457783998     0.344401747    42.833561339   0   0   0 # h*
   3105      1   2  0.410000    13.979261885     0.581413067    42.387790333   0   0   0 # h*
   3106      1   1 -0.820000     6.352663570    20.999536457    41.274902404   0   0   0 # o*
   3107      1   2  0.410000     5.635769096    21.061896596    40.585676799   0   0   0 # h*
   3108      1   2  0.410000     6.457548423    20.043690361    41.427093158   0   0   0 # h*
   3109      1   1 -0.820000    12.719406052     2.353002608    46.727718519   0   0   0 # o*
   3110      1   2  0.410000    12.174864911     2.599517328    45.983117200   0   0   0 # h*
   3111      1   2  0.410000    12.382008384     1.479978319    46.933297978   0   0   0 # h*
   3112      1   1 -0.820000     6.551842112    20.530434771    61.816835197   0   0   0 # o*
   3113      1   2  0.410000     5.733961250    21.079156614    61.732311632   0   0   0 # h*
   3114      1   2  0.410000     7.242468346    21.151067753    62.137008571   0   0   0 # h*
   3115      1   1 -0.820000    17.630103960    12.486476889    30.540475001   0   0   0 # o*
   3116      1   2  0.410000    17.524868848    13.211659746    31.197873344   0   0   0 # h*
   3117      1   2  0.410000    18.533053428    12.676571404    30.239990869   0   0   0 # h*
   3118      1   1 -0.820000     3.332847153    16.600078902    62.212840137   0   0   0 # o*
   3119      1   2  0.410000     4.192722764    17.009711463    62.388233131   0   0   0 # h*
   3120      1   2  0.410000     3.136029744    17.105712270    61.434327977   0   0   0 # h*
   3121      1   1 -0.820000    10.035096607     0.595721489    60.800478605   0   0   0 # o*
   3122      1   2  0.410000     9.273780584     1.228660757    60.660894216   0   0   0 # h*
   3123      1   2  0.410000     9.864028702     0.303850168    61.694089146   0   0   0 # h*
   3124      1   1 -0.820000    12.228874859     7.266273302    29.135458909   0   0   0 # o*
   3125      1   2  0.410000    13.137707487     7.410674326    29.455738529   0   0   0 # h*
   3126      1   2  0.410000    12.181446525     6.295384773    29.242025392   0   0   0 # h*
   3127      1   1 -0.820000    21.148352151     9.330563608    67.493551608   0   0   0 # o*
   3128      1   2  0.410000    20.414321986     9.917098644    67.185365161   0   0   0 # h*
   3129      1   2  0.410000    21.610333223     9.042467085    66.665505380   0   0   0 # h*
   3130      1   1 -0.820000    20.169744796    11.785415768    69.710686721   0   0   0 # o*
   3131      1   2  0.410000    19.409671528    12.447555929    69.719519455   0   0   0 # h*
   3132      1   2  0.410000    20.542168215    11.991322249    70.593659532   0   0   0 # h*
   3133      1   1 -0.820000     4.425261476     8.545107468    53.409434724   0   0   0 # o*
   3134      1   2  0.410000     3.560238147     8.350975303    52.968105862   0   0   0 # h*
   3135      1   2  0.410000     4.758069013     7.614674974    53.389202358   0   0   0 # h*
   3136      1   1 -0.820000    16.847177032    14.502981982    67.407542554   0   0   0 # o*
   3137      1   2  0.410000    16.240770058    14.700655462    68.109188224   0   0   0 # h*
   3138      1   2  0.410000    17.476433473    15.247522004    67.582409159   0   0   0 # h*
   3139      1   1 -0.820000    15.577965876    12.716044758    40.059881827   0   0   0 # o*
   3140      1   2  0.410000    16.090539562    11.971970747    39.697060813   0   0   0 # h*
   3141      1   2  0.410000    14.990954114    12.852819472    39.333686237   0   0   0 # h*
   3142      1   1 -0.820000    20.612536264    12.752678034    50.173107960   0   0   0 # o*
   3143      1   2  0.410000    21.108486007    12.174747986    50.842039968   0   0   0 # h*
   3144      1   2  0.410000    19.769201147    12.226965899    50.132989022   0   0   0 # h*
   3145      1   1 -0.820000     6.137081181    13.720626078    36.818802641   0   0   0 # o*
   3146      1   2  0.410000     7.003111955    13.504800138    36.465588248   0   0   0 # h*
   3147      1   2  0.410000     5.847236354    14.414767498    36.243950044   0   0   0 # h*
   3148      1   1 -0.820000     9.082291193    20.425091715    39.174657482   0   0   0 # o*
   3149      1   2  0.410000     8.373003549    20.498347387    38.501090706   0   0   0 # h*
   3150      1   2  0.410000     8.962024746    21.314614878    39.619736261   0   0   0 # h*
   3151      1   1 -0.820000    15.037875653     2.558968771    30.712811547   0   0   0 # o*
   3152      1   2  0.410000    15.755899655     3.002596055    30.254738882   0   0   0 # h*
   3153      1   2  0.410000    15.445092930     2.581071613    31.617794343   0   0   0 # h*
   3154      1   1 -0.820000     0.838426992     2.684464898    45.344323361   0   0   0 # o*
   3155      1   2  0.410000     1.037192334     3.621508604    45.111516509   0   0   0 # h*
   3156      1   2  0.410000     0.300511960     2.843604032    46.202555639   0   0   0 # h*
   3157      1   1 -0.820000    18.153876955    14.293458385    37.492506515   0   0   0 # o*
   3158      1   2  0.410000    17.280100307    14.744847879    37.374711000   0   0   0 # h*
   3159      1   2  0.410000    18.095979917    13.643803669    36.727239523   0   0   0 # h*
   3160      1   1 -0.820000     1.989221168     0.285918230    48.896803501   0   0   0 # o*
   3161      1   2  0.410000     2.655706069     0.022462603    49.523207566   0   0   0 # h*
   3162      1   2  0.410000     2.360900397    22.009938164    48.123714295   0  -1   0 # h*
   3163      1   1 -0.820000    16.416464455     3.138643035    41.730755637   0   0   0 # o*
   3164      1   2  0.410000    16.923730126     2.489498470    41.220361558   0   0   0 # h*
   3165      1   2  0.410000    15.563346933     2.576324305    41.862884024   0   0   0 # h*
   3166      1   1 -0.820000    21.978798121    21.404435731    37.886295133   0   0   0 # o*
   3167      1   2  0.410000    21.444432810    -0.000002600    37.832825393   0   1   0 # h*
   3168      1   2  0.410000    22.095025725    21.222096678    36.954817506   0   0   0 # h*
   3169      1   1 -0.820000     5.165861898    20.596288050    63.143495542   0   0   0 # o*
   3170      1   2  0.410000     4.825742715    21.277224352    62.547379714   0   0   0 # h*
   3171      1   2  0.410000     6.052330069    20.423150997    62.727749185   0   0   0 # h*
   3172      1   1 -0.820000    18.387602619     4.752320085    57.680669976   0   0   0 # o*
   3173      1   2  0.410000    19.058254144     5.418779630    57.989152508   0   0   0 # h*
   3174      1   2  0.410000    17.672915609     4.995772423    58.302217486   0   0   0 # h*
   3175      1   1 -0.820000     3.180883497    19.385479319    40.167828758   0   0   0 # o*
   3176      1   2  0.410000     2.874520799    19.843648601    40.982845140   0   0   0 # h*
   3177      1   2  0.410000     3.469615198    18.510723870    40.522296283   0   0   0 # h*
   3178      1   1 -0.820000    17.910448696    11.203720256    46.406637601   0   0   0 # o*
   3179      1   2  0.410000    17.220385969    11.315027953    45.718864416   0   0   0 # h*
   3180      1   2  0.410000    17.457524858    10.461887937    46.893985897   0   0   0 # h*
   3181      1   1 -0.820000    21.998683520     0.692545726    69.138460752   0   0   0 # o*
   3182      1   2  0.410000    21.892491140     1.655658117    69.353088877   0   0   0 # h*
   3183      1   2  0.410000    -0.143689096     0.854535205    68.279114656   1   0   0 # h*
   3184      1   1 -0.820000    -0.203358827    12.623130224    65.337704504   1   0   0 # o*
   3185      1   2  0.410000     0.171775434    13.330686796    64.763199057   1   0   0 # h*
   3186      1   2  0.410000    21.782283075    11.977914384    64.818984170   0   0   0 # h*
   3187      1   1 -0.820000     8.923879865    10.898767574    70.265454733   0   0   0 # o*
   3188      1   2  0.410000     7.985183437    11.205717577    70.291401324   0   0   0 # h*
   3189      1   2  0.410000     8.750934684     9.931916648    70.460896552   0   0   0 # h*
   3190      1   1 -0.820000    12.822372958    13.229373460    45.574247353   0   0   0 # o*
   3191      1   2  0.410000    13.514798162    12.959624888    46.268957026   0   0   0 # h*
   3192      1   2  0.410000    12.146509682    12.587228398    45.881222758   0   0   0 # h*
   3193      1   1 -0.820000    22.059086078    10.554778527    59.206870889   0   0   0 # o*
   3194      1   2  0.410000     0.022037627    11.363942302    59.445331877   1   0   0 # h*
   3195      1   2  0.410000     0.311124985    10.122976777    58.767668478   1   0   0 # h*
   3196      1   1 -0.820000    13.749571990     6.908904124    45.740287329   0   0   0 # o*
   3197      1   2  0.410000    14.412191268     7.330285412    45.136393437   0   0   0 # h*
   3198      1   2  0.410000    13.137773186     7.654055919    45.974825087   0   0   0 # h*
   3199      1   1 -0.820000    17.866570301    13.632653215    47.809083112   0   0   0 # o*
   3200      1   2  0.410000    18.135149155    12.962625942    47.104415925   0   0   0 # h*
   3201      1   2  0.410000    17.083329778    13.192615191    48.119181896   0   0   0 # h*
   3202      1   1 -0.820000    11.664200488     4.958181565    45.113571989   0   0   0 # o*
   3203      1   2  0.410000    10.865071779     5.461533689    45.341510705   0   0   0 # h*
   3204      1   2  0.410000    12.364406158     5.639063415    45.318075948   0   0   0 # h*
   3205      1   1 -0.820000    15.818978460    15.555805912    37.178065636   0   0   0 # o*
   3206      1   2  0.410000    15.114500387    15.958751975    37.748013635   0   0   0 # h*
   3207      1   2  0.410000    15.234130122    14.984601145    36.569833259   0   0   0 # h*
   3208      1   1 -0.820000    21.385073831     6.405306768    47.201206574   0   0   0 # o*
   3209      1   2  0.410000    20.569056708     6.911333444    46.951550611   0   0   0 # h*
   3210      1   2  0.410000    20.983832705     5.566105182    47.509525311   0   0   0 # h*
   3211      1   1 -0.820000    17.679701480    19.346235000    33.526087551   0   0   0 # o*
   3212      1   2  0.410000    18.500269194    19.128593352    33.082241892   0   0   0 # h*
   3213      1   2  0.410000    17.785025390    20.313948168    33.498603809   0   0   0 # h*
   3214      1   1 -0.820000    16.777445346    13.807554096    57.336308076   0   0   0 # o*
   3215      1   2  0.410000    17.034496129    12.974066902    57.833865538   0   0   0 # h*
   3216      1   2  0.410000    16.157627381    13.508928202    56.645002395   0   0   0 # h*
   3217      1   1 -0.820000     9.481043375    19.797596756    63.296493402   0   0   0 # o*
   3218      1   2  0.410000    10.021398138    20.240957170    63.950217467   0   0   0 # h*
   3219      1   2  0.410000     9.358550622    20.613677732    62.731221114   0   0   0 # h*
   3220      1   1 -0.820000    11.730338794     3.866560020    32.963831128   0   0   0 # o*
   3221      1   2  0.410000    11.572240619     3.555468865    32.068453445   0   0   0 # h*
   3222      1   2  0.410000    12.687247699     3.664656718    33.060607138   0   0   0 # h*
   3223      1   1 -0.820000    14.585907939    12.017953433    29.989622804   0   0   0 # o*
   3224      1   2  0.410000    15.515703553    12.249462280    30.096372118   0   0   0 # h*
   3225      1   2  0.410000    14.303408592    12.651854725    29.288125724   0   0   0 # h*
   3226      1   1 -0.820000     2.726842920     7.365351139    64.318511817   0   0   0 # o*
   3227      1   2  0.410000     3.502867278     7.970973811    64.543933261   0   0   0 # h*
   3228      1   2  0.410000     2.122633853     8.119057618    64.093299116   0   0   0 # h*
   3229      1   1 -0.820000    11.866135000     0.383054739    41.443319240   0   0   0 # o*
   3230      1   2  0.410000    11.761597918     1.098510421    42.115368516   0   0   0 # h*
   3231      1   2  0.410000    11.271585489     0.688584983    40.711273948   0   0   0 # h*
   3232      1   1 -0.820000     7.637469572    10.980675754    39.411178157   0   0   0 # o*
   3233      1   2  0.410000     6.756850724    10.848643393    39.813835731   0   0   0 # h*
   3234      1   2  0.410000     7.367734004    11.199281725    38.459783570   0   0   0 # h*
   3235      1   1 -0.820000    19.384732339    20.235432128    36.176984610   0   0   0 # o*
   3236      1   2  0.410000    20.026423423    20.657082127    35.538522142   0   0   0 # h*
   3237      1   2  0.410000    18.901671764    21.017018804    36.461736578   0   0   0 # h*
   3238      1   1 -0.820000    11.919122885    21.739099931    29.923995664   0   0   0 # o*
   3239      1   2  0.410000    12.766011269    21.845094241    29.432861153   0   0   0 # h*
   3240      1   2  0.410000    12.241031774    21.647866982    30.846585934   0   0   0 # h*
   3241      1   1 -0.820000    15.430334402    14.372049701    43.721526452   0   0   0 # o*
   3242      1   2  0.410000    15.834181878    15.259203328    43.930961578   0   0   0 # h*
   3243      1   2  0.410000    15.837551928    14.222897194    42.829837796   0   0   0 # h*
   3244      1   1 -0.820000     7.955797682     5.114102402    34.499574081   0   0   0 # o*
   3245      1   2  0.410000     8.031979509     6.067854330    34.693353566   0   0   0 # h*
   3246      1   2  0.410000     8.702770001     4.830324412    35.048718824   0   0   0 # h*
   3247      1   1 -0.820000    10.367301488    11.800065257    74.083857952   0   0   0 # o*
   3248      1   2  0.410000    10.717156119    11.021590311    74.615602727   0   0   0 # h*
   3249      1   2  0.410000    11.139569149    12.440773502    74.189199330   0   0   0 # h*
   3250      1   1 -0.820000     0.914885027    18.761797590    47.725392035   0   0   0 # o*
   3251      1   2  0.410000     0.977107815    17.788509741    47.804917371   0   0   0 # h*
   3252      1   2  0.410000     0.133745449    18.890273322    48.331271012   0   0   0 # h*
   3253      1   1 -0.820000     6.217620348     8.713593701    38.047409832   0   0   0 # o*
   3254      1   2  0.410000     6.321243693     9.666369839    37.748588062   0   0   0 # h*
   3255      1   2  0.410000     6.271876664     8.264308044    37.216337772   0   0   0 # h*
   3256      1   1 -0.820000     3.162180107     3.675838547    52.680981015   0   0   0 # o*
   3257      1   2  0.410000     2.427983538     3.263292159    53.203109763   0   0   0 # h*
   3258      1   2  0.410000     3.779137931     2.954199738    52.580081515   0   0   0 # h*
   3259      1   1 -0.820000    15.472039528    16.825357821    57.655058377   0   0   0 # o*
   3260      1   2  0.410000    16.187782223    16.814713152    58.280896235   0   0   0 # h*
   3261      1   2  0.410000    14.695774379    16.634193806    58.274479521   0   0   0 # h*
   3262      1   1 -0.820000    18.724459856    15.906015584    56.755203291   0   0   0 # o*
   3263      1   2  0.410000    18.048221102    15.276585906    56.382008510   0   0   0 # h*
   3264      1   2  0.410000    18.588515286    15.691135354    57.699094848   0   0   0 # h*
   3265      1   1 -0.820000     3.862748557     4.623795606    55.994294073   0   0   0 # o*
   3266      1   2  0.410000     3.818379333     3.931013721    56.735323888   0   0   0 # h*
   3267      1   2  0.410000     3.687416284     5.398200742    56.599347665   0   0   0 # h*
   3268      1   1 -0.820000     7.236355089     9.432944586    42.279519236   0   0   0 # o*
   3269      1   2  0.410000     7.245823520    10.408152559    42.352379248   0   0   0 # h*
   3270      1   2  0.410000     8.178455709     9.241057145    42.005468445   0   0   0 # h*
   3271      1   1 -0.820000    18.148113421    11.702777294    58.438248200   0   0   0 # o*
   3272      1   2  0.410000    18.560242402    11.712672214    57.539283876   0   0   0 # h*
   3273      1   2  0.410000    17.927250732    10.776608522    58.605737313   0   0   0 # h*
   3274      1   1 -0.820000     7.426249573     5.296337304    53.676577463   0   0   0 # o*
   3275      1   2  0.410000     6.500904616     5.435336912    53.961783135   0   0   0 # h*
   3276      1   2  0.410000     7.368153882     5.934581656    52.947214126   0   0   0 # h*
   3277      1   1 -0.820000     4.543186846    15.402852593    65.805534630   0   0   0 # o*
   3278      1   2  0.410000     3.670504700    15.023061998    65.505324154   0   0   0 # h*
   3279      1   2  0.410000     4.582705550    14.849797689    66.610153983   0   0   0 # h*
   3280      1   1 -0.820000     8.144687088     0.378557482    43.163216580   0   1   0 # o*
   3281      1   2  0.410000     8.000677556     0.269310642    42.133678106   0   1   0 # h*
   3282      1   2  0.410000     7.954284635    21.727907597    43.449987370   0   0   0 # h*
   3283      1   1 -0.820000     3.502267140     5.407718637    70.759248348   0   0   0 # o*
   3284      1   2  0.410000     2.910884091     5.049243827    71.472493253   0   0   0 # h*
   3285      1   2  0.410000     4.210074312     5.893101411    71.216965899   0   0   0 # h*
   3286      1   1 -0.820000    15.317143479    15.893965453    37.528628153   0   0   0 # o*
   3287      1   2  0.410000    15.547600754    15.054584943    37.981492823   0   0   0 # h*
   3288      1   2  0.410000    15.165149623    15.582359238    36.554216206   0   0   0 # h*
   3289      1   1 -0.820000    13.818364425    14.707925349    65.497509172   0   0   0 # o*
   3290      1   2  0.410000    14.148193119    13.844835880    65.724862185   0   0   0 # h*
   3291      1   2  0.410000    12.873496601    14.522761503    65.371250888   0   0   0 # h*
   3292      1   1 -0.820000    10.980954996     3.731295869    68.512665427   0   0   0 # o*
   3293      1   2  0.410000    11.364988154     2.942168018    68.140072492   0   0   0 # h*
   3294      1   2  0.410000    10.530291134     3.264651122    69.273094636   0   0   0 # h*
   3295      1   1 -0.820000    20.167708977    19.283347438    56.248982736   0   0   0 # o*
   3296      1   2  0.410000    20.816322872    19.875803941    55.779165358   0   0   0 # h*
   3297      1   2  0.410000    20.157327192    19.564791090    57.196925072   0   0   0 # h*
   3298      1   1 -0.820000    17.127900895    10.767092531    54.848865898   0   0   0 # o*
   3299      1   2  0.410000    16.460897133    11.211774464    55.455242765   0   0   0 # h*
   3300      1   2  0.410000    16.763212342    11.045763964    54.006601160   0   0   0 # h*
   3301      1   1 -0.820000     0.828827074    11.411162326    43.236484584   0   0   0 # o*
   3302      1   2  0.410000     0.041155775    11.954382518    43.020260060   0   0   0 # h*
   3303      1   2  0.410000     0.991791929    11.024155122    42.356171376   0   0   0 # h*
   3304      1   1 -0.820000     7.498680758    10.337343411    36.223510634   0   0   0 # o*
   3305      1   2  0.410000     7.649714644    10.124540764    37.175283670   0   0   0 # h*
   3306      1   2  0.410000     6.954492064    11.123682786    36.387708158   0   0   0 # h*
   3307      1   1 -0.820000    10.977916252     4.666997489    38.876165076   0   0   0 # o*
   3308      1   2  0.410000    10.393999673     4.945111120    38.124511937   0   0   0 # h*
   3309      1   2  0.410000    11.648769603     5.362227509    38.971704816   0   0   0 # h*
   3310      1   1 -0.820000     8.916122874    22.185733651    61.596501164   0   0   0 # o*
   3311      1   2  0.410000     8.844652922     0.025716163    60.607567208   0   1   0 # h*
   3312      1   2  0.410000     9.783840823     0.353922945    61.726211816   0   1   0 # h*
   3313      1   1 -0.820000     1.561492442     1.723513373    67.664935008   0   0   0 # o*
   3314      1   2  0.410000     1.961817790     0.845735187    67.400728774   0   0   0 # h*
   3315      1   2  0.410000     2.385072614     2.227434242    67.791651108   0   0   0 # h*
   3316      1   1 -0.820000     9.322442695    13.148540507    41.299789568   0   0   0 # o*
   3317      1   2  0.410000     9.058066374    12.596405807    40.526652509   0   0   0 # h*
   3318      1   2  0.410000     9.493346832    14.024428044    40.815736246   0   0   0 # h*
   3319      1   1 -0.820000     4.514712661    19.503576111    34.958292391   0   0   0 # o*
   3320      1   2  0.410000     4.685023287    20.348696181    34.494621153   0   0   0 # h*
   3321      1   2  0.410000     4.096735594    19.819775238    35.774511202   0   0   0 # h*
   3322      1   1 -0.820000    16.076842723     7.871266783    56.696477960   0   0   0 # o*
   3323      1   2  0.410000    15.921679480     7.052290463    56.122110998   0   0   0 # h*
   3324      1   2  0.410000    15.506599791     8.535633649    56.228229422   0   0   0 # h*
   3325      1   1 -0.820000     9.654721446     2.238457980    70.450000303   0   0   0 # o*
   3326      1   2  0.410000     8.796589328     1.746574118    70.284643811   0   0   0 # h*
   3327      1   2  0.410000    10.200976585     1.476557204    70.781882559   0   0   0 # h*
   3328      1   1 -0.820000     2.502788807    12.145942519    69.317685539   0   0   0 # o*
   3329      1   2  0.410000     1.908028372    12.050977988    70.100297880   0   0   0 # h*
   3330      1   2  0.410000     3.054951949    11.333788735    69.354321878   0   0   0 # h*
   3331      1   1 -0.820000    15.420211913    15.381309539    69.420620081   0   0   0 # o*
   3332      1   2  0.410000    15.865579354    15.985027651    70.069443643   0   0   0 # h*
   3333      1   2  0.410000    14.986073819    14.742599085    70.042752398   0   0   0 # h*
   3334      1   1 -0.820000    16.709868206     6.238688924    63.849307038   0   0   0 # o*
   3335      1   2  0.410000    17.075722401     5.783395609    63.051140992   0   0   0 # h*
   3336      1   2  0.410000    15.725147883     6.188944822    63.648673360   0   0   0 # h*
   3337      1   1 -0.820000    13.842074218    20.559420603    48.239267145   0   0   0 # o*
   3338      1   2  0.410000    13.423366727    20.474459738    47.357320970   0   0   0 # h*
   3339      1   2  0.410000    13.180866562    20.096431384    48.796333772   0   0   0 # h*
   3340      1   1 -0.820000     3.456724027     2.892643433    58.236092952   0   0   0 # o*
   3341      1   2  0.410000     3.346226898     2.433745147    59.128602517   0   0   0 # h*
   3342      1   2  0.410000     2.635373604     2.597375066    57.815777792   0   0   0 # h*
   3343      1   1 -0.820000     7.350747488     8.449611132    45.280358697   0   0   0 # o*
   3344      1   2  0.410000     7.405793322     8.361448126    44.306689009   0   0   0 # h*
   3345      1   2  0.410000     7.078685796     9.401580025    45.299831507   0   0   0 # h*
   3346      1   1 -0.820000     1.422252903     9.468707258    41.364050193   0   0   0 # o*
   3347      1   2  0.410000     0.963598782     8.768859652    41.859539063   0   0   0 # h*
   3348      1   2  0.410000     2.264776343     9.460566445    41.913263753   0   0   0 # h*
   3349      1   1 -0.820000    20.410923764    12.564798833    36.145975896   0   0   0 # o*
   3350      1   2  0.410000    19.929014497    11.700386226    36.141226292   0   0   0 # h*
   3351      1   2  0.410000    20.672754142    12.522741645    37.084047143   0   0   0 # h*
   3352      1   1 -0.820000     8.717836711     1.065319941    28.678162833   0   0   0 # o*
   3353      1   2  0.410000     8.372611419     1.848653491    28.130340417   0   0   0 # h*
   3354      1   2  0.410000     9.343901002     1.609820048    29.199316798   0   0   0 # h*
   3355      1   1 -0.820000     5.590910327     7.432555536    40.573109879   0   0   0 # o*
   3356      1   2  0.410000     6.131340553     8.029422073    41.104185344   0   0   0 # h*
   3357      1   2  0.410000     5.855160387     7.810059768    39.704806331   0   0   0 # h*
   3358      1   1 -0.820000    10.687075787     6.501259219    62.844900055   0   0   0 # o*
   3359      1   2  0.410000    11.190274070     6.120153710    63.595191307   0   0   0 # h*
   3360      1   2  0.410000    10.098286473     7.153843639    63.309385703   0   0   0 # h*
   3361      1   1 -0.820000     2.317337110     5.685931728    66.588963697   0   0   0 # o*
   3362      1   2  0.410000     2.608267987     6.381302660    65.908995640   0   0   0 # h*
   3363      1   2  0.410000     1.923004934     5.008602998    66.022442188   0   0   0 # h*
   3364      1   1 -0.820000    16.917682830     5.950856235    42.266595346   0   0   0 # o*
   3365      1   2  0.410000    16.816103866     4.993762496    42.046393333   0   0   0 # h*
   3366      1   2  0.410000    15.975178416     6.177730380    42.377635218   0   0   0 # h*
   3367      1   1 -0.820000     3.347177581     7.810006135    68.506130005   0   0   0 # o*
   3368      1   2  0.410000     2.889672197     7.019290032    68.134056322   0   0   0 # h*
   3369      1   2  0.410000     3.791462146     7.371503610    69.268685642   0   0   0 # h*
   3370      1   1 -0.820000     6.340017465    21.275458546    53.265975332   0   0   0 # o*
   3371      1   2  0.410000     6.173811949    -0.039031876    53.152229339   0   1   0 # h*
   3372      1   2  0.410000     5.958616161    20.874535820    52.442733762   0   0   0 # h*
   3373      1   1 -0.820000    12.691243464     3.123608085    51.714382783   0   0   0 # o*
   3374      1   2  0.410000    13.360161100     3.545845457    52.274779212   0   0   0 # h*
   3375      1   2  0.410000    12.575600567     2.295515815    52.255138045   0   0   0 # h*
   3376      1   1 -0.820000     2.548462933     8.635955298    60.661014939   0   0   0 # o*
   3377      1   2  0.410000     1.858837438     8.147567052    60.113907652   0   0   0 # h*
   3378      1   2  0.410000     3.186302849     7.935372807    60.807085057   0   0   0 # h*
   3379      1   1 -0.820000    18.610352336    16.998292145    53.788909184   0   0   0 # o*
   3380      1   2  0.410000    18.914743739    16.747827990    54.675244561   0   0   0 # h*
   3381      1   2  0.410000    18.866782874    17.985527987    53.669610119   0   0   0 # h*
   3382      1   1 -0.820000     4.242469815    21.822877016    50.829290205   0  -1   0 # o*
   3383      1   2  0.410000     4.717128414     0.201523474    51.378855234   0   0   0 # h*
   3384      1   2  0.410000     4.755779629    21.838858677    49.975082937   0  -1   0 # h*
   3385      1   1 -0.820000    12.788657606     7.039177537    39.098881131   0   0   0 # o*
   3386      1   2  0.410000    12.895789499     8.033344647    38.974200628   0   0   0 # h*
   3387      1   2  0.410000    13.334883584     6.877527977    39.876994775   0   0   0 # h*
   3388      1   1 -0.820000     2.962341786     1.634228464    40.511361357   0   0   0 # o*
   3389      1   2  0.410000     3.069240064     2.211870149    41.302388035   0   0   0 # h*
   3390      1   2  0.410000     3.952894063     1.500819534    40.395356781   0   0   0 # h*
   3391      1   1 -0.820000    22.116982250     8.079324314    53.747435164   0   0   0 # o*
   3392      1   2  0.410000    21.572811694     7.216942323    53.697971480   0   0   0 # h*
   3393      1   2  0.410000    21.495050426     8.585403137    54.297914459   0   0   0 # h*
   3394      1   1 -0.820000    15.325476136     8.298160732    44.066414510   0   0   0 # o*
   3395      1   2  0.410000    15.048354826     9.073261683    43.543231084   0   0   0 # h*
   3396      1   2  0.410000    16.296470297     8.480909604    44.092820514   0   0   0 # h*
   3397      1   1 -0.820000     4.495088834    10.633324701    61.626334604   0   0   0 # o*
   3398      1   2  0.410000     3.881382401    10.071761467    61.062602762   0   0   0 # h*
   3399      1   2  0.410000     3.987098374    10.623783127    62.473501902   0   0   0 # h*
   3400      1   1 -0.820000    17.950300916     3.045541482    44.156170416   0   0   0 # o*
   3401      1   2  0.410000    17.368777960     2.996367747    43.379878885   0   0   0 # h*
   3402      1   2  0.410000    18.146017353     2.114643432    44.214797843   0   0   0 # h*
   3403      1   1 -0.820000    16.193946603     9.692286620    71.802740133   0   0   0 # o*
   3404      1   2  0.410000    15.290534299     9.769696385    72.221720231   0   0   0 # h*
   3405      1   2  0.410000    15.900999112     9.717115441    70.859706581   0   0   0 # h*
   3406      1   1 -0.820000     6.902244457     1.002752761    32.417475738   0   0   0 # o*
   3407      1   2  0.410000     7.068653134     1.921707325    32.202010015   0   0   0 # h*
   3408      1   2  0.410000     7.098228648     1.008572347    33.391974457   0   0   0 # h*
   3409      1   1 -0.820000     9.442450170     3.165952937    53.119582387   0   0   0 # o*
   3410      1   2  0.410000     9.279288561     2.452898643    52.465682381   0   0   0 # h*
   3411      1   2  0.410000     8.588470937     3.698152279    52.994043034   0   0   0 # h*
   3412      1   1 -0.820000     5.694477533    13.443337381    45.281176691   0   0   0 # o*
   3413      1   2  0.410000     4.808250196    13.772193338    45.064972704   0   0   0 # h*
   3414      1   2  0.410000     6.280305870    14.171478782    44.921684760   0   0   0 # h*
   3415      1   1 -0.820000    15.853620276     3.126371639    63.918174362   0   0   0 # o*
   3416      1   2  0.410000    16.792142704     2.928874357    63.665940534   0   0   0 # h*
   3417      1   2  0.410000    15.464681982     3.382890167    63.066808728   0   0   0 # h*
   3418      1   1 -0.820000    17.054947339    11.962351654    69.078675184   0   0   0 # o*
   3419      1   2  0.410000    16.807232947    12.416807605    68.256253575   0   0   0 # h*
   3420      1   2  0.410000    16.255631186    12.157355142    69.575757630   0   0   0 # h*
   3421      1   1 -0.820000     8.893430972    10.303031324    33.974180824   0   0   0 # o*
   3422      1   2  0.410000     9.612326043    10.110051629    33.310489969   0   0   0 # h*
   3423      1   2  0.410000     8.529846464    11.174600117    33.594802847   0   0   0 # h*
   3424      1   1 -0.820000    17.220089911    13.396210055    51.646245137   0   0   0 # o*
   3425      1   2  0.410000    16.269417680    13.177140912    51.431495748   0   0   0 # h*
   3426      1   2  0.410000    17.130155557    13.954170067    52.479373858   0   0   0 # h*
   3427      1   1 -0.820000    19.139207743     7.358374240    62.003963876   0   0   0 # o*
   3428      1   2  0.410000    18.997930601     7.170738220    63.013390818   0   0   0 # h*
   3429      1   2  0.410000    18.866380039     8.307063172    62.042920024   0   0   0 # h*
   3430      1   1 -0.820000     7.280548230    20.347841533    37.159596695   0   0   0 # o*
   3431      1   2  0.410000     7.073739757    21.285262049    36.921586706   0   0   0 # h*
   3432      1   2  0.410000     6.704957753    19.895756013    36.503840642   0   0   0 # h*
   3433      1   1 -0.820000    13.470547918    20.006424715    60.355179498   0   0   0 # o*
   3434      1   2  0.410000    13.878758497    20.165110712    61.235182235   0   0   0 # h*
   3435      1   2  0.410000    14.111527185    19.416873433    59.866525782   0   0   0 # h*
   3436      1   1 -0.820000     8.585283696    13.432398162    60.133270391   0   0   0 # o*
   3437      1   2  0.410000     8.973956008    14.254209598    59.697068457   0   0   0 # h*
   3438      1   2  0.410000     8.035549072    13.929809032    60.802306754   0   0   0 # h*
   3439      1   1 -0.820000    13.476790897     5.260395348    35.170135468   0   0   0 # o*
   3440      1   2  0.410000    13.840773975     5.584129173    34.316399761   0   0   0 # h*
   3441      1   2  0.410000    12.546744705     5.369446029    35.076431992   0   0   0 # h*
   3442      1   1 -0.820000    10.138228497    10.322629596    42.172573384   0   0   0 # o*
   3443      1   2  0.410000     9.887017342    11.267138044    42.451107807   0   0   0 # h*
   3444      1   2  0.410000    10.752453290    10.511317351    41.415722856   0   0   0 # h*
   3445      1   1 -0.820000    22.305264871     5.444848891    43.096173498   0   0   0 # o*
   3446      1   2  0.410000    21.966587407     4.861292757    43.811267010   0   0   0 # h*
   3447      1   2  0.410000    21.935831208     4.943752745    42.323958584   0   0   0 # h*
   3448      1   1 -0.820000     6.071429545    21.481813510    55.804484212   0   0   0 # o*
   3449      1   2  0.410000     5.457975407    20.793892721    55.398554923   0   0   0 # h*
   3450      1   2  0.410000     6.868186568    21.440062834    55.234437596   0   0   0 # h*
   3451      1   1 -0.820000    21.643725988     1.455254157    46.983438417   0   0   0 # o*
   3452      1   2  0.410000    21.511911087     0.620045874    46.515045941   0   0   0 # h*
   3453      1   2  0.410000    -0.046945097     1.256600522    47.418337478   1   0   0 # h*
   3454      1   1 -0.820000     7.197510794    18.806501550    34.541733801   0   0   0 # o*
   3455      1   2  0.410000     7.256787787    18.126896467    35.284266587   0   0   0 # h*
   3456      1   2  0.410000     6.223462150    18.734115626    34.421975735   0   0   0 # h*
   3457      1   1 -0.820000    17.890116913    11.886103570    51.169421585   0   0   0 # o*
   3458      1   2  0.410000    17.003796467    11.732864997    50.753280057   0   0   0 # h*
   3459      1   2  0.410000    18.296217266    11.049814499    51.313802830   0   0   0 # h*
   3460      1   1 -0.820000     8.261779451    19.739417699    43.673643822   0   0   0 # o*
   3461      1   2  0.410000     7.916601743    18.979366469    44.249934913   0   0   0 # h*
   3462      1   2  0.410000     8.945187291    19.268726301    43.117724157   0   0   0 # h*
   3463      1   1 -0.820000    14.614666931    14.004554172    69.650454987   0   0   0 # o*
   3464      1   2  0.410000    14.883948109    14.758480737    70.239692023   0   0   0 # h*
   3465      1   2  0.410000    14.705748027    13.177447407    70.201939781   0   0   0 # h*
   3466      1   1 -0.820000     1.119679586    19.236616064    38.266175517   0   0   0 # o*
   3467      1   2  0.410000     1.490015878    19.219884792    39.132784785   0   0   0 # h*
   3468      1   2  0.410000     0.341069677    18.687992517    38.390217008   0   0   0 # h*
   3469      1   1 -0.820000     1.185417312     4.678020962    29.125751420   0   0   0 # o*
   3470      1   2  0.410000     0.450038492     5.293474090    29.456126138   0   0   0 # h*
   3471      1   2  0.410000     0.987924387     3.967581302    29.768358399   0   0   0 # h*
   3472      1   1 -0.820000    12.598832900    13.565365722    42.718871247   0   0   0 # o*
   3473      1   2  0.410000    13.055865643    13.488912735    43.605963561   0   0   0 # h*
   3474      1   2  0.410000    11.700166118    13.572403596    43.118203717   0   0   0 # h*
   3475      1   1 -0.820000    21.846361025     3.944539535    33.259182691   0   0   0 # o*
   3476      1   2  0.410000    21.132642855     3.998824028    32.614851515   0   0   0 # h*
   3477      1   2  0.410000     0.131122490     3.901338248    32.692276663   1   0   0 # h*
   3478      1   1 -0.820000     0.338386758     6.444058950    68.271507152   0   0   0 # o*
   3479      1   2  0.410000    22.129523044     6.769396591    67.683455374  -1   0   0 # h*
   3480      1   2  0.410000     0.738903053     5.795357475    67.690304481   0   0   0 # h*
   3481      1   1 -0.820000     2.607252563    20.446798516    42.614848696   0   0   0 # o*
   3482      1   2  0.410000     2.507701042    19.805296249    43.354449042   0   0   0 # h*
   3483      1   2  0.410000     2.965272465    21.275078172    43.082990559   0   0   0 # h*
   3484      1   1 -0.820000     3.267633609    21.075274513    57.407090745   0   0   0 # o*
   3485      1   2  0.410000     3.742793464    20.610401367    58.123808326   0   0   0 # h*
   3486      1   2  0.410000     3.461597002    20.564011827    56.575034633   0   0   0 # h*
   3487      1   1 -0.820000     4.939884709    11.115244018    52.583158784   0   0   0 # o*
   3488      1   2  0.410000     5.655358930    11.468932663    53.155620659   0   0   0 # h*
   3489      1   2  0.410000     5.259543981    10.170543562    52.478039013   0   0   0 # h*
   3490      1   1 -0.820000     7.059728628    17.912033714    40.965851352   0   0   0 # o*
   3491      1   2  0.410000     6.653316464    17.702072834    41.805567178   0   0   0 # h*
   3492      1   2  0.410000     8.056749645    17.944497606    41.248133467   0   0   0 # h*
   3493      1   1 -0.820000    16.856092333     3.625078635    69.346877119   0   0   0 # o*
   3494      1   2  0.410000    16.040443998     3.219116584    69.682062594   0   0   0 # h*
   3495      1   2  0.410000    17.463769280     3.454227433    70.040188280   0   0   0 # h*
   3496      1   1 -0.820000     8.572801179    17.510831094    51.134948989   0   0   0 # o*
   3497      1   2  0.410000     8.582884363    17.913783492    52.022936287   0   0   0 # h*
   3498      1   2  0.410000     8.477345432    16.552053079    51.461078530   0   0   0 # h*
   3499      1   1 -0.820000     4.603077855    13.897457894    68.447423588   0   0   0 # o*
   3500      1   2  0.410000     3.760191908    13.507325083    68.846006685   0   0   0 # h*
   3501      1   2  0.410000     5.144813544    14.082634022    69.246580374   0   0   0 # h*
   3502      1   1 -0.820000     0.251347848    20.024932272    30.352299076   1   0   0 # o*
   3503      1   2  0.410000    22.156557544    20.437421682    29.707277000   0   0   0 # h*
   3504      1   2  0.410000     0.021886504    19.075537487    30.316804776   1   0   0 # h*
   3505      1   1 -0.820000     5.379069837     7.037347014    60.494316798   0   0   0 # o*
   3506      1   2  0.410000     5.424737754     7.933704033    60.014484016   0   0   0 # h*
   3507      1   2  0.410000     5.991899639     6.571447159    59.842722570   0   0   0 # h*
   3508      1   1 -0.820000     4.371335397     6.644316675    50.145505492   0   0   0 # o*
   3509      1   2  0.410000     4.273080633     7.498227985    49.657322144   0   0   0 # h*
   3510      1   2  0.410000     3.446836207     6.518714528    50.432782685   0   0   0 # h*
   3511      1   1 -0.820000    12.060271652    13.984998938    61.382614321   0   0   0 # o*
   3512      1   2  0.410000    12.625400015    14.510921594    61.972119769   0   0   0 # h*
   3513      1   2  0.410000    11.213716660    14.187624272    61.852276706   0   0   0 # h*
   3514      1   1 -0.820000    13.935132703    17.202053660    53.298417679   0   0   0 # o*
   3515      1   2  0.410000    14.107922745    16.403031885    52.741226028   0   0   0 # h*
   3516      1   2  0.410000    13.414118448    16.772107874    54.016484785   0   0   0 # h*
   3517      1   1 -0.820000     9.894047133     9.400344478    58.319335855   0   0   0 # o*
   3518      1   2  0.410000    10.279478713    10.133468225    58.772976493   0   0   0 # h*
   3519      1   2  0.410000     9.311803803     9.012945526    58.993324388   0   0   0 # h*
   3520      1   1 -0.820000     6.984717769     4.084745456    65.649565235   0   0   0 # o*
   3521      1   2  0.410000     6.679891824     3.285562470    65.189061695   0   0   0 # h*
   3522      1   2  0.410000     7.905848474     3.754021569    65.874371298   0   0   0 # h*
   3523      1   1 -0.820000     0.235711522    15.781683002    47.241061620   1   0   0 # o*
   3524      1   2  0.410000    -0.070872236    15.024720387    46.664162614   1   0   0 # h*
   3525      1   2  0.410000    21.961807109    16.327968309    47.154594206   0   0   0 # h*
   3526      1   1 -0.820000    18.085575844     7.542755441    70.930231490   0   0   0 # o*
   3527      1   2  0.410000    17.354255823     7.654585454    71.541811740   0   0   0 # h*
   3528      1   2  0.410000    18.003166659     8.315267516    70.281671961   0   0   0 # h*
   3529      1   1 -0.820000    13.108694451     7.491722021    51.482690930   0   0   0 # o*
   3530      1   2  0.410000    12.342803921     6.962662068    51.763356789   0   0   0 # h*
   3531      1   2  0.410000    13.736800732     7.292664395    52.193931074   0   0   0 # h*
   3532      1   1 -0.820000     7.877379077     0.965750479    58.440036802   0   0   0 # o*
   3533      1   2  0.410000     7.279600019     1.725131556    58.465150561   0   0   0 # h*
   3534      1   2  0.410000     7.423530793     0.356170241    59.060905950   0   0   0 # h*
   3535      1   1 -0.820000    15.730991761     8.212907783    53.152696560   0   0   0 # o*
   3536      1   2  0.410000    16.324314326     7.491438806    52.871642490   0   0   0 # h*
   3537      1   2  0.410000    16.408795985     8.749535524    53.652503447   0   0   0 # h*
   3538      1   1 -0.820000    12.345365197     0.822600523    49.743764948   0   0   0 # o*
   3539      1   2  0.410000    11.948871335     0.207930520    50.444325747   0   0   0 # h*
   3540      1   2  0.410000    12.163807163     1.731825505    50.129279329   0   0   0 # h*
   3541      1   1 -0.820000     8.036867118     9.249946105    67.094699151   0   0   0 # o*
   3542      1   2  0.410000     8.074051534     8.375407540    67.618460753   0   0   0 # h*
   3543      1   2  0.410000     8.353307489     9.868727223    67.784183374   0   0   0 # h*
   3544      1   1 -0.820000    12.661676095    17.505728778    47.075156146   0   0   0 # o*
   3545      1   2  0.410000    12.932794443    17.612746255    48.025257754   0   0   0 # h*
   3546      1   2  0.410000    11.756307380    17.809649057    47.166730622   0   0   0 # h*
   3547      1   1 -0.820000     1.999007863    13.233387045    61.771135308   0   0   0 # o*
   3548      1   2  0.410000     1.674688697    12.698286017    61.007379410   0   0   0 # h*
   3549      1   2  0.410000     1.805486928    14.131263285    61.471149387   0   0   0 # h*
   3550      1   1 -0.820000     5.558884663    13.657526104    51.136664141   0   0   0 # o*
   3551      1   2  0.410000     5.334723911    12.756264906    51.433731231   0   0   0 # h*
   3552      1   2  0.410000     5.528982970    13.496157069    50.151583577   0   0   0 # h*
   3553      1   1 -0.820000    14.293298447    20.503389200    63.219226124   0   0   0 # o*
   3554      1   2  0.410000    14.816905677    20.034040230    63.946457475   0   0   0 # h*
   3555      1   2  0.410000    13.474527923    19.901295075    63.305542088   0   0   0 # h*
   3556      1   1 -0.820000     3.078105511     5.946962590    39.766432188   0   0   0 # o*
   3557      1   2  0.410000     3.964320370     6.264145964    39.967961926   0   0   0 # h*
   3558      1   2  0.410000     2.712474291     6.731544533    39.356919996   0   0   0 # h*
   3559      1   1 -0.820000    16.749545360     5.397794598    55.314816547   0   0   0 # o*
   3560      1   2  0.410000    16.049867891     4.780393533    54.988414690   0   0   0 # h*
   3561      1   2  0.410000    17.140865523     4.947057573    56.116467922   0   0   0 # h*
   3562      1   1 -0.820000    12.051145838     9.203697516    68.678010666   0   0   0 # o*
   3563      1   2  0.410000    12.202880962     8.235703635    68.589509361   0   0   0 # h*
   3564      1   2  0.410000    11.485324800     9.122144670    69.472683595   0   0   0 # h*
   3565      1   1 -0.820000     9.042508272     5.791800110    60.760128210   0   0   0 # o*
   3566      1   2  0.410000     8.171180930     5.728712424    61.190539019   0   0   0 # h*
   3567      1   2  0.410000     9.606389954     6.146281557    61.502552431   0   0   0 # h*
   3568      1   1 -0.820000     4.447023580    10.573712229    34.696485197   0   0   0 # o*
   3569      1   2  0.410000     4.912222196     9.747514962    34.803116342   0   0   0 # h*
   3570      1   2  0.410000     3.504862440    10.289520289    34.647332030   0   0   0 # h*
   3571      1   1 -0.820000    19.788889817    11.402355356    44.469772588   0   0   0 # o*
   3572      1   2  0.410000    19.336078058    11.432261608    45.335132392   0   0   0 # h*
   3573      1   2  0.410000    19.777909071    12.381054529    44.278732544   0   0   0 # h*
   3574      1   1 -0.820000    13.964718504     5.860026973    58.651594398   0   0   0 # o*
   3575      1   2  0.410000    12.984328303     5.673069663    58.668994909   0   0   0 # h*
   3576      1   2  0.410000    14.021576786     6.261957376    57.738791629   0   0   0 # h*
   3577      1   1 -0.820000     6.424939879    10.428068006    31.635532509   0   0   0 # o*
   3578      1   2  0.410000     6.677777030    11.176738273    32.264584433   0   0   0 # h*
   3579      1   2  0.410000     7.200517891    10.433930643    31.051515063   0   0   0 # h*
   3580      1   1 -0.820000    11.188410212     5.766566390    53.543154711   0   0   0 # o*
   3581      1   2  0.410000    10.510327241     6.095373578    54.208103411   0   0   0 # h*
   3582      1   2  0.410000    11.188868777     4.827550368    53.635935473   0   0   0 # h*
   3583      1   1 -0.820000     9.789381740    14.182641882    63.256690388   0   0   0 # o*
   3584      1   2  0.410000    10.147157232    14.503532951    64.139280780   0   0   0 # h*
   3585      1   2  0.410000     9.055770292    14.813022135    63.087223918   0   0   0 # h*
   3586      1   1 -0.820000    15.693212458    21.999904822    46.596446930   0   0   0 # o*
   3587      1   2  0.410000    15.026967605    21.617141288    47.219889556   0   0   0 # h*
   3588      1   2  0.410000    16.387093298    -0.034640489    47.215643676   0   1   0 # h*
   3589      1   1 -0.820000     9.096826860     7.817296717    58.224237272   0   0   0 # o*
   3590      1   2  0.410000     8.880385400     8.771528103    58.045483408   0   0   0 # h*
   3591      1   2  0.410000     9.483569109     7.979098254    59.106702150   0   0   0 # h*
   3592      1   1 -0.820000    11.266397459     8.236466419    71.487786884   0   0   0 # o*
   3593      1   2  0.410000    10.335957658     8.380852566    71.628855716   0   0   0 # h*
   3594      1   2  0.410000    11.490171415     7.887817720    72.398709854   0   0   0 # h*
   3595      1   1 -0.820000    18.250353580     3.979686281    72.190065362   0   0   0 # o*
   3596      1   2  0.410000    17.680128640     4.679307538    72.536127823   0   0   0 # h*
   3597      1   2  0.410000    19.144000060     4.407442218    72.110936086   0   0   0 # h*
   3598      1   1 -0.820000    18.990360506     5.691947796    34.444367166   0   0   0 # o*
   3599      1   2  0.410000    19.152504129     4.919320395    33.873504295   0   0   0 # h*
   3600      1   2  0.410000    19.512129564     5.451736322    35.269338867   0   0   0 # h*
   3601      1   1 -0.820000    18.546176399     2.109074840    29.712132002   0   0   0 # o*
   3602      1   2  0.410000    18.085660046     1.658531574    28.986367100   0   0   0 # h*
   3603      1   2  0.410000    18.345036564     1.403888103    30.366849352   0   0   0 # h*
   3604      1   1 -0.820000    21.968155487     9.392643213    61.799502003   0   0   0 # o*
   3605      1   2  0.410000     0.050640107    10.187983707    61.836627202   1   0   0 # h*
   3606      1   2  0.410000    21.547770713     9.630054005    60.898825003   0   0   0 # h*
   3607      1   1 -0.820000    17.994168764     3.536981954    52.642815381   0   0   0 # o*
   3608      1   2  0.410000    18.654335439     3.590255687    53.403695621   0   0   0 # h*
   3609      1   2  0.410000    17.469523874     2.783024884    52.967981427   0   0   0 # h*
   3610      1   1 -0.820000    14.803584628     8.279762983    29.863494554   0   0   0 # o*
   3611      1   2  0.410000    15.577373471     8.976399905    29.909570112   0   0   0 # h*
   3612      1   2  0.410000    14.600882440     8.315382272    30.817442466   0   0   0 # h*
   3613      1   1 -0.820000     1.860866940    17.547261473    59.418813073   0   0   0 # o*
   3614      1   2  0.410000     2.752708853    17.763513932    59.147764147   0   0   0 # h*
   3615      1   2  0.410000     1.400907337    18.320872880    59.050800556   0   0   0 # h*
   3616      1   1 -0.820000    14.800110323    14.977483817    51.523145674   0   0   0 # o*
   3617      1   2  0.410000    14.854856767    14.666853200    50.546751863   0   0   0 # h*
   3618      1   2  0.410000    15.748851068    15.194233153    51.691801876   0   0   0 # h*
   3619      1   1 -0.820000    18.418330129     9.764710422    36.370765679   0   0   0 # o*
   3620      1   2  0.410000    18.902471515     8.912294464    36.580864060   0   0   0 # h*
   3621      1   2  0.410000    19.189720117    10.305089947    36.216742911   0   0   0 # h*
   3622      1   1 -0.820000     3.287780677    14.607478839    71.756224536   0   0   0 # o*
   3623      1   2  0.410000     2.768211564    13.993040623    72.336071235   0   0   0 # h*
   3624      1   2  0.410000     3.977279634    14.847577620    72.444755420   0   0   0 # h*
   3625      1   1 -0.820000    11.289384296     8.294831798    33.095177800   0   0   0 # o*
   3626      1   2  0.410000    10.873299729     8.299334275    33.932602207   0   0   0 # h*
   3627      1   2  0.410000    10.725027996     7.552657337    32.676444133   0   0   0 # h*
   3628      1   1 -0.820000     2.124004704     5.348814288    70.434810596   0   0   0 # o*
   3629      1   2  0.410000     2.323371007     5.977736115    71.160497227   0   0   0 # h*
   3630      1   2  0.410000     1.272063084     5.686507790    70.121426076   0   0   0 # h*
   3631      1   1 -0.820000    19.770665009    14.997071928    34.463187891   0   0   0 # o*
   3632      1   2  0.410000    19.400471233    15.691232763    34.999632626   0   0   0 # h*
   3633      1   2  0.410000    19.895376281    14.229414788    35.067926185   0   0   0 # h*
   3634      1   1 -0.820000     0.968293784     0.744170112    32.980474643   0   0   0 # o*
   3635      1   2  0.410000     0.602305246    22.120140972    33.155900781   0  -1   0 # h*
   3636      1   2  0.410000     1.895752818     0.491133110    32.674749423   0   0   0 # h*
   3637      1   1 -0.820000    13.527616787    17.015930191    59.875057561   0   0   0 # o*
   3638      1   2  0.410000    14.154160961    16.886705712    60.653677932   0   0   0 # h*
   3639      1   2  0.410000    12.748626115    17.256782836    60.395088004   0   0   0 # h*
   3640      1   1 -0.820000     1.837201989     5.887264530    50.886012538   0   0   0 # o*
   3641      1   2  0.410000     1.610474663     5.661225404    49.943163848   0   0   0 # h*
   3642      1   2  0.410000     1.999818344     5.016255916    51.273917487   0   0   0 # h*
   3643      1   1 -0.820000     6.251993119     3.252976446    58.759825732   0   0   0 # o*
   3644      1   2  0.410000     5.272984491     3.206146464    58.710239038   0   0   0 # h*
   3645      1   2  0.410000     6.387647653     4.144622483    58.399765880   0   0   0 # h*
   3646      1   1 -0.820000     6.387704201    14.021787363    70.700093272   0   0   0 # o*
   3647      1   2  0.410000     6.216878703    14.259820451    71.662611351   0   0   0 # h*
   3648      1   2  0.410000     6.605569042    13.059000576    70.812328419   0   0   0 # h*
   3649      1   1 -0.820000     1.345726883     9.397719399    69.569874681   0   0   0 # o*
   3650      1   2  0.410000     1.829812439     8.880835963    68.923993556   0   0   0 # h*
   3651      1   2  0.410000     1.672371393     9.064494430    70.439774179   0   0   0 # h*
   3652      1   1 -0.820000    16.100566404    17.524677077    40.712599783   0   0   0 # o*
   3653      1   2  0.410000    15.572991016    18.059331255    41.319022142   0   0   0 # h*
   3654      1   2  0.410000    15.616472529    16.651619500    40.780957689   0   0   0 # h*
   3655      1   1 -0.820000     4.671421537    22.061080008    39.267214210   0   0   0 # o*
   3656      1   2  0.410000     5.209515827     0.338319140    38.682497718   0   1   0 # h*
   3657      1   2  0.410000     3.861978374     0.352908411    39.263043746   0   1   0 # h*
   3658      1   1 -0.820000    22.012343018    18.717666670    63.522666359   0   0   0 # o*
   3659      1   2  0.410000     0.173228831    19.426058732    63.675506043   1   0   0 # h*
   3660      1   2  0.410000     0.002906031    18.246384637    62.859996637   1   0   0 # h*
   3661      1   1 -0.820000    14.480587874     7.078670279    70.672109439   0   0   0 # o*
   3662      1   2  0.410000    15.022062202     6.682056165    69.985370237   0   0   0 # h*
   3663      1   2  0.410000    14.256867203     7.933122870    70.272901731   0   0   0 # h*
   3664      1   1 -0.820000     9.388257644    19.919764525    36.776438325   0   0   0 # o*
   3665      1   2  0.410000     9.188188359    20.786278815    36.394882505   0   0   0 # h*
   3666      1   2  0.410000     8.585004712    19.439898001    36.586910134   0   0   0 # h*
   3667      1   1 -0.820000     8.863970069    13.035290721    35.960325247   0   0   0 # o*
   3668      1   2  0.410000     9.414431543    12.732243859    35.217840608   0   0   0 # h*
   3669      1   2  0.410000     8.510061915    13.872058481    35.616923368   0   0   0 # h*
   3670      1   1 -0.820000     9.958057939     9.463770995    54.817565916   0   0   0 # o*
   3671      1   2  0.410000    10.803547443    10.020566615    54.807322834   0   0   0 # h*
   3672      1   2  0.410000     9.426750819    10.011606762    55.454694116   0   0   0 # h*
   3673      1   1 -0.820000     8.960591491    18.406000588    46.073721665   0   0   0 # o*
   3674      1   2  0.410000     9.622677592    17.778050189    45.694477841   0   0   0 # h*
   3675      1   2  0.410000     9.070733027    18.204203625    47.027350957   0   0   0 # h*
   3676      1   1 -0.820000     8.719156313     8.495013352    64.038049452   0   0   0 # o*
   3677      1   2  0.410000     8.596343273     9.029552730    64.865282192   0   0   0 # h*
   3678      1   2  0.410000     7.797864879     8.539248826    63.655357370   0   0   0 # h*
   3679      1   1 -0.820000     2.434772645    12.553395892    49.437229103   0   0   0 # o*
   3680      1   2  0.410000     2.093479650    12.749040260    50.336799732   0   0   0 # h*
   3681      1   2  0.410000     2.282573642    13.397123564    48.949638792   0   0   0 # h*
   3682      1   1 -0.820000     8.861487861    16.050589864    71.542858977   0   0   0 # o*
   3683      1   2  0.410000     7.923442037    16.284058296    71.410160442   0   0   0 # h*
   3684      1   2  0.410000     9.374123519    16.869902307    71.665728768   0   0   0 # h*
   3685      1   1 -0.820000    10.746682485    13.444877178    33.844987068   0   0   0 # o*
   3686      1   2  0.410000    11.178000580    12.948805811    33.167724582   0   0   0 # h*
   3687      1   2  0.410000    10.134641482    14.020604763    33.353324911   0   0   0 # h*
   3688      1   1 -0.820000    11.994901894    10.089070870    29.974066704   0   0   0 # o*
   3689      1   2  0.410000    12.675705186    10.519041872    29.399700632   0   0   0 # h*
   3690      1   2  0.410000    12.263447701     9.133562760    29.805119651   0   0   0 # h*
   3691      1   1 -0.820000    21.278805585    14.484277995    40.917668501   0   0   0 # o*
   3692      1   2  0.410000    20.869193483    14.835405512    40.105683040   0   0   0 # h*
   3693      1   2  0.410000    21.445529482    15.293912135    41.445285848   0   0   0 # h*
   3694      1   1 -0.820000    13.898662192     3.357946595    38.497930995   0   0   0 # o*
   3695      1   2  0.410000    13.724405280     3.462628275    39.474706844   0   0   0 # h*
   3696      1   2  0.410000    14.877137001     3.610319809    38.409340756   0   0   0 # h*
   3697      1   1 -0.820000    20.033415847     3.659986286    47.507633439   0   0   0 # o*
   3698      1   2  0.410000    19.021846240     3.391302588    47.509599262   0   0   0 # h*
   3699      1   2  0.410000    20.442718641     2.746147209    47.449562005   0   0   0 # h*
   3700      1   1 -0.820000    17.405898997    18.608476627    63.176962438   0   0   0 # o*
   3701      1   2  0.410000    18.190659132    18.033319213    63.347533331   0   0   0 # h*
   3702      1   2  0.410000    17.824790049    19.445612055    63.543887038   0   0   0 # h*
   3703      1   1 -0.820000     5.249796670    13.881902179    38.455213737   0   0   0 # o*
   3704      1   2  0.410000     4.997996399    13.481944917    39.314856623   0   0   0 # h*
   3705      1   2  0.410000     5.899492058    14.575863749    38.741813442   0   0   0 # h*
   3706      1   1 -0.820000    21.401307698    17.050652730    56.306931786   0   0   0 # o*
   3707      1   2  0.410000    20.962994827    17.903553303    56.154452167   0   0   0 # h*
   3708      1   2  0.410000    20.617399345    16.460726071    56.471936678   0   0   0 # h*
   3709      1   1 -0.820000    17.673346772    14.408613178    32.643807679   0   0   0 # o*
   3710      1   2  0.410000    17.453504890    15.260673253    32.217730463   0   0   0 # h*
   3711      1   2  0.410000    18.285844475    14.735347620    33.298835294   0   0   0 # h*
   3712      1   1 -0.820000    11.211729641    11.712667126    32.917114301   0   0   0 # o*
   3713      1   2  0.410000    10.546038411    10.985572673    33.234817810   0   0   0 # h*
   3714      1   2  0.410000    10.600023965    12.271680588    32.452380283   0   0   0 # h*
   3715      1   1 -0.820000    13.103093254     0.603357060    53.208669233   0   0   0 # o*
   3716      1   2  0.410000    13.597301242     0.481811585    52.358432826   0   0   0 # h*
   3717      1   2  0.410000    12.637714038    22.043504072    53.325634293   0  -1   0 # h*
   3718      1   1 -0.820000    19.068823849    11.962219850    40.708577936   0   0   0 # o*
   3719      1   2  0.410000    19.233075291    11.013168331    40.823931399   0   0   0 # h*
   3720      1   2  0.410000    19.799722582    12.131834601    40.125339650   0   0   0 # h*
   3721      1   1 -0.820000    16.924771156    16.592173820    44.100648000   0   0   0 # o*
   3722      1   2  0.410000    17.216631591    17.145656338    44.826440257   0   0   0 # h*
   3723      1   2  0.410000    16.885839419    17.316308601    43.426135531   0   0   0 # h*
   3724      1   1 -0.820000    21.440717042     2.181163035    56.852396229   0   0   0 # o*
   3725      1   2  0.410000    21.705088401     2.532147845    57.695863211   0   0   0 # h*
   3726      1   2  0.410000    21.730204522     1.220716722    56.869931886   0   0   0 # h*
   3727      1   1 -0.820000    14.283445220     4.302858816    54.036702778   0   0   0 # o*
   3728      1   2  0.410000    14.011928170     3.514181804    54.560415816   0   0   0 # h*
   3729      1   2  0.410000    13.924224219     5.021197941    54.613770195   0   0   0 # h*
   3730      1   1 -0.820000    20.778995071     3.980647840    63.703886255   0   0   0 # o*
   3731      1   2  0.410000    20.278356243     3.192448899    63.431567315   0   0   0 # h*
   3732      1   2  0.410000    21.567958820     3.575155195    64.072695715   0   0   0 # h*
   3733      1   1 -0.820000    19.762132682     3.509359217    54.925452484   0   0   0 # o*
   3734      1   2  0.410000    20.414380599     2.885861316    55.325827790   0   0   0 # h*
   3735      1   2  0.410000    19.523979734     3.991184704    55.727589722   0   0   0 # h*
   3736      1   1 -0.820000     4.017804969    19.743981369    54.890189206   0   0   0 # o*
   3737      1   2  0.410000     3.362144805    19.545922312    54.163899896   0   0   0 # h*
   3738      1   2  0.410000     4.339324175    18.843716502    55.084454599   0   0   0 # h*
   3739      1   1 -0.820000     8.623533793    19.441265846    59.744386589   0   0   0 # o*
   3740      1   2  0.410000     8.035770207    18.688920360    59.435744282   0   0   0 # h*
   3741      1   2  0.410000     8.146902068    19.808184923    60.473787582   0   0   0 # h*
   3742      1   1 -0.820000    11.366455893    14.953611971    52.909203766   0   0   0 # o*
   3743      1   2  0.410000    11.809269902    14.093641273    53.094427772   0   0   0 # h*
   3744      1   2  0.410000    11.420171626    14.861857675    51.927245913   0   0   0 # h*
   3745      1   1 -0.820000    16.511213524     1.391010689    53.609234399   0   0   0 # o*
   3746      1   2  0.410000    15.650938985     0.986636739    53.339588336   0   0   0 # h*
   3747      1   2  0.410000    17.074372165     1.010163176    52.982499162   0   0   0 # h*
   3748      1   1 -0.820000    13.324273254    17.249546335    74.388842211   0   0   0 # o*
   3749      1   2  0.410000    13.658682274    17.872302771    73.689486756   0   0   0 # h*
   3750      1   2  0.410000    13.531901126    16.402404960    73.967776059   0   0   0 # h*
   3751      1   1 -0.820000     6.053444280    21.902492620    45.416148656   0   0   0 # o*
   3752      1   2  0.410000     6.581174781     0.334376727    45.030685277   0   1   0 # h*
   3753      1   2  0.410000     6.488368138    21.810032900    46.300597516   0   0   0 # h*
   3754      1   1 -0.820000     2.693404193    13.855998596    54.481658514   0   0   0 # o*
   3755      1   2  0.410000     2.585584971    12.971528093    54.089564651   0   0   0 # h*
   3756      1   2  0.410000     1.744724132    14.038008830    54.654814180   0   0   0 # h*
   3757      1   1 -0.820000    18.410260106    19.348280707    72.410870782   0   0   0 # o*
   3758      1   2  0.410000    18.811574725    18.481189505    72.585767328   0   0   0 # h*
   3759      1   2  0.410000    18.805374725    19.548166099    71.578100242   0   0   0 # h*
   3760      1   1 -0.820000     3.855892253     6.081353122    29.198621620   0   0   0 # o*
   3761      1   2  0.410000     2.961440474     5.965013125    28.830439499   0   0   0 # h*
   3762      1   2  0.410000     4.044006237     7.057841244    28.930453360   0   0   0 # h*
   3763      1   1 -0.820000     0.509290800    13.568212146    52.065106693   0   0   0 # o*
   3764      1   2  0.410000     0.197863756    13.493211161    53.007895656   0   0   0 # h*
   3765      1   2  0.410000     0.406632874    12.610118807    51.842750237   0   0   0 # h*
   3766      1   1 -0.820000    20.186466975    15.666289533    49.123534145   0   0   0 # o*
   3767      1   2  0.410000    20.375998228    14.870654656    49.675751059   0   0   0 # h*
   3768      1   2  0.410000    19.700827188    15.177571779    48.363987075   0   0   0 # h*
   3769      1   1 -0.820000     0.443704710     0.413273537    39.854500230   0   0   0 # o*
   3770      1   2  0.410000     1.411940688     0.686693609    39.861224716   0   0   0 # h*
   3771      1   2  0.410000     0.333660933     0.482717305    38.828630126   0   0   0 # h*
   3772      1   1 -0.820000    13.386141827    12.965864324    53.052595607   0   0   0 # o*
   3773      1   2  0.410000    13.910702124    13.727868205    52.620873563   0   0   0 # h*
   3774      1   2  0.410000    14.032998183    12.223134215    52.902225788   0   0   0 # h*
   3775      1   1 -0.820000     7.995478125     3.997732517    48.821822455   0   0   0 # o*
   3776      1   2  0.410000     7.450831381     3.920335686    49.658111862   0   0   0 # h*
   3777      1   2  0.410000     8.239486520     3.045519278    48.766517861   0   0   0 # h*
   3778      1   1 -0.820000     4.748716385     1.788551821    61.173223278   0   0   0 # o*
   3779      1   2  0.410000     5.296931361     1.955656628    61.971006165   0   0   0 # h*
   3780      1   2  0.410000     4.326735066     2.677806088    61.030245615   0   0   0 # h*
   3781      1   1 -0.820000    13.243091096     2.168982161    55.389764917   0   0   0 # o*
   3782      1   2  0.410000    13.153969917     1.565591061    54.589891854   0   0   0 # h*
   3783      1   2  0.410000    12.354156960     1.995962990    55.860136405   0   0   0 # h*
   3784      1   1 -0.820000    12.375164665    11.040376855    35.355281394   0   0   0 # o*
   3785      1   2  0.410000    13.093912353    11.640127521    35.697091698   0   0   0 # h*
   3786      1   2  0.410000    12.130490850    11.502449979    34.555757312   0   0   0 # h*
   3787      1   1 -0.820000     4.556529066     1.979091445    46.618363588   0   0   0 # o*
   3788      1   2  0.410000     4.362783973     2.864648910    46.986770577   0   0   0 # h*
   3789      1   2  0.410000     4.411073024     2.186345788    45.630268628   0   0   0 # h*
   3790      1   1 -0.820000     6.921576818     4.946510642    40.430146509   0   0   0 # o*
   3791      1   2  0.410000     7.750477335     5.374779011    40.185282160   0   0   0 # h*
   3792      1   2  0.410000     6.380198103     5.744374561    40.537162346   0   0   0 # h*
   3793      1   1 -0.820000     0.215425182     6.489075358    37.000077912   0   0   0 # o*
   3794      1   2  0.410000     0.798803495     5.720810745    36.835592976   0   0   0 # h*
   3795      1   2  0.410000     0.682422833     7.134821072    36.429728939   0   0   0 # h*
   3796      1   1 -0.820000     5.737938148    16.485627164    50.066469477   0   0   0 # o*
   3797      1   2  0.410000     6.189513599    15.659789110    50.443103004   0   0   0 # h*
   3798      1   2  0.410000     5.497337707    16.856383541    50.973333097   0   0   0 # h*
   3799      1   1 -0.820000    12.238429826    18.364079732    66.168137874   0   0   0 # o*
   3800      1   2  0.410000    12.142182055    19.323936741    66.475316039   0   0   0 # h*
   3801      1   2  0.410000    12.292621624    18.502026527    65.174194988   0   0   0 # h*
   3802      1   1 -0.820000     0.056538130     9.622757844    45.489847457   1   0   0 # o*
   3803      1   2  0.410000    22.043149956     9.317838174    44.761669119   0   0   0 # h*
   3804      1   2  0.410000    21.903615688     9.655262609    46.265683321   0   0   0 # h*
   3805      1   1 -0.820000     5.086746651     0.089771891    67.604834400   0   1   0 # o*
   3806      1   2  0.410000     6.074292823     0.122687875    67.590784642   0   1   0 # h*
   3807      1   2  0.410000     4.920178265    21.432230963    67.956640535   0   0   0 # h*
   3808      1   1 -0.820000     4.711649531     8.699792699    57.276421987   0   0   0 # o*
   3809      1   2  0.410000     4.937906711     8.148937903    58.068121119   0   0   0 # h*
   3810      1   2  0.410000     4.301486371     7.972204906    56.768821258   0   0   0 # h*
   3811      1   1 -0.820000    13.513267462     6.441274442    42.605271833   0   0   0 # o*
   3812      1   2  0.410000    12.627195315     6.659636211    42.948211573   0   0   0 # h*
   3813      1   2  0.410000    13.902727401     7.271490089    42.898833244   0   0   0 # h*
   3814      1   1 -0.820000    16.543700509     9.177906773    47.539426968   0   0   0 # o*
   3815      1   2  0.410000    16.419329621     8.419909622    48.144842608   0   0   0 # h*
   3816      1   2  0.410000    15.586065885     9.436008075    47.512815737   0   0   0 # h*
   3817      1   1 -0.820000    16.795139862     7.000855195    73.443840202   0   0   0 # o*
   3818      1   2  0.410000    16.078883303     7.525353890    72.972781311   0   0   0 # h*
   3819      1   2  0.410000    16.730251840     7.396576627    74.336776066   0   0   0 # h*
   3820      1   1 -0.820000    11.798448235     8.817096234    46.502057571   0   0   0 # o*
   3821      1   2  0.410000    11.067544125     9.461176974    46.282160010   0   0   0 # h*
   3822      1   2  0.410000    11.453146710     8.410503700    47.369772610   0   0   0 # h*
   3823      1   1 -0.820000     7.137831944    19.106424368    64.968057393   0   0   0 # o*
   3824      1   2  0.410000     6.864795982    20.042484873    64.927158357   0   0   0 # h*
   3825      1   2  0.410000     8.011840931    19.224153340    64.465038490   0   0   0 # h*
   3826      1   1 -0.820000    17.035113488    12.910468281    35.167895441   0   0   0 # o*
   3827      1   2  0.410000    16.807164153    12.051138652    34.754757194   0   0   0 # h*
   3828      1   2  0.410000    16.906918188    13.585643455    34.435956563   0   0   0 # h*
   3829      1   1 -0.820000    22.196054418     1.542452471    62.674676288   0   0   0 # o*
   3830      1   2  0.410000    21.475707196     0.834160830    62.557908427   0   0   0 # h*
   3831      1   2  0.410000     0.070805140     1.178870948    63.472004413   1   0   0 # h*
   3832      1   1 -0.820000    11.838745477     1.833747721    64.117359594   0   0   0 # o*
   3833      1   2  0.410000    11.619731770     0.885097351    63.910193473   0   0   0 # h*
   3834      1   2  0.410000    11.523746153     2.314253413    63.367073323   0   0   0 # h*
   3835      1   1 -0.820000     5.613486854    14.843429866    28.680536193   0   0   0 # o*
   3836      1   2  0.410000     6.354504453    14.908892277    29.335434866   0   0   0 # h*
   3837      1   2  0.410000     4.974912974    15.467189681    29.153799850   0   0   0 # h*
   3838      1   1 -0.820000    18.422273296     9.588014011    68.969222959   0   0   0 # o*
   3839      1   2  0.410000    19.051145850    10.254214633    69.290618237   0   0   0 # h*
   3840      1   2  0.410000    17.739534216    10.235175459    68.638970723   0   0   0 # h*
   3841      1   1 -0.820000    19.979940545     9.927261591    54.729741939   0   0   0 # o*
   3842      1   2  0.410000    19.028932232    10.092237081    54.662147735   0   0   0 # h*
   3843      1   2  0.410000    19.925114503     9.506274566    55.658867935   0   0   0 # h*
   3844      1   1 -0.820000    13.070773818    14.011900459    58.601945598   0   0   0 # o*
   3845      1   2  0.410000    12.847137143    13.947578882    59.553817030   0   0   0 # h*
   3846      1   2  0.410000    14.052437752    14.122411466    58.714436317   0   0   0 # h*
   3847      1   1 -0.820000     9.345633817    13.444068487    55.198462100   0   0   0 # o*
   3848      1   2  0.410000    10.279163626    13.451781295    55.563943061   0   0   0 # h*
   3849      1   2  0.410000     9.502121048    13.412132723    54.229953420   0   0   0 # h*
   3850      1   1 -0.820000    10.872258966     7.360095731    48.641690594   0   0   0 # o*
   3851      1   2  0.410000    11.128495908     6.524545851    49.099633176   0   0   0 # h*
   3852      1   2  0.410000     9.945121406     7.422381956    48.980509816   0   0   0 # h*
   3853      1   1 -0.820000    20.049685018     9.119239997    57.393705948   0   0   0 # o*
   3854      1   2  0.410000    20.461744193     9.784738657    57.996933736   0   0   0 # h*
   3855      1   2  0.410000    19.726146473     8.514008965    58.100880849   0   0   0 # h*
   3856      1   1 -0.820000     7.368938035    15.802867262    30.898202460   0   0   0 # o*
   3857      1   2  0.410000     6.923210162    16.690705300    30.818563957   0   0   0 # h*
   3858      1   2  0.410000     6.950048946    15.492291957    31.698556097   0   0   0 # h*
   3859      1   1 -0.820000     2.528407648     7.805570303    51.263946154   0   0   0 # o*
   3860      1   2  0.410000     2.525308227     8.047536849    52.191405098   0   0   0 # h*
   3861      1   2  0.410000     3.499500281     8.059072302    51.109562346   0   0   0 # h*
   3862      1   1 -0.820000    22.045516083    20.574999769    44.432484256   0   0   0 # o*
   3863      1   2  0.410000    21.874981357    19.622174699    44.449917340   0   0   0 # h*
   3864      1   2  0.410000    21.371386953    20.914447394    43.774868256   0   0   0 # h*
   3865      1   1 -0.820000     5.371472724    21.826639490    66.154629734   0  -1   0 # o*
   3866      1   2  0.410000     6.123291868    21.803110321    66.762832433   0  -1   0 # h*
   3867      1   2  0.410000     4.650584055    22.070179928    66.801702656   0  -1   0 # h*
   3868      1   1 -0.820000    10.380493549    20.979826353    58.252507047   0   0   0 # o*
   3869      1   2  0.410000     9.601511223    21.565358339    58.322395278   0   0   0 # h*
   3870      1   2  0.410000    10.121965756    20.191159879    58.791186057   0   0   0 # h*
   3871      1   1 -0.820000     5.024860469    14.336531212    55.729132913   0   0   0 # o*
   3872      1   2  0.410000     4.098889527    14.165049723    55.386230694   0   0   0 # h*
   3873      1   2  0.410000     4.961985789    13.910585684    56.596801160   0   0   0 # h*
   3874      1   1 -0.820000    11.072560213     5.548821576    34.708658575   0   0   0 # o*
   3875      1   2  0.410000    10.897868589     5.892749585    35.589931910   0   0   0 # h*
   3876      1   2  0.410000    11.743429855     4.871303064    34.880699054   0   0   0 # h*
   3877      1   1 -0.820000     6.230113077     4.988976270    28.626280250   0   0   0 # o*
   3878      1   2  0.410000     5.423158138     5.243737856    29.115807357   0   0   0 # h*
   3879      1   2  0.410000     5.910120246     5.170506988    27.743575305   0   0   0 # h*
   3880      1   1 -0.820000     8.188193252    21.342209646    53.994571937   0   0   0 # o*
   3881      1   2  0.410000     8.662698443    21.738112309    54.751593571   0   0   0 # h*
   3882      1   2  0.410000     8.669865466    21.715886356    53.241070064   0   0   0 # h*
   3883      1   1 -0.820000     2.467397158     9.526777816    49.808004883   0   0   0 # o*
   3884      1   2  0.410000     2.360625264    10.512657224    49.740254347   0   0   0 # h*
   3885      1   2  0.410000     3.301873098     9.348629925    49.307279802   0   0   0 # h*
   3886      1   1 -0.820000    21.315969949     7.919187050    69.956241203   0   0   0 # o*
   3887      1   2  0.410000    21.310330741     8.750125600    70.406362058   0   0   0 # h*
   3888      1   2  0.410000    21.209793199     8.193763432    69.013920785   0   0   0 # h*
   3889      1   1 -0.820000     7.853313086     9.515343195    49.213602211   0   0   0 # o*
   3890      1   2  0.410000     8.318521610     9.432837311    50.044283961   0   0   0 # h*
   3891      1   2  0.410000     7.667677061     8.557838188    48.962667988   0   0   0 # h*
   3892      1   1 -0.820000     1.402920269     3.332682998    34.636056772   0   0   0 # o*
   3893      1   2  0.410000     1.372225165     2.492174584    34.120781760   0   0   0 # h*
   3894      1   2  0.410000     2.090453874     3.026084577    35.224208354   0   0   0 # h*
   3895      1   1 -0.820000     5.610620382    20.924429548    51.943360809   0   0   0 # o*
   3896      1   2  0.410000     5.416334574    19.993995732    51.736508513   0   0   0 # h*
   3897      1   2  0.410000     6.563326122    20.912789793    51.932969283   0   0   0 # h*
   3898      1   1 -0.820000     5.778599899     5.625092299    67.608465661   0   0   0 # o*
   3899      1   2  0.410000     5.677702126     6.473389123    67.114785290   0   0   0 # h*
   3900      1   2  0.410000     6.421635297     5.113650362    67.090360085   0   0   0 # h*
   3901      1   1 -0.820000    19.226041242    16.497291099    41.339404218   0   0   0 # o*
   3902      1   2  0.410000    18.674592566    16.498435357    40.528197854   0   0   0 # h*
   3903      1   2  0.410000    18.649635985    15.899112822    41.839283006   0   0   0 # h*
   3904      1   1 -0.820000    20.655650761     4.014076518    44.853744822   0   0   0 # o*
   3905      1   2  0.410000    20.523422918     4.179327957    45.831726075   0   0   0 # h*
   3906      1   2  0.410000    19.772209584     4.324781041    44.535321826   0   0   0 # h*
   3907      1   1 -0.820000    12.133387284    11.042678682    54.601131586   0   0   0 # o*
   3908      1   2  0.410000    11.947249624    11.668642328    55.317713577   0   0   0 # h*
   3909      1   2  0.410000    12.505778178    11.698465463    53.995891125   0   0   0 # h*
   3910      1   1 -0.820000    -0.011781055    17.525066308    38.232898825   1   0   0 # o*
   3911      1   2  0.410000    21.887190750    16.796899206    38.346352895   0   0   0 # h*
   3912      1   2  0.410000     0.135091598    17.630677440    39.238252637   1   0   0 # h*
   3913      1   1 -0.820000     5.289289890     4.432160871    34.626502315   0   0   0 # o*
   3914      1   2  0.410000     6.131487340     4.939661421    34.402913631   0   0   0 # h*
   3915      1   2  0.410000     4.842208493     4.579717294    33.773443385   0   0   0 # h*
   3916      1   1 -0.820000     4.839866402     1.576280554    34.958739726   0   0   0 # o*
   3917      1   2  0.410000     5.063500057     2.527808934    34.932025405   0   0   0 # h*
   3918      1   2  0.410000     5.747335806     1.242153278    35.118214396   0   0   0 # h*
   3919      1   1 -0.820000    10.765164111    21.923238703    64.823667738   0   0   0 # o*
   3920      1   2  0.410000    10.176293125     0.435705834    64.716741136   0   1   0 # h*
   3921      1   2  0.410000    11.514671583    22.157698335    64.231354711   0   0   0 # h*
   3922      1   1 -0.820000    11.626506337    11.822188727    70.936046917   0   0   0 # o*
   3923      1   2  0.410000    11.670912066    12.295743455    70.081568142   0   0   0 # h*
   3924      1   2  0.410000    10.703841547    11.449701652    70.939206584   0   0   0 # h*
   3925      1   1 -0.820000     8.481386972    17.393793229    53.466292862   0   0   0 # o*
   3926      1   2  0.410000     7.591607242    17.052306698    53.164343473   0   0   0 # h*
   3927      1   2  0.410000     8.434906026    17.130506452    54.378301849   0   0   0 # h*
   3928      1   1 -0.820000    12.373044372    17.432107490    41.012299605   0   0   0 # o*
   3929      1   2  0.410000    12.751406914    18.036495676    40.375723671   0   0   0 # h*
   3930      1   2  0.410000    13.099132766    16.762081283    41.095290542   0   0   0 # h*
   3931      1   1 -0.820000    14.169648608    15.334794118    41.135977569   0   0   0 # o*
   3932      1   2  0.410000    14.364148789    14.842095676    40.297910166   0   0   0 # h*
   3933      1   2  0.410000    13.562071720    14.657634620    41.518404462   0   0   0 # h*
   3934      1   1 -0.820000     0.619360289     3.152427557    45.761033165   0   0   0 # o*
   3935      1   2  0.410000     1.427804223     3.293124055    45.215873156   0   0   0 # h*
   3936      1   2  0.410000     1.104109976     3.011523982    46.616028097   0   0   0 # h*
   3937      1   1 -0.820000     3.600379383    10.908325780    31.040922989   0   0   0 # o*
   3938      1   2  0.410000     4.487043175    11.086368025    31.470554897   0   0   0 # h*
   3939      1   2  0.410000     3.199701917    10.364927149    31.766047776   0   0   0 # h*
   3940      1   1 -0.820000     5.274793433     7.876451149    35.158850736   0   0   0 # o*
   3941      1   2  0.410000     4.432344625     7.521871516    35.496706836   0   0   0 # h*
   3942      1   2  0.410000     5.279174712     7.647172735    34.192039190   0   0   0 # h*
   3943      1   1 -0.820000    21.669811210    17.157694315    70.464849912   0   0   0 # o*
   3944      1   2  0.410000    20.836629032    17.214698161    70.980020098   0   0   0 # h*
   3945      1   2  0.410000    22.234110756    17.817939700    70.921599374   0   0   0 # h*
   3946      1   1 -0.820000    14.236255990    21.580002295    55.454249847   0   0   0 # o*
   3947      1   2  0.410000    14.682531202    22.077644021    54.701028753   0   0   0 # h*
   3948      1   2  0.410000    14.102960038    -0.037816309    56.179511057   0   1   0 # h*
   3949      1   1 -0.820000    10.166771148    17.003587960    34.069245789   0   0   0 # o*
   3950      1   2  0.410000     9.978250411    17.766361532    34.587286589   0   0   0 # h*
   3951      1   2  0.410000    10.702415150    17.376399660    33.336028300   0   0   0 # h*
   3952      1   1 -0.820000    14.912578177     2.102940391    49.521230539   0   0   0 # o*
   3953      1   2  0.410000    14.110186170     1.524313233    49.446460408   0   0   0 # h*
   3954      1   2  0.410000    14.581064225     2.887991908    49.033362949   0   0   0 # h*
   3955      1   1 -0.820000    17.142588217     5.879219657    69.271996303   0   0   0 # o*
   3956      1   2  0.410000    17.037006050     5.158324974    68.612687178   0   0   0 # h*
   3957      1   2  0.410000    18.078927308     5.680123672    69.522102685   0   0   0 # h*
   3958      1   1 -0.820000     1.566294416    19.619875475    29.518808688   0   0   0 # o*
   3959      1   2  0.410000     1.470818248    20.039709792    30.381894822   0   0   0 # h*
   3960      1   2  0.410000     1.956702834    20.404939175    29.033378919   0   0   0 # h*
   3961      1   1 -0.820000    11.136391344    21.605702303    41.110690868   0   0   0 # o*
   3962      1   2  0.410000    10.351204752    22.089719626    41.519375579   0   0   0 # h*
   3963      1   2  0.410000    10.991646589    21.909772733    40.202252991   0   0   0 # h*
   3964      1   1 -0.820000    12.985752981     8.375319567    35.940511767   0   0   0 # o*
   3965      1   2  0.410000    12.752824600     8.623297116    36.859282998   0   0   0 # h*
   3966      1   2  0.410000    13.129248986     9.274517977    35.477467550   0   0   0 # h*
   3967      1   1 -0.820000     1.124558779     2.029574607    56.586724914   0   0   0 # o*
   3968      1   2  0.410000     0.277619745     2.585019483    56.711656311   0   0   0 # h*
   3969      1   2  0.410000     1.131177074     2.069857525    55.581752594   0   0   0 # h*
   3970      1   1 -0.820000    13.963786301     6.432568983    63.004455384   0   0   0 # o*
   3971      1   2  0.410000    13.659989495     6.908244664    63.788155517   0   0   0 # h*
   3972      1   2  0.410000    13.336746855     6.892144550    62.410415489   0   0   0 # h*
   3973      1   1 -0.820000    20.388151710    15.840125261    38.086062079   0   0   0 # o*
   3974      1   2  0.410000    19.665909441    15.153106857    37.943991052   0   0   0 # h*
   3975      1   2  0.410000    19.808987286    16.619908340    38.191115944   0   0   0 # h*
   3976      1   1 -0.820000    18.699023926     0.208404091    44.492423007   0   0   0 # o*
   3977      1   2  0.410000    18.296264158    22.092023520    45.297654107   0  -1   0 # h*
   3978      1   2  0.410000    18.347146717    21.879715177    43.826661663   0  -1   0 # h*
   3979      1   1 -0.820000    21.152313637    12.145946951    33.482588325   0   0   0 # o*
   3980      1   2  0.410000    21.996704061    12.604190145    33.584742020   0   0   0 # h*
   3981      1   2  0.410000    20.808413571    12.323993496    34.373804172   0   0   0 # h*
   3982      1   1 -0.820000    13.463033157     3.944385000    41.370440877   0   0   0 # o*
   3983      1   2  0.410000    13.262484353     3.485433179    42.184797073   0   0   0 # h*
   3984      1   2  0.410000    13.697938789     4.804906447    41.778705545   0   0   0 # h*
   3985      1   1 -0.820000    21.291513489    11.299612269    38.763154717   0   0   0 # o*
   3986      1   2  0.410000    21.325569652    10.322819768    38.917608120   0   0   0 # h*
   3987      1   2  0.410000    22.141776851    11.519197824    39.096474691   0   0   0 # h*
   3988      1   1 -0.820000     6.151069270    17.289543805    43.592518416   0   0   0 # o*
   3989      1   2  0.410000     6.558083014    16.542571769    44.164031396   0   0   0 # h*
   3990      1   2  0.410000     5.959602915    17.927710264    44.303639672   0   0   0 # h*
   3991      1   1 -0.820000     2.319425814    18.535037479    52.672863527   0   0   0 # o*
   3992      1   2  0.410000     2.351040237    17.549526687    52.557621439   0   0   0 # h*
   3993      1   2  0.410000     2.539713108    18.833821823    51.753941619   0   0   0 # h*
   3994      1   1 -0.820000    14.731050989    10.362824114    42.162081492   0   0   0 # o*
   3995      1   2  0.410000    15.089335373     9.592688830    41.645105219   0   0   0 # h*
   3996      1   2  0.410000    14.803714245    11.099141547    41.539119747   0   0   0 # h*
   3997      1   1 -0.820000    10.047474449     9.099013512    61.019719042   0   0   0 # o*
   3998      1   2  0.410000     9.910417297     8.592107022    61.830405599   0   0   0 # h*
   3999      1   2  0.410000     9.239215084     9.618527274    60.987120595   0   0   0 # h*
   4000      1   1 -0.820000    11.954214951    13.379648539    56.106586236   0   0   0 # o*
   4001      1   2  0.410000    12.169184378    13.614637847    57.052384350   0   0   0 # h*
   4002      1   2  0.410000    12.631413230    13.849710360    55.622706358   0   0   0 # h*
   4003      1   1 -0.820000    13.495746288    18.902111289    55.580948310   0   0   0 # o*
   4004      1   2  0.410000    14.039013888    18.428924151    54.936616565   0   0   0 # h*
   4005      1   2  0.410000    13.879004204    19.816830535    55.456315722   0   0   0 # h*
   4006      1   1 -0.820000     7.850034607    10.342005096    73.534903316   0   0   0 # o*
   4007      1   2  0.410000     8.596356290    10.863483161    73.971240050   0   0   0 # h*
   4008      1   2  0.410000     8.266497651    10.355765324    72.660437566   0   0   0 # h*
   4009      1   1 -0.820000     3.829534466    17.002899630    41.459315172   0   0   0 # o*
   4010      1   2  0.410000     3.977023947    16.107566233    41.833475897   0   0   0 # h*
   4011      1   2  0.410000     4.648072562    17.489823101    41.737547962   0   0   0 # h*
   4012      1   1 -0.820000    16.552177902    21.695673370    59.827313403   0   0   0 # o*
   4013      1   2  0.410000    16.080177118    21.165227666    59.149406446   0   0   0 # h*
   4014      1   2  0.410000    15.851860445    -0.006745161    60.125000443   0   1   0 # h*
   4015      1   1 -0.820000     1.359974095    18.944765488    35.399451486   0   0   0 # o*
   4016      1   2  0.410000     1.358027757    18.011110941    35.701203475   0   0   0 # h*
   4017      1   2  0.410000     1.464298577    19.310197903    36.306840646   0   0   0 # h*
   4018      1   1 -0.820000     7.038998757    19.397603991    49.766924942   0   0   0 # o*
   4019      1   2  0.410000     7.350663026    18.591147864    50.208619024   0   0   0 # h*
   4020      1   2  0.410000     7.797210651    20.009130518    49.932360091   0   0   0 # h*
   4021      1   1 -0.820000     4.834304857     2.354688079    70.685045315   0   0   0 # o*
   4022      1   2  0.410000     4.127615784     2.555080283    71.363436384   0   0   0 # h*
   4023      1   2  0.410000     4.307524346     2.599474050    69.875944315   0   0   0 # h*
   4024      1   1 -0.820000    10.667366993    11.463547666    59.120412284   0   0   0 # o*
   4025      1   2  0.410000    10.390288270    10.909891633    59.872177271   0   0   0 # h*
   4026      1   2  0.410000    10.537222788    12.360409102    59.503684634   0   0   0 # h*
   4027      1   1 -0.820000    10.517602028    17.160763600    73.562399123   0   0   0 # o*
   4028      1   2  0.410000    10.419896024    18.164967120    73.576413716   0   0   0 # h*
   4029      1   2  0.410000    10.117403353    16.938882608    74.450787864   0   0   0 # h*
   4030      1   1 -0.820000    11.701997204    17.283295051    56.986416506   0   0   0 # o*
   4031      1   2  0.410000    12.206004304    17.621401681    57.772477053   0   0   0 # h*
   4032      1   2  0.410000    12.304018458    17.748690738    56.307835570   0   0   0 # h*
   4033      1   1 -0.820000    22.153729169     6.539378040    61.933542552   0   0   0 # o*
   4034      1   2  0.410000    21.180412711     6.521317667    62.125045473   0   0   0 # h*
   4035      1   2  0.410000    22.246740915     7.536201072    61.727531619   0   0   0 # h*
   4036      1   1 -0.820000    18.780113209    10.125952937    61.415432524   0   0   0 # o*
   4037      1   2  0.410000    18.010929138    10.556008128    61.891252434   0   0   0 # h*
   4038      1   2  0.410000    18.378397910     9.900996158    60.550480157   0   0   0 # h*
   4039      1   1 -0.820000     1.952555397     5.599868017    33.299357147   0   0   0 # o*
   4040      1   2  0.410000     1.556850881     4.724801917    33.639532519   0   0   0 # h*
   4041      1   2  0.410000     2.751648275     5.230400056    32.815192296   0   0   0 # h*
   4042      1   1 -0.820000    13.040411482     1.183226127    28.881586354   0   0   0 # o*
   4043      1   2  0.410000    12.213143778     1.613567226    29.190765576   0   0   0 # h*
   4044      1   2  0.410000    13.735176243     1.801498571    29.260084488   0   0   0 # h*
   4045      1   1 -0.820000     4.283286525    17.019803156    55.259292543   0   0   0 # o*
   4046      1   2  0.410000     3.304656233    16.797546729    55.236923177   0   0   0 # h*
   4047      1   2  0.410000     4.715624472    16.264020388    55.698855429   0   0   0 # h*
   4048      1   1 -0.820000     1.634675807    11.337588731    66.562712531   0   0   0 # o*
   4049      1   2  0.410000     1.972978847    11.486290718    67.493235176   0   0   0 # h*
   4050      1   2  0.410000     1.006941342    10.600160109    66.606379894   0   0   0 # h*
   4051      1   1 -0.820000    16.425707446    14.832362482    54.225428323   0   0   0 # o*
   4052      1   2  0.410000    17.259717841    14.316361119    54.186996476   0   0   0 # h*
   4053      1   2  0.410000    16.830501978    15.686572203    53.930677727   0   0   0 # h*
   4054      1   1 -0.820000    20.918558723     5.748761937    30.135012532   0   0   0 # o*
   4055      1   2  0.410000    21.132193893     4.808528566    29.837419368   0   0   0 # h*
   4056      1   2  0.410000    20.295420010     5.966901409    29.415913835   0   0   0 # h*
   4057      1   1 -0.820000     3.072730242    11.213116984    58.050511775   0   0   0 # o*
   4058      1   2  0.410000     2.139222201    11.177149421    57.659212894   0   0   0 # h*
   4059      1   2  0.410000     3.521358422    10.832349330    57.274466587   0   0   0 # h*
   4060      1   1 -0.820000    11.882662739     5.564964757    65.318755229   0   0   0 # o*
   4061      1   2  0.410000    12.697492324     4.977251553    65.236885763   0   0   0 # h*
   4062      1   2  0.410000    12.247461660     6.457679142    65.541946145   0   0   0 # h*
   4063      1   1 -0.820000    11.922700718    19.297698491    46.465180671   0   0   0 # o*
   4064      1   2  0.410000    11.814948761    19.524854747    45.535219623   0   0   0 # h*
   4065      1   2  0.410000    11.367077185    20.034719942    46.851755392   0   0   0 # h*
   4066      1   1 -0.820000    16.701890011     3.729283304    38.076630141   0   0   0 # o*
   4067      1   2  0.410000    16.651998852     2.846971503    37.667438780   0   0   0 # h*
   4068      1   2  0.410000    17.586902754     3.614175587    38.485890981   0   0   0 # h*
   4069      1   1 -0.820000    16.111754853    21.106089082    43.858472311   0   0   0 # o*
   4070      1   2  0.410000    15.979039590    21.147967827    44.842161907   0   0   0 # h*
   4071      1   2  0.410000    17.067027873    21.433783331    43.863872619   0   0   0 # h*
   4072      1   1 -0.820000    10.130976997    10.267249981    36.641586252   0   0   0 # o*
   4073      1   2  0.410000    11.032703860    10.480066669    36.337977417   0   0   0 # h*
   4074      1   2  0.410000     9.697287622    10.538863871    35.789704719   0   0   0 # h*
   4075      1   1 -0.820000    14.298932923    21.287042048    44.460677757   0   0   0 # o*
   4076      1   2  0.410000    14.127073363    21.359318691    45.415898413   0   0   0 # h*
   4077      1   2  0.410000    15.276688406    20.992504343    44.424807784   0   0   0 # h*
   4078      1   1 -0.820000     7.549752264     5.845249182    74.001866471   0   0   0 # o*
   4079      1   2  0.410000     7.231492196     6.404293815    74.769974783   0   0   0 # h*
   4080      1   2  0.410000     7.518738087     4.925702939    74.388853996   0   0   0 # h*
   4081      1   1 -0.820000    11.260557395     4.290556962    65.739024927   0   0   0 # o*
   4082      1   2  0.410000    11.923367138     4.090377349    65.079626686   0   0   0 # h*
   4083      1   2  0.410000    11.114030813     3.338142233    66.082530073   0   0   0 # h*
   4084      1   1 -0.820000     6.118874751     8.971825994    62.993695479   0   0   0 # o*
   4085      1   2  0.410000     5.980572477     8.299532262    62.266813615   0   0   0 # h*
   4086      1   2  0.410000     5.864042388     9.733026715    62.405310605   0   0   0 # h*
   4087      1   1 -0.820000     8.061700296     7.102656968    31.242157776   0   0   0 # o*
   4088      1   2  0.410000     7.812772336     6.481448091    30.479481570   0   0   0 # h*
   4089      1   2  0.410000     8.854854535     6.614178927    31.564650132   0   0   0 # h*
   4090      1   1 -0.820000    18.059275553    21.924210477    52.980107499   0   0   0 # o*
   4091      1   2  0.410000    18.418097836    21.222009661    52.397588078   0   0   0 # h*
   4092      1   2  0.410000    17.860087411    21.387879134    53.781846115   0   0   0 # h*
   4093      1   1 -0.820000    15.415700794    10.167434580    66.042816840   0   0   0 # o*
   4094      1   2  0.410000    16.054277742     9.391689940    66.240464136   0   0   0 # h*
   4095      1   2  0.410000    15.986732007    10.958997491    66.031415554   0   0   0 # h*
   4096      1   1 -0.820000    15.954332341    10.596328941    33.822346988   0   0   0 # o*
   4097      1   2  0.410000    15.265323633     9.972883769    33.453568549   0   0   0 # h*
   4098      1   2  0.410000    16.714450423    10.178575705    33.411600596   0   0   0 # h*
   4099      1   1 -0.820000     2.410047586    12.931006899    33.991452253   0   0   0 # o*
   4100      1   2  0.410000     2.988706980    13.325886210    34.643773398   0   0   0 # h*
   4101      1   2  0.410000     2.653345311    11.988142557    34.067834872   0   0   0 # h*
   4102      1   1 -0.820000     9.715806974    17.720203590    38.245677639   0   0   0 # o*
   4103      1   2  0.410000    10.125293299    17.925045962    37.364418354   0   0   0 # h*
   4104      1   2  0.410000     9.277177277    18.571369597    38.487426309   0   0   0 # h*
   4105      1   1 -0.820000     1.012873447    11.698321752    71.714819035   0   0   0 # o*
   4106      1   2  0.410000     0.181334654    11.225038971    72.033080272   0   0   0 # h*
   4107      1   2  0.410000     1.288320997    12.062550940    72.626544231   0   0   0 # h*
   4108      1   1 -0.820000    14.861796313    11.701241379    65.414164759   0   0   0 # o*
   4109      1   2  0.410000    14.404829576    12.166954932    66.145309377   0   0   0 # h*
   4110      1   2  0.410000    15.511223007    12.428501285    65.164651481   0   0   0 # h*
   4111      1   1 -0.820000    15.690879194    17.462280675    61.499563951   0   0   0 # o*
   4112      1   2  0.410000    16.143103262    17.830121279    62.300490533   0   0   0 # h*
   4113      1   2  0.410000    16.423309962    17.415520283    60.844251911   0   0   0 # h*
   4114      1   1 -0.820000    20.993640783    10.821414314    51.972730251   0   0   0 # o*
   4115      1   2  0.410000    21.216216103    10.945216575    52.914255228   0   0   0 # h*
   4116      1   2  0.410000    20.236071290    10.173956796    52.088400401   0   0   0 # h*
   4117      1   1 -0.820000     4.570531122    10.166772545    68.418144822   0   0   0 # o*
   4118      1   2  0.410000     4.065329138     9.389927708    68.149169261   0   0   0 # h*
   4119      1   2  0.410000     4.975174141    10.396226295    67.563995821   0   0   0 # h*
   4120      1   1 -0.820000     8.405177391    18.345060590    68.704294992   0   0   0 # o*
   4121      1   2  0.410000     7.790237341    17.877241735    69.274699732   0   0   0 # h*
   4122      1   2  0.410000     8.141243395    18.137674142    67.801172916   0   0   0 # h*
   4123      1   1 -0.820000     2.337622695    20.961152553    71.211809903   0   0   0 # o*
   4124      1   2  0.410000     3.180296181    21.341536296    71.566251234   0   0   0 # h*
   4125      1   2  0.410000     1.923493314    21.866847975    71.036292907   0   0   0 # h*
   4126      1   1 -0.820000    13.434041074     9.922367371    51.593840365   0   0   0 # o*
   4127      1   2  0.410000    13.007258449     9.040509755    51.725165540   0   0   0 # h*
   4128      1   2  0.410000    12.719428765    10.485072116    51.249350922   0   0   0 # h*
   4129      1   1 -0.820000     3.214197551    15.296539498    49.737502899   0   0   0 # o*
   4130      1   2  0.410000     3.095245034    15.593729462    50.676843704   0   0   0 # h*
   4131      1   2  0.410000     4.159278881    15.634803186    49.662206298   0   0   0 # h*
   4132      1   1 -0.820000     5.858790710     0.238765724    48.616744578   0   0   0 # o*
   4133      1   2  0.410000     5.658229876     0.819005685    47.874208167   0   0   0 # h*
   4134      1   2  0.410000     6.774798555     0.562018270    48.827852670   0   0   0 # h*
   4135      1   1 -0.820000    13.467102531    11.481892115    33.264480283   0   0   0 # o*
   4136      1   2  0.410000    13.901179069    10.885099131    33.936702841   0   0   0 # h*
   4137      1   2  0.410000    12.718002466    11.731600855    33.814267879   0   0   0 # h*
   4138      1   1 -0.820000    17.949973785     1.321280315    40.528373363   0   0   0 # o*
   4139      1   2  0.410000    18.338637313     0.707861502    41.206587838   0   0   0 # h*
   4140      1   2  0.410000    17.348075301     0.706941539    40.082770554   0   0   0 # h*
   4141      1   1 -0.820000    19.614203591    16.808130644    27.620026577   0   0   0 # o*
   4142      1   2  0.410000    20.163958693    16.080447543    27.905821869   0   0   0 # h*
   4143      1   2  0.410000    18.719480120    16.392700968    27.440046753   0   0   0 # h*
   4144      1   1 -0.820000    17.594768226    12.184442298    65.860254351   0   0   0 # o*
   4145      1   2  0.410000    17.350514749    13.098320705    66.163608163   0   0   0 # h*
   4146      1   2  0.410000    18.561305730    12.237329290    66.079674314   0   0   0 # h*
   4147      1   1 -0.820000    14.086786727    14.385098928    73.110333241   0   0   0 # o*
   4148      1   2  0.410000    14.368556104    15.145915759    73.692695544   0   0   0 # h*
   4149      1   2  0.410000    13.613458506    14.921372836    72.440857099   0   0   0 # h*
   4150      1   1 -0.820000    -0.110410772     3.576330157    66.163785058   1   0   0 # o*
   4151      1   2  0.410000    -0.002644454     4.529201462    66.437633449   1   0   0 # h*
   4152      1   2  0.410000    21.555327146     3.374805320    66.596332942   0   0   0 # h*
   4153      1   1 -0.820000    10.025138799    14.960415182    31.146589298   0   0   0 # o*
   4154      1   2  0.410000     9.238081746    15.580096844    31.299850571   0   0   0 # h*
   4155      1   2  0.410000     9.524653473    14.174848597    30.796789780   0   0   0 # h*
   4156      1   1 -0.820000     4.631645185     5.834419262    53.701416209   0   0   0 # o*
   4157      1   2  0.410000     4.235916067     5.505315933    54.559606680   0   0   0 # h*
   4158      1   2  0.410000     4.114687217     5.254191884    53.150005603   0   0   0 # h*
   4159      1   1 -0.820000    14.859630230    18.862648988    42.666304888   0   0   0 # o*
   4160      1   2  0.410000    13.908582143    19.074264722    42.707360984   0   0   0 # h*
   4161      1   2  0.410000    15.313775293    19.686786724    43.021822362   0   0   0 # h*
   4162      1   1 -0.820000    19.150044971     3.425462009    72.670183286   0   0   0 # o*
   4163      1   2  0.410000    19.988312801     2.985033547    72.448730631   0   0   0 # h*
   4164      1   2  0.410000    19.271975624     3.321067702    73.672039830   0   0   0 # h*
   4165      1   1 -0.820000     9.483349282     6.628880279    40.415259238   0   0   0 # o*
   4166      1   2  0.410000     9.790827720     7.464293191    40.096148411   0   0   0 # h*
   4167      1   2  0.410000    10.156852074     6.021913522    40.087376088   0   0   0 # h*
   4168      1   1 -0.820000    21.084348333    18.106938274    43.806205941   0   0   0 # o*
   4169      1   2  0.410000    21.314984700    17.275010123    43.405957296   0   0   0 # h*
   4170      1   2  0.410000    20.701428185    18.610910528    43.009343826   0   0   0 # h*
   4171      1   1 -0.820000     1.880127271     8.340028629    52.364076952   0   0   0 # o*
   4172      1   2  0.410000     1.366441767     7.499861061    52.115741291   0   0   0 # h*
   4173      1   2  0.410000     1.867512235     8.879829940    51.537302608   0   0   0 # h*
   4174      1   1 -0.820000     4.188989517    20.366973828    64.739141832   0   0   0 # o*
   4175      1   2  0.410000     3.786203235    21.100793661    65.206683316   0   0   0 # h*
   4176      1   2  0.410000     5.041203656    20.771182241    64.567612849   0   0   0 # h*
   4177      1   1 -0.820000    17.723448554    17.668491234    46.543916247   0   0   0 # o*
   4178      1   2  0.410000    17.599397829    18.504823637    47.091403640   0   0   0 # h*
   4179      1   2  0.410000    17.513134658    16.918581338    47.076902774   0   0   0 # h*
   4180      1   1 -0.820000    13.807241993    16.759901904    29.561447185   0   0   0 # o*
   4181      1   2  0.410000    12.903415904    17.026116018    29.327389984   0   0   0 # h*
   4182      1   2  0.410000    13.639765136    16.374470489    30.460422675   0   0   0 # h*
   4183      1   1 -0.820000     8.595023613    11.635025673    63.598723451   0   0   0 # o*
   4184      1   2  0.410000     9.022917345    12.475440722    63.286298577   0   0   0 # h*
   4185      1   2  0.410000     7.878646761    12.026897516    64.131803400   0   0   0 # h*
   4186      1   1 -0.820000    15.755128303    21.744217740    36.967784591   0   0   0 # o*
   4187      1   2  0.410000    15.879440167    21.132286889    37.713524233   0   0   0 # h*
   4188      1   2  0.410000    16.681839793    22.030226599    36.903714542   0   0   0 # h*
   4189      1   1 -0.820000     5.857022528    18.215813217    30.523260574   0   0   0 # o*
   4190      1   2  0.410000     5.326423057    18.884209376    30.977635579   0   0   0 # h*
   4191      1   2  0.410000     5.192371724    17.553012344    30.175770472   0   0   0 # h*
   4192      1   1 -0.820000     6.139160325     5.067029936    70.285515855   0   0   0 # o*
   4193      1   2  0.410000     5.805263247     4.141375282    70.236410577   0   0   0 # h*
   4194      1   2  0.410000     6.126657098     5.315947023    69.345426019   0   0   0 # h*
   4195      1   1 -0.820000    17.174034227    10.668503105    38.629064322   0   0   0 # o*
   4196      1   2  0.410000    18.086602797    10.941563679    38.531798050   0   0   0 # h*
   4197      1   2  0.410000    17.029980473    10.216709380    37.744658761   0   0   0 # h*
   4198      1   1 -0.820000    14.465855079    14.732037013    30.779098022   0   0   0 # o*
   4199      1   2  0.410000    14.922538469    15.576004199    30.766855958   0   0   0 # h*
   4200      1   2  0.410000    14.220627159    14.640626985    29.811918554   0   0   0 # h*
   4201      1   1 -0.820000    16.203437827     5.593797150    51.662016805   0   0   0 # o*
   4202      1   2  0.410000    16.936811820     5.079110163    52.025624439   0   0   0 # h*
   4203      1   2  0.410000    15.406603592     5.184301468    52.058505426   0   0   0 # h*
   4204      1   1 -0.820000    21.230989689     8.087161618    43.708450688   0   0   0 # o*
   4205      1   2  0.410000    21.739458142     7.306456098    43.341974193   0   0   0 # h*
   4206      1   2  0.410000    20.484073759     7.642995739    44.035177263   0   0   0 # h*
   4207      1   1 -0.820000     9.366334125     6.438948910    45.905837437   0   0   0 # o*
   4208      1   2  0.410000     9.369123517     6.705663880    46.826478816   0   0   0 # h*
   4209      1   2  0.410000     8.691988104     7.026367386    45.539335086   0   0   0 # h*
   4210      1   1 -0.820000     4.249709918    13.562115046    41.313783287   0   0   0 # o*
   4211      1   2  0.410000     3.339922431    13.202173889    41.069286916   0   0   0 # h*
   4212      1   2  0.410000     4.123703126    13.576939155    42.278128419   0   0   0 # h*
   4213      1   1 -0.820000     3.808133956     6.320488700    43.947557080   0   0   0 # o*
   4214      1   2  0.410000     3.771764955     5.628463140    43.247551788   0   0   0 # h*
   4215      1   2  0.410000     4.698087833     6.156394652    44.361623764   0   0   0 # h*
   4216      1   1 -0.820000    -0.126900732     0.764589277    38.728238751   1   0   0 # o*
   4217      1   2  0.410000     0.329371563     1.600310662    38.882511244   1   0   0 # h*
   4218      1   2  0.410000    -0.187882022     0.378172388    39.610333954   1   0   0 # h*
   4219      1   1 -0.820000    12.554647889    19.605928523    43.173180804   0   0   0 # o*
   4220      1   2  0.410000    13.153665137    20.427798367    43.242948706   0   0   0 # h*
   4221      1   2  0.410000    13.016196315    19.025301653    43.846242250   0   0   0 # h*
   4222      1   1 -0.820000    11.140714447     3.129087151    61.588967581   0   0   0 # o*
   4223      1   2  0.410000    10.912507621     2.499595600    60.881859897   0   0   0 # h*
   4224      1   2  0.410000    10.557360926     3.884500811    61.332376043   0   0   0 # h*
   4225      1   1 -0.820000    15.920887854     8.660834331    40.255307168   0   0   0 # o*
   4226      1   2  0.410000    16.131411317     7.863576042    39.770317432   0   0   0 # h*
   4227      1   2  0.410000    16.102858128     9.308838998    39.573073818   0   0   0 # h*
   4228      1   1 -0.820000     1.513257320    20.195796544    32.650971927   0   0   0 # o*
   4229      1   2  0.410000     1.825419344    19.708026838    33.458225109   0   0   0 # h*
   4230      1   2  0.410000     0.669692768    20.580516400    33.024315883   0   0   0 # h*
   4231      1   1 -0.820000     3.732428952    16.501513500    29.970133449   0   0   0 # o*
   4232      1   2  0.410000     3.225171408    16.015184633    30.713368357   0   0   0 # h*
   4233      1   2  0.410000     2.949050128    16.809664717    29.500110970   0   0   0 # h*
   4234      1   1 -0.820000     1.387130871    15.167508730    49.367323869   0   0   0 # o*
   4235      1   2  0.410000     2.236317652    14.980588133    49.873978854   0   0   0 # h*
   4236      1   2  0.410000     1.424206592    16.130950911    49.440733362   0   0   0 # h*
   4237      1   1 -0.820000     2.101905451     1.140935806    60.076635175   0   0   0 # o*
   4238      1   2  0.410000     1.262554076     0.807021592    59.770863110   0   0   0 # h*
   4239      1   2  0.410000     2.634528221     0.378528635    59.737037281   0   0   0 # h*
   4240      1   1 -0.820000     5.922799572     2.764545586    54.708011369   0   0   0 # o*
   4241      1   2  0.410000     5.090846542     3.280508430    54.856285837   0   0   0 # h*
   4242      1   2  0.410000     6.446518905     3.237802470    55.377398919   0   0   0 # h*
   4243      1   1 -0.820000    21.465837154    15.705749516    32.256204606   0   0   0 # o*
   4244      1   2  0.410000    22.099868721    15.008370396    32.062506536   0   0   0 # h*
   4245      1   2  0.410000    21.252269742    15.531584165    33.219480220   0   0   0 # h*
   4246      1   1 -0.820000    12.902474054    22.139868357    58.499230928   0   0   0 # o*
   4247      1   2  0.410000    12.915719148    21.453467031    59.224779267   0   0   0 # h*
   4248      1   2  0.410000    11.985845634    21.997056753    58.211426215   0   0   0 # h*
   4249      1   1 -0.820000     6.419227064     5.511488807    34.484272747   0   0   0 # o*
   4250      1   2  0.410000     5.631069926     5.014869050    34.787016447   0   0   0 # h*
   4251      1   2  0.410000     6.891110180     5.746973845    35.331112642   0   0   0 # h*
   4252      1   1 -0.820000    20.058447160    20.084036668    62.100097754   0   0   0 # o*
   4253      1   2  0.410000    20.638440232    20.078289270    61.319265151   0   0   0 # h*
   4254      1   2  0.410000    20.702413831    19.733370169    62.742977191   0   0   0 # h*
   4255      1   1 -0.820000     8.470059524     1.475875235    48.172247009   0   0   0 # o*
   4256      1   2  0.410000     8.126130360     1.112688410    47.318947154   0   0   0 # h*
   4257      1   2  0.410000     9.322785105     1.829408798    47.835105438   0   0   0 # h*
   4258      1   1 -0.820000    15.063207805    10.499604070    58.190062943   0   0   0 # o*
   4259      1   2  0.410000    14.297259895    11.031246989    57.892687955   0   0   0 # h*
   4260      1   2  0.410000    15.664075210    10.554836690    57.416885319   0   0   0 # h*
   4261      1   1 -0.820000    14.031447980    14.351830894    48.964610075   0   0   0 # o*
   4262      1   2  0.410000    13.125867150    14.640502606    49.205220636   0   0   0 # h*
   4263      1   2  0.410000    14.200523088    14.034043767    49.916951699   0   0   0 # h*
   4264      1   1 -0.820000     2.416822918     8.592898587    38.906001731   0   0   0 # o*
   4265      1   2  0.410000     1.925811845     8.696415705    39.768174012   0   0   0 # h*
   4266      1   2  0.410000     1.652226899     8.723069526    38.304236801   0   0   0 # h*
   4267      1   1 -0.820000    20.140265846    12.121234143    66.961872390   0   0   0 # o*
   4268      1   2  0.410000    21.008821610    12.397695420    66.608424782   0   0   0 # h*
   4269      1   2  0.410000    20.223727023    12.284162392    67.922532015   0   0   0 # h*
   4270      1   1 -0.820000    16.871223305    20.837161951    40.810244142   0   0   0 # o*
   4271      1   2  0.410000    15.959389892    20.956702710    40.486838296   0   0   0 # h*
   4272      1   2  0.410000    17.030589556    19.822167291    40.714637924   0   0   0 # h*
   4273      1   1 -0.820000     7.747031270     2.727839240    61.247451270   0   0   0 # o*
   4274      1   2  0.410000     7.253723059     2.660134216    60.388667842   0   0   0 # h*
   4275      1   2  0.410000     7.321305017     3.522664003    61.643541292   0   0   0 # h*
   4276      1   1 -0.820000    19.894734921    18.275683427    49.767319672   0   0   0 # o*
   4277      1   2  0.410000    19.893745860    17.361994726    49.381159906   0   0   0 # h*
   4278      1   2  0.410000    20.838022284    18.419805907    49.967113702   0   0   0 # h*
   4279      1   1 -0.820000    12.637580870    11.766056855    68.030060132   0   0   0 # o*
   4280      1   2  0.410000    12.236873857    10.877130449    68.251072545   0   0   0 # h*
   4281      1   2  0.410000    12.861051444    11.600443490    67.088155456   0   0   0 # h*
   4282      1   1 -0.820000    15.265592751     8.923461792    65.097976209   0   0   0 # o*
   4283      1   2  0.410000    15.503915927     8.937964161    64.176498009   0   0   0 # h*
   4284      1   2  0.410000    14.840047173     9.838657214    65.280554370   0   0   0 # h*
   4285      1   1 -0.820000    20.471636727     7.620213447    49.928696957   0   0   0 # o*
   4286      1   2  0.410000    19.882524064     6.894458840    49.731425885   0   0   0 # h*
   4287      1   2  0.410000    21.223182537     7.115962432    50.344984205   0   0   0 # h*
   4288      1   1 -0.820000    12.674676885    15.727718520    71.314821345   0   0   0 # o*
   4289      1   2  0.410000    12.864273893    16.617560154    71.048446389   0   0   0 # h*
   4290      1   2  0.410000    12.351518153    15.373282493    70.416395748   0   0   0 # h*
   4291      1   1 -0.820000    22.249139136    15.727286279    43.236348382   0   0   0 # o*
   4292      1   2  0.410000    21.805484624    15.017501700    43.785451411   0   0   0 # h*
   4293      1   2  0.410000     0.480201530    15.940302647    43.885977886   1   0   0 # h*
   4294      1   1 -0.820000    14.954047927    19.699078238    68.005935779   0   0   0 # o*
   4295      1   2  0.410000    14.383707680    19.336035269    67.257193027   0   0   0 # h*
   4296      1   2  0.410000    15.815059613    19.616853157    67.524485629   0   0   0 # h*
   4297      1   1 -0.820000     6.756606478    13.304941193    64.883290370   0   0   0 # o*
   4298      1   2  0.410000     7.093407991    14.195005120    65.012596977   0   0   0 # h*
   4299      1   2  0.410000     6.111996622    13.549638642    64.169465757   0   0   0 # h*
   4300      1   1 -0.820000    17.566634247    19.418651395    30.194177610   0   0   0 # o*
   4301      1   2  0.410000    17.756828493    19.428221701    29.229792071   0   0   0 # h*
   4302      1   2  0.410000    16.564857009    19.455207201    30.063460911   0   0   0 # h*
   4303      1   1 -0.820000    21.591116065    14.178299318    45.330163641   0   0   0 # o*
   4304      1   2  0.410000    20.632904981    14.049515687    45.275722450   0   0   0 # h*
   4305      1   2  0.410000    21.818004381    13.361987761    45.833469249   0   0   0 # h*
   4306      1   1 -0.820000     6.850006972     0.512010551    41.698482630   0   0   0 # o*
   4307      1   2  0.410000     6.650572997     1.081868587    40.943414915   0   0   0 # h*
   4308      1   2  0.410000     6.920511530     1.195690593    42.412480250   0   0   0 # h*
   4309      1   1 -0.820000     9.764345380    21.235003193    45.885998660   0   0   0 # o*
   4310      1   2  0.410000     9.418203398    21.819111019    45.165228518   0   0   0 # h*
   4311      1   2  0.410000     9.200314542    20.458500575    45.835636756   0   0   0 # h*
   4312      1   1 -0.820000    13.351930301    14.219163082    38.453527414   0   0   0 # o*
   4313      1   2  0.410000    13.701541588    13.620713522    37.796656486   0   0   0 # h*
   4314      1   2  0.410000    12.507643480    14.486484876    38.004275058   0   0   0 # h*
   4315      1   1 -0.820000    14.425202376     1.133560898    65.087293667   0   0   0 # o*
   4316      1   2  0.410000    13.606996252     1.405398796    64.615692138   0   0   0 # h*
   4317      1   2  0.410000    15.172618448     1.410129277    64.469838284   0   0   0 # h*
   4318      1   1 -0.820000    12.990927038    16.734447770    47.082948912   0   0   0 # o*
   4319      1   2  0.410000    12.938628344    16.640498855    46.086843593   0   0   0 # h*
   4320      1   2  0.410000    12.501985931    17.575846013    47.127111577   0   0   0 # h*
   4321      1   1 -0.820000     9.550755107    17.018799952    63.487856888   0   0   0 # o*
   4322      1   2  0.410000     9.587039231    17.995873447    63.528885410   0   0   0 # h*
   4323      1   2  0.410000     9.668459915    16.923905642    62.505240649   0   0   0 # h*
   4324      1   1 -0.820000     6.393747791    11.081843924    70.688544524   0   0   0 # o*
   4325      1   2  0.410000     5.659765024    10.861896561    70.065675107   0   0   0 # h*
   4326      1   2  0.410000     5.956684312    11.126855708    71.560245669   0   0   0 # h*
   4327      1   1 -0.820000     9.782382211     0.111196853    36.236983405   0   1   0 # o*
   4328      1   2  0.410000     9.951346583     0.056333162    37.215001636   0   1   0 # h*
   4329      1   2  0.410000     8.839391286     0.313000071    36.197281172   0   1   0 # h*
   4330      1   1 -0.820000     1.927605581    20.874544463    67.659049582   0   0   0 # o*
   4331      1   2  0.410000     1.993644685    19.980746104    68.008814086   0   0   0 # h*
   4332      1   2  0.410000     1.657281433    21.351087825    68.466217674   0   0   0 # h*
   4333      1   1 -0.820000    16.522813882     1.244682954    37.188556314   0   0   0 # o*
   4334      1   2  0.410000    17.260912150     0.679504240    36.915693140   0   0   0 # h*
   4335      1   2  0.410000    16.133289028     0.700205539    37.968810824   0   0   0 # h*
   4336      1   1 -0.820000    19.900401264     3.684818205    67.223328064   0   0   0 # o*
   4337      1   2  0.410000    19.608454536     4.619159618    67.179416218   0   0   0 # h*
   4338      1   2  0.410000    19.131996397     3.132100029    67.231712378   0   0   0 # h*
   4339      1   1 -0.820000    14.698523674     8.399236952    50.722369717   0   0   0 # o*
   4340      1   2  0.410000    15.231474113     9.169362024    51.009114532   0   0   0 # h*
   4341      1   2  0.410000    13.859279892     8.453475256    51.228682225   0   0   0 # h*
   4342      1   1 -0.820000     0.703021351    14.475858878    41.019317856   0   0   0 # o*
   4343      1   2  0.410000     0.808030645    15.444237644    40.947687322   0   0   0 # h*
   4344      1   2  0.410000     0.673935952    14.265975008    40.071541787   0   0   0 # h*
   4345      1   1 -0.820000     5.185642015     1.949023237    52.238704884   0   0   0 # o*
   4346      1   2  0.410000     5.596494212     2.044045269    53.131523422   0   0   0 # h*
   4347      1   2  0.410000     5.621828151     2.631990890    51.753742317   0   0   0 # h*
   4348      1   1 -0.820000    18.922653318    19.242992448    52.363295765   0   0   0 # o*
   4349      1   2  0.410000    19.150717463    18.994833756    51.444840515   0   0   0 # h*
   4350      1   2  0.410000    18.017982295    18.799182384    52.456015516   0   0   0 # h*
   4351      1   1 -0.820000     4.917984112    10.503766454    40.106596440   0   0   0 # o*
   4352      1   2  0.410000     4.319481014     9.797016446    39.762974797   0   0   0 # h*
   4353      1   2  0.410000     4.654804392    10.459244528    41.045338516   0   0   0 # h*
   4354      1   1 -0.820000    16.765742433    16.109333788    48.587567814   0   0   0 # o*
   4355      1   2  0.410000    17.194982005    15.265163009    48.269348752   0   0   0 # h*
   4356      1   2  0.410000    17.213719373    16.034997040    49.441474055   0   0   0 # h*
   4357      1   1 -0.820000    16.237791779     4.555189067    35.027632780   0   0   0 # o*
   4358      1   2  0.410000    15.478245678     4.990251354    35.459021530   0   0   0 # h*
   4359      1   2  0.410000    16.931702355     4.795507758    35.689452209   0   0   0 # h*
   4360      1   1 -0.820000     4.377549537    14.359732285    35.690953647   0   0   0 # o*
   4361      1   2  0.410000     3.933746973    15.179196094    35.963173674   0   0   0 # h*
   4362      1   2  0.410000     4.809769113    14.160739360    36.529727440   0   0   0 # h*
   4363      1   1 -0.820000    13.698064776    12.043514990    64.933633813   0   0   0 # o*
   4364      1   2  0.410000    14.242545281    11.212996142    65.065556961   0   0   0 # h*
   4365      1   2  0.410000    13.264172689    11.838046508    64.034371739   0   0   0 # h*
   4366      1   1 -0.820000     4.759365941    15.339736575    59.608549404   0   0   0 # o*
   4367      1   2  0.410000     4.825137018    14.375733089    59.834514002   0   0   0 # h*
   4368      1   2  0.410000     4.143559947    15.233881512    58.856761004   0   0   0 # h*
   4369      1   1 -0.820000    21.453109818    17.606145851    30.364512575   0   0   0 # o*
   4370      1   2  0.410000    21.145159092    17.201873381    29.532265458   0   0   0 # h*
   4371      1   2  0.410000    21.591539479    16.762444296    30.868105856   0   0   0 # h*
   4372      1   1 -0.820000    10.868052508    14.439334119    65.700985546   0   0   0 # o*
   4373      1   2  0.410000    10.583863726    13.619393400    66.139422182   0   0   0 # h*
   4374      1   2  0.410000    10.558960681    15.130548603    66.322509020   0   0   0 # h*
   4375      1   1 -0.820000     9.761348115    18.875570230    41.419570607   0   0   0 # o*
   4376      1   2  0.410000    10.666426524    18.489917011    41.218883714   0   0   0 # h*
   4377      1   2  0.410000     9.641588009    19.523761827    40.715112370   0   0   0 # h*
   4378      1   1 -0.820000    19.473702799    17.142222201    64.117040104   0   0   0 # o*
   4379      1   2  0.410000    19.277018714    16.548097195    64.911626587   0   0   0 # h*
   4380      1   2  0.410000    20.402781829    17.463240993    64.407913369   0   0   0 # h*
   4381      1   1 -0.820000    20.523834902     5.650105147    71.308697791   0   0   0 # o*
   4382      1   2  0.410000    19.870282731     6.387700183    71.192875819   0   0   0 # h*
   4383      1   2  0.410000    21.344413042     6.194980902    71.106538464   0   0   0 # h*
   4384      1   1 -0.820000     3.038091133     2.278418638    64.976495951   0   0   0 # o*
   4385      1   2  0.410000     2.370574201     3.045561096    65.067658267   0   0   0 # h*
   4386      1   2  0.410000     2.532584663     1.493122020    64.738190656   0   0   0 # h*
   4387      1   1 -0.820000     7.425383493    12.823536429    33.140967832   0   0   0 # o*
   4388      1   2  0.410000     7.694328889    13.538855268    33.787939080   0   0   0 # h*
   4389      1   2  0.410000     6.629988474    13.288187990    32.871645547   0   0   0 # h*
   4390      1   1 -0.820000    14.357829850    17.280506012    49.405966427   0   0   0 # o*
   4391      1   2  0.410000    15.268824575    17.083711606    49.054828518   0   0   0 # h*
   4392      1   2  0.410000    13.881637617    16.825661150    48.685621695   0   0   0 # h*
   4393      1   1 -0.820000    11.326845888     1.441736858    66.870120709   0   0   0 # o*
   4394      1   2  0.410000    11.452416269     1.446124642    65.922807689   0   0   0 # h*
   4395      1   2  0.410000    10.659062200     0.715800658    66.942896244   0   0   0 # h*
   4396      1   1 -0.820000    15.945314110    12.127857422    49.063559145   0   0   0 # o*
   4397      1   2  0.410000    15.803567699    11.391176099    48.413187805   0   0   0 # h*
   4398      1   2  0.410000    15.136984036    12.654579034    48.964855522   0   0   0 # h*
   4399      1   1 -0.820000     0.408888949    17.109794363    31.778815438   0   0   0 # o*
   4400      1   2  0.410000     1.319035859    17.161684744    32.135756595   0   0   0 # h*
   4401      1   2  0.410000     0.215372918    18.067068871    31.869012698   0   0   0 # h*
   4402      1   1 -0.820000    16.143634023     2.233900508    33.308815386   0   0   0 # o*
   4403      1   2  0.410000    15.381086472     1.984831203    33.813973068   0   0   0 # h*
   4404      1   2  0.410000    16.689403111     2.812126627    33.908684468   0   0   0 # h*
   4405      1   1 -0.820000     2.368080657    15.872176788    52.579955980   0   0   0 # o*
   4406      1   2  0.410000     1.571675305    15.280931373    52.478116082   0   0   0 # h*
   4407      1   2  0.410000     2.870549618    15.326822090    53.163303735   0   0   0 # h*
   4408      1   1 -0.820000    16.896178339     4.266121797    29.825011830   0   0   0 # o*
   4409      1   2  0.410000    16.670255933     4.891289297    29.100224744   0   0   0 # h*
   4410      1   2  0.410000    17.633476770     3.784454162    29.381741332   0   0   0 # h*
   4411      1   1 -0.820000    17.592958756    14.882390530    50.917385889   0   0   0 # o*
   4412      1   2  0.410000    18.529495055    15.026347165    51.083136304   0   0   0 # h*
   4413      1   2  0.410000    17.616984621    13.878235864    50.949427572   0   0   0 # h*
   4414      1   1 -0.820000     1.440477558    19.560103302    41.556198877   0   0   0 # o*
   4415      1   2  0.410000     1.465520027    20.480283284    41.946590358   0   0   0 # h*
   4416      1   2  0.410000     1.944787449    19.096892366    42.242054220   0   0   0 # h*
   4417      1   1 -0.820000    12.382589877    18.475154907    69.276176356   0   0   0 # o*
   4418      1   2  0.410000    12.518428235    18.031893704    68.433921836   0   0   0 # h*
   4419      1   2  0.410000    12.988263061    19.222192167    69.157018520   0   0   0 # h*
   4420      1   1 -0.820000    11.908099459     2.869972122    58.267348430   0   0   0 # o*
   4421      1   2  0.410000    11.917086804     3.821012499    58.501014166   0   0   0 # h*
   4422      1   2  0.410000    11.126243429     2.844651957    57.706834787   0   0   0 # h*
   4423      1   1 -0.820000     5.783291896     1.640943984    43.514677543   0   0   0 # o*
   4424      1   2  0.410000     5.808737682     0.732980015    43.925501424   0   0   0 # h*
   4425      1   2  0.410000     4.819791412     1.806923035    43.462827923   0   0   0 # h*
   4426      1   1 -0.820000    11.092521006     7.720171549    43.531770300   0   0   0 # o*
   4427      1   2  0.410000    10.775114975     8.479474181    43.021735933   0   0   0 # h*
   4428      1   2  0.410000    11.250729721     8.075105602    44.434700625   0   0   0 # h*
   4429      1   1 -0.820000    10.313117333     4.253509854    72.411836078   0   0   0 # o*
   4430      1   2  0.410000    11.281412315     4.288385145    72.539265031   0   0   0 # h*
   4431      1   2  0.410000    10.153046002     3.560369058    71.751672542   0   0   0 # h*
   4432      1   1 -0.820000    19.236189115     6.291784295    40.540651170   0   0   0 # o*
   4433      1   2  0.410000    19.575257199     5.467277764    40.988078176   0   0   0 # h*
   4434      1   2  0.410000    18.406116585     6.397872243    41.143121037   0   0   0 # h*
   4435      1   1 -0.820000     7.966337453    18.360335822    53.774006366   0   0   0 # o*
   4436      1   2  0.410000     8.122522936    19.296985835    54.070367467   0   0   0 # h*
   4437      1   2  0.410000     8.800427554    17.981065208    54.173699143   0   0   0 # h*
   4438      1   1 -0.820000     8.466201212     6.521236802    43.123468527   0   0   0 # o*
   4439      1   2  0.410000     9.361562516     6.345062000    43.519150769   0   0   0 # h*
   4440      1   2  0.410000     8.714355846     6.776595516    42.218006264   0   0   0 # h*
   4441      1   1 -0.820000     5.594283634     7.653987877    32.240882773   0   0   0 # o*
   4442      1   2  0.410000     6.452624587     7.233933787    32.057172102   0   0   0 # h*
   4443      1   2  0.410000     5.861069496     8.590374398    32.063879208   0   0   0 # h*
   4444      1   1 -0.820000    19.530483931    13.926425248    63.764954756   0   0   0 # o*
   4445      1   2  0.410000    19.984993783    14.334729805    64.525069428   0   0   0 # h*
   4446      1   2  0.410000    19.914638978    13.065004101    63.717395138   0   0   0 # h*
   4447      1   1 -0.820000    15.482750841     7.959022827    60.842835311   0   0   0 # o*
   4448      1   2  0.410000    14.554695482     8.315906658    60.890433711   0   0   0 # h*
   4449      1   2  0.410000    15.457190972     7.517870754    61.680570182   0   0   0 # h*
   4450      1   1 -0.820000     0.824788829    18.344246539    64.233880598   0   0   0 # o*
   4451      1   2  0.410000     1.740030490    18.210940418    64.567269095   0   0   0 # h*
   4452      1   2  0.410000     0.617494396    17.385998089    64.140935309   0   0   0 # h*
   4453      1   1 -0.820000    21.815536923    11.722734835    42.071703184   0   0   0 # o*
   4454      1   2  0.410000    21.609955447    12.710186545    41.802788730   0   0   0 # h*
   4455      1   2  0.410000    20.867633729    11.476301023    42.284061436   0   0   0 # h*
   4456      1   1 -0.820000    20.560927757    21.393317411    42.166051113   0   0   0 # o*
   4457      1   2  0.410000    20.561785499    -0.029381926    41.679914994   0   1   0 # h*
   4458      1   2  0.410000    20.606923740    20.700620827    41.455948092   0   0   0 # h*
   4459      1   1 -0.820000     3.469722178    16.153248472    45.880740980   0   0   0 # o*
   4460      1   2  0.410000     4.407783329    16.089317599    46.197085439   0   0   0 # h*
   4461      1   2  0.410000     3.083908246    16.453143909    46.750240751   0   0   0 # h*
   4462      1   1 -0.820000     2.831466589    14.801286149    57.619643873   0   0   0 # o*
   4463      1   2  0.410000     2.348604786    15.447323064    57.024883240   0   0   0 # h*
   4464      1   2  0.410000     2.106202551    14.220121083    57.888484697   0   0   0 # h*
   4465      1   1 -0.820000    12.204092212    18.228164408    32.616376698   0   0   0 # o*
   4466      1   2  0.410000    13.236856056    18.284605869    32.728498988   0   0   0 # h*
   4467      1   2  0.410000    12.025909826    19.198207772    32.438950579   0   0   0 # h*
   4468      1   1 -0.820000    20.707834158    19.430756722    54.560570267   0   0   0 # o*
   4469      1   2  0.410000    20.205945155    19.399728980    53.734425366   0   0   0 # h*
   4470      1   2  0.410000    21.558857841    19.516837234    54.149654014   0   0   0 # h*
   4471      1   1 -0.820000    18.267013032     5.679245452    44.802829826   0   0   0 # o*
   4472      1   2  0.410000    18.020216434     4.732924295    44.805003882   0   0   0 # h*
   4473      1   2  0.410000    17.949135766     5.948937595    43.895032125   0   0   0 # h*
   4474      1   1 -0.820000     5.580562545     6.296495553    55.640079757   0   0   0 # o*
   4475      1   2  0.410000     5.520994059     7.233596108    55.346611072   0   0   0 # h*
   4476      1   2  0.410000     4.760824734     5.952660042    55.215836728   0   0   0 # h*
   4477      1   1 -0.820000     5.603057527     6.738192700    46.595887893   0   0   0 # o*
   4478      1   2  0.410000     4.861018937     7.391294022    46.602593921   0   0   0 # h*
   4479      1   2  0.410000     6.274170976     7.368463220    46.196461271   0   0   0 # h*
   4480      1   1 -0.820000     5.724145254    10.872042978    65.992218775   0   0   0 # o*
   4481      1   2  0.410000     6.583127646    10.676988559    66.463700053   0   0   0 # h*
   4482      1   2  0.410000     5.870372807    11.793788601    65.672444653   0   0   0 # h*
   4483      1   1 -0.820000     5.166172913    14.617495549    32.946182353   0   0   0 # o*
   4484      1   2  0.410000     4.962400054    14.248572061    33.816399812   0   0   0 # h*
   4485      1   2  0.410000     4.456107403    15.245633431    32.957898759   0   0   0 # h*
   4486      1   1 -0.820000    18.723426932     1.786644442    64.178927298   0   0   0 # o*
   4487      1   2  0.410000    18.237244196     0.990479867    64.423388136   0   0   0 # h*
   4488      1   2  0.410000    18.468799047     2.378959557    64.879410450   0   0   0 # h*
   4489      1   1 -0.820000     8.279959270    12.473944024    29.791559611   0   0   0 # o*
   4490      1   2  0.410000     8.738926062    11.636272481    30.100822838   0   0   0 # h*
   4491      1   2  0.410000     8.847694300    12.682897362    29.040202677   0   0   0 # h*
   4492      1   1 -0.820000     8.913256008     9.569395053    52.101069732   0   0   0 # o*
   4493      1   2  0.410000     9.299671578     9.394031182    53.005228016   0   0   0 # h*
   4494      1   2  0.410000     8.053488273     9.120857471    52.131609044   0   0   0 # h*
   4495      1   1 -0.820000    16.306310229    17.784291226    45.289746700   0   0   0 # o*
   4496      1   2  0.410000    15.964303933    17.452588785    46.164593047   0   0   0 # h*
   4497      1   2  0.410000    16.458918733    16.969023226    44.806864146   0   0   0 # h*
   4498      1   1 -0.820000    17.041905495     6.587114870    38.231428809   0   0   0 # o*
   4499      1   2  0.410000    16.219723991     6.440123859    37.718169624   0   0   0 # h*
   4500      1   2  0.410000    17.180769619     5.628775096    38.496909195   0   0   0 # h*
   4501      1   1 -0.820000     9.307538135     0.760513534    37.690002457   0   0   0 # o*
   4502      1   2  0.410000     9.548180140     1.040835055    38.596966093   0   0   0 # h*
   4503      1   2  0.410000     9.196501704    22.084255472    37.878006540   0  -1   0 # h*
   4504      1   1 -0.820000    17.328755379     9.156538031    58.902220179   0   0   0 # o*
   4505      1   2  0.410000    16.617025179     8.931478824    59.572011781   0   0   0 # h*
   4506      1   2  0.410000    17.049924388     8.682292449    58.090527478   0   0   0 # h*
   4507      1   1 -0.820000    20.629190021    14.266189497    58.633312164   0   0   0 # o*
   4508      1   2  0.410000    20.240631586    13.798935183    59.391757039   0   0   0 # h*
   4509      1   2  0.410000    20.403906528    13.657670069    57.899453590   0   0   0 # h*
   4510      1   1 -0.820000     2.985811611    13.525980551    44.135532859   0   0   0 # o*
   4511      1   2  0.410000     2.345097426    12.784926934    43.861523787   0   0   0 # h*
   4512      1   2  0.410000     2.391936055    14.277672648    44.400836244   0   0   0 # h*
   4513      1   1 -0.820000     0.290154303    19.476154289    52.573458010   1   0   0 # o*
   4514      1   2  0.410000     0.097743516    20.461663629    52.535471960   1   0   0 # h*
   4515      1   2  0.410000     0.309150460    19.290466137    51.650445674   1   0   0 # h*
   4516      1   1 -0.820000     2.668313972    12.755932427    73.990812469   0   0   0 # o*
   4517      1   2  0.410000     2.593281904    13.493450417    74.624860294   0   0   0 # h*
   4518      1   2  0.410000     3.022084682    12.043252135    74.619444838   0   0   0 # h*
   4519      1   1 -0.820000     0.633123602     3.281764870    38.991963691   0   0   0 # o*
   4520      1   2  0.410000     0.314969877     3.450819929    39.930554967   0   0   0 # h*
   4521      1   2  0.410000     1.496081125     2.926023404    39.194824139   0   0   0 # h*
   4522      1   1 -0.820000     0.952204217     4.014387678    64.822435135   0   0   0 # o*
   4523      1   2  0.410000    -0.011395019     3.955837502    64.736687376   0   0   0 # h*
   4524      1   2  0.410000     1.197907331     4.025394967    63.842554475   0   0   0 # h*
   4525      1   1 -0.820000    13.409029897     0.022185551    41.551236371   0   0   0 # o*
   4526      1   2  0.410000    12.751646009    21.986787581    40.869103463   0  -1   0 # h*
   4527      1   2  0.410000    14.102433919     0.236957113    40.932219997   0   0   0 # h*
   4528      1   1 -0.820000    10.361432638    15.516625944    58.783212352   0   0   0 # o*
   4529      1   2  0.410000    11.325628247    15.343817579    58.803591456   0   0   0 # h*
   4530      1   2  0.410000    10.268862209    16.203533416    58.087761984   0   0   0 # h*
   4531      1   1 -0.820000    16.031617173     6.171167120    28.066738801   0   0   0 # o*
   4532      1   2  0.410000    15.737532942     6.783891609    28.783369358   0   0   0 # h*
   4533      1   2  0.410000    15.266699145     6.245355084    27.406954831   0   0   0 # h*
   4534      1   1 -0.820000     6.612080075    17.357547432    50.268778502   0   0   0 # o*
   4535      1   2  0.410000     6.098482687    18.089337552    50.724361811   0   0   0 # h*
   4536      1   2  0.410000     5.827636802    16.869782063    50.042962018   0   0   0 # h*
   4537      1   1 -0.820000    17.859000149    17.256728756    35.452016340   0   0   0 # o*
   4538      1   2  0.410000    17.674921840    18.086730830    35.028027312   0   0   0 # h*
   4539      1   2  0.410000    16.990701280    17.075999946    35.834262799   0   0   0 # h*
   4540      1   1 -0.820000     9.705999214     3.579587068    65.538217576   0   0   0 # o*
   4541      1   2  0.410000     9.983802336     3.327478883    66.410758683   0   0   0 # h*
   4542      1   2  0.410000    10.435777568     4.249941406    65.363452566   0   0   0 # h*
   4543      1   1 -0.820000     8.724825160     0.996942268    63.559766209   0   0   0 # o*
   4544      1   2  0.410000     9.206897607     1.756139742    63.884919545   0   0   0 # h*
   4545      1   2  0.410000     7.912650291     1.499358989    63.278050785   0   0   0 # h*
   4546      1   1 -0.820000    21.671607658    12.297807357    47.473304951   0   0   0 # o*
   4547      1   2  0.410000    21.569123299    12.538245758    48.448747431   0   0   0 # h*
   4548      1   2  0.410000    21.138382869    11.450504142    47.517089514   0   0   0 # h*
   4549      1   1 -0.820000    13.297684250    16.569111971    44.132657668   0   0   0 # o*
   4550      1   2  0.410000    13.861146630    17.348828825    43.905634804   0   0   0 # h*
   4551      1   2  0.410000    13.721678922    15.811362616    43.718110373   0   0   0 # h*
   4552      1   1 -0.820000    13.548680253    16.032125481    63.008105098   0   0   0 # o*
   4553      1   2  0.410000    14.330466858    16.510786501    62.724324726   0   0   0 # h*
   4554      1   2  0.410000    13.933795793    15.489805713    63.753339296   0   0   0 # h*
   4555      1   1 -0.820000    12.516740320    12.059140163    32.229365533   0   0   0 # o*
   4556      1   2  0.410000    13.436449933    12.266303784    31.980322531   0   0   0 # h*
   4557      1   2  0.410000    12.122708316    11.534653904    31.473854835   0   0   0 # h*
   4558      1   1 -0.820000    12.367059636    18.972696043    50.237160199   0   0   0 # o*
   4559      1   2  0.410000    12.285411867    18.976983815    51.246817335   0   0   0 # h*
   4560      1   2  0.410000    13.110034049    18.350155398    50.080485720   0   0   0 # h*
   4561      1   1 -0.820000    13.356886683    10.719546448    58.346070576   0   0   0 # o*
   4562      1   2  0.410000    13.877379739    10.562161842    59.159380195   0   0   0 # h*
   4563      1   2  0.410000    12.459777999    10.964574569    58.721606135   0   0   0 # h*
   4564      1   1 -0.820000    19.794550932     8.196486337    28.410682179   0   0   0 # o*
   4565      1   2  0.410000    19.713067698     9.127057763    28.315599790   0   0   0 # h*
   4566      1   2  0.410000    19.006416850     7.963326516    27.863081417   0   0   0 # h*
   4567      1   1 -0.820000     6.999447541     4.926303883    62.678713878   0   0   0 # o*
   4568      1   2  0.410000     7.152384983     4.822202486    63.649738412   0   0   0 # h*
   4569      1   2  0.410000     6.068113083     5.212785282    62.778302235   0   0   0 # h*
   4570      1   1 -0.820000     8.821256876    10.670396955    56.950479561   0   0   0 # o*
   4571      1   2  0.410000     9.380487418    11.215347640    57.559638411   0   0   0 # h*
   4572      1   2  0.410000     7.970635349    11.237736716    56.950138468   0   0   0 # h*
   4573      1   1 -0.820000     6.489327382    21.417484167    47.962487952   0   0   0 # o*
   4574      1   2  0.410000     6.502291287    20.746843903    48.672006477   0   0   0 # h*
   4575      1   2  0.410000     6.482887702    22.199673455    48.534202448   0   0   0 # h*
   4576      1   1 -0.820000     6.136576334    21.288491963    58.647488053   0   0   0 # o*
   4577      1   2  0.410000     5.908719005    20.373145268    58.689825099   0   0   0 # h*
   4578      1   2  0.410000     6.072301898    21.426439767    57.639479132   0   0   0 # h*
   4579      1   1 -0.820000     1.494722315    16.841406595    55.656991989   0   0   0 # o*
   4580      1   2  0.410000     0.560387420    16.656120828    55.971934859   0   0   0 # h*
   4581      1   2  0.410000     1.568067126    17.798181820    55.855162169   0   0   0 # h*
   4582      1   1 -0.820000    10.797316709     2.496435699    46.466910228   0   0   0 # o*
   4583      1   2  0.410000    10.996553322     3.164620964    45.776988337   0   0   0 # h*
   4584      1   2  0.410000    10.960130976     1.662927333    45.992003540   0   0   0 # h*
   4585      1   1 -0.820000    20.358196369    12.886108180    30.659536377   0   0   0 # o*
   4586      1   2  0.410000    20.528524962    12.808321517    31.615423118   0   0   0 # h*
   4587      1   2  0.410000    20.637577181    11.978424639    30.454547656   0   0   0 # h*
   4588      1   1 -0.820000    13.177512685     6.236141845    55.873957482   0   0   0 # o*
   4589      1   2  0.410000    13.126892637     7.230432346    56.061169154   0   0   0 # h*
   4590      1   2  0.410000    12.257805666     6.166069166    55.590762763   0   0   0 # h*
   4591      1   1 -0.820000    14.739079626    11.531942094    60.923815110   0   0   0 # o*
   4592      1   2  0.410000    14.972385198    12.459452155    60.664236805   0   0   0 # h*
   4593      1   2  0.410000    15.451004122    11.402822057    61.595221404   0   0   0 # h*
   4594      1   1 -0.820000    15.059587062     6.425763663    51.420358182   0   0   0 # o*
   4595      1   2  0.410000    15.295699325     7.255329317    50.884007403   0   0   0 # h*
   4596      1   2  0.410000    15.374652105     5.832691237    50.729077895   0   0   0 # h*
   4597      1   1 -0.820000    21.260849589    12.130153095    73.320512950   0   0   0 # o*
   4598      1   2  0.410000    21.860589603    12.682620001    72.737352282   0   0   0 # h*
   4599      1   2  0.410000    21.726103143    11.257709253    73.384641407   0   0   0 # h*
   4600      1   1 -0.820000    13.416373913     8.989167070    56.155266118   0   0   0 # o*
   4601      1   2  0.410000    13.379720276     9.456649315    57.017612497   0   0   0 # h*
   4602      1   2  0.410000    13.047451764     9.675769181    55.522586062   0   0   0 # h*
   4603      1   1 -0.820000     1.272306738    20.972484978    61.282113652   0   0   0 # o*
   4604      1   2  0.410000     0.831659960    21.280140734    62.149322839   0   0   0 # h*
   4605      1   2  0.410000     1.235342732    21.828658882    60.772595786   0   0   0 # h*
   4606      1   1 -0.820000    18.232550214     8.746337132    44.091201530   0   0   0 # o*
   4607      1   2  0.410000    18.683761129     9.283422008    43.385846078   0   0   0 # h*
   4608      1   2  0.410000    18.545038077     9.282599567    44.876521562   0   0   0 # h*
   4609      1   1 -0.820000    18.311739412    19.133289255    42.959418670   0   0   0 # o*
   4610      1   2  0.410000    18.655956897    19.225999941    43.926125770   0   0   0 # h*
   4611      1   2  0.410000    17.707239353    19.899189159    42.928257956   0   0   0 # h*
   4612      1   1 -0.820000     3.758680741    14.651026951    36.896612583   0   0   0 # o*
   4613      1   2  0.410000     4.118262355    15.491370310    36.444358774   0   0   0 # h*
   4614      1   2  0.410000     2.825040890    14.674656176    36.702817773   0   0   0 # h*
   4615      1   1 -0.820000    12.999062846     4.790438870    72.070924913   0   0   0 # o*
   4616      1   2  0.410000    13.353247834     5.728170845    71.939333538   0   0   0 # h*
   4617      1   2  0.410000    13.483183930     4.367050677    71.350239052   0   0   0 # h*
   4618      1   1 -0.820000    19.234831638     6.782931226    67.882572555   0   0   0 # o*
   4619      1   2  0.410000    18.599039601     7.499888702    67.699699472   0   0   0 # h*
   4620      1   2  0.410000    19.170010071     6.674155201    68.890804067   0   0   0 # h*
   4621      1   1 -0.820000     7.717954936    15.030744663    56.902070429   0   0   0 # o*
   4622      1   2  0.410000     6.954090304    14.737750308    56.348564590   0   0   0 # h*
   4623      1   2  0.410000     8.421340851    14.640533563    56.385150703   0   0   0 # h*
   4624      1   1 -0.820000    12.293772349    11.530039157    62.311037431   0   0   0 # o*
   4625      1   2  0.410000    13.062760381    11.520876540    61.694114497   0   0   0 # h*
   4626      1   2  0.410000    11.990867411    12.445987741    62.112770035   0   0   0 # h*
   4627      1   1 -0.820000    14.764561837    12.594828742    70.916797206   0   0   0 # o*
   4628      1   2  0.410000    14.226725248    11.836992726    70.714939549   0   0   0 # h*
   4629      1   2  0.410000    14.204586779    12.816851955    71.695439671   0   0   0 # h*
   4630      1   1 -0.820000    14.082981249    14.030130737    48.302963621   0   0   0 # o*
   4631      1   2  0.410000    13.238192661    14.181334338    48.777938135   0   0   0 # h*
   4632      1   2  0.410000    14.018952785    14.760322677    47.699377906   0   0   0 # h*
   4633      1   1 -0.820000    14.001857029    10.683386539    47.555378099   0   0   0 # o*
   4634      1   2  0.410000    13.317861521    10.268683306    46.981883979   0   0   0 # h*
   4635      1   2  0.410000    13.678007588    10.289103266    48.406894908   0   0   0 # h*
   4636      1   1 -0.820000    10.482914671    11.026053067    46.056752380   0   0   0 # o*
   4637      1   2  0.410000     9.928527492    11.368716584    46.765538014   0   0   0 # h*
   4638      1   2  0.410000    10.136539331    11.588661667    45.329867021   0   0   0 # h*
   4639      1   1 -0.820000    21.335185612    20.464590631    47.366193493   0   0   0 # o*
   4640      1   2  0.410000    20.839417241    19.651072322    47.413221822   0   0   0 # h*
   4641      1   2  0.410000    21.492715720    20.517701749    46.422095317   0   0   0 # h*
   4642      1   1 -0.820000    10.256155875     6.854411655    55.818494847   0   0   0 # o*
   4643      1   2  0.410000    10.360526954     7.736653092    55.405678547   0   0   0 # h*
   4644      1   2  0.410000     9.637066060     7.036849484    56.602339924   0   0   0 # h*
   4645      1   1 -0.820000    19.453360045    12.768174534    60.705218138   0   0   0 # o*
   4646      1   2  0.410000    18.914501183    12.321350596    60.052259896   0   0   0 # h*
   4647      1   2  0.410000    19.788912527    11.968640753    61.137472948   0   0   0 # h*
   4648      1   1 -0.820000    21.097736730    14.955542406    28.922603350   0   0   0 # o*
   4649      1   2  0.410000    21.049134816    14.312321713    29.677399399   0   0   0 # h*
   4650      1   2  0.410000    21.090229159    14.231559805    28.189393276   0   0   0 # h*
   4651      1   1 -0.820000    11.258828353    14.661796410    48.596768922   0   0   0 # o*
   4652      1   2  0.410000    10.451022906    15.239736777    48.735277760   0   0   0 # h*
   4653      1   2  0.410000    11.625720468    15.172861269    47.880716400   0   0   0 # h*
   4654      1   1 -0.820000    17.645122069    16.408834933    59.699325799   0   0   0 # o*
   4655      1   2  0.410000    18.004744117    17.261385707    59.512122258   0   0   0 # h*
   4656      1   2  0.410000    18.225150796    16.126159125    60.403854496   0   0   0 # h*
   4657      1   1 -0.820000     4.065037979     4.710989630    31.797251993   0   0   0 # o*
   4658      1   2  0.410000     3.976553535     5.425800206    31.139591029   0   0   0 # h*
   4659      1   2  0.410000     4.897027222     4.346313506    31.513280247   0   0   0 # h*
   4660      1   1 -0.820000    20.152251880     4.409972119    36.723359050   0   0   0 # o*
   4661      1   2  0.410000    20.217468330     3.427343903    36.523665116   0   0   0 # h*
   4662      1   2  0.410000    19.809246643     4.330642203    37.656571489   0   0   0 # h*
   4663      1   1 -0.820000     5.959991543     2.384296975    40.157838808   0   0   0 # o*
   4664      1   2  0.410000     6.181974182     2.476319047    39.165806588   0   0   0 # h*
   4665      1   2  0.410000     6.061181219     3.323084295    40.362747823   0   0   0 # h*
   4666      1   1 -0.820000    14.289781534    21.334001319    34.772179082   0   0   0 # o*
   4667      1   2  0.410000    15.003852025    21.851686993    35.279643339   0   0   0 # h*
   4668      1   2  0.410000    14.652382870    21.330775980    33.824962224   0   0   0 # h*
   4669      1   1 -0.820000     9.088738401     9.784635674    30.453479692   0   0   0 # o*
   4670      1   2  0.410000    10.038252172     9.691931475    30.304610762   0   0   0 # h*
   4671      1   2  0.410000     8.891071594     8.819493398    30.618609429   0   0   0 # h*
   4672      1   1 -0.820000    21.159815282    18.052507664    35.447884057   0   0   0 # o*
   4673      1   2  0.410000    20.289713131    18.483166303    35.605153688   0   0   0 # h*
   4674      1   2  0.410000    21.554795609    18.104466387    36.364479346   0   0   0 # h*
   4675      1   1 -0.820000     2.884356794     8.123033690    31.787299279   0   0   0 # o*
   4676      1   2  0.410000     2.450526440     7.363278612    32.191857386   0   0   0 # h*
   4677      1   2  0.410000     3.882783421     8.047154116    31.869069992   0   0   0 # h*
   4678      1   1 -0.820000    10.983207788    21.206615421    55.326826896   0   0   0 # o*
   4679      1   2  0.410000    11.916007298    21.588831366    55.267902524   0   0   0 # h*
   4680      1   2  0.410000    10.887861057    21.088723401    56.309972480   0   0   0 # h*
   4681      1   1 -0.820000     7.740880370     6.776613841    48.689565569   0   0   0 # o*
   4682      1   2  0.410000     7.803471386     5.821455864    48.941238266   0   0   0 # h*
   4683      1   2  0.410000     6.869099942     6.753232423    48.277571889   0   0   0 # h*
   4684      1   1 -0.820000    11.158999091    14.825138754    36.733728684   0   0   0 # o*
   4685      1   2  0.410000    11.447728396    15.773385507    36.551981606   0   0   0 # h*
   4686      1   2  0.410000    11.073007172    14.512365902    35.801286205   0   0   0 # h*
   4687      1   1 -0.820000     2.101503678     6.436878566    48.054405847   0   0   0 # o*
   4688      1   2  0.410000     2.558137701     6.790032279    47.267615396   0   0   0 # h*
   4689      1   2  0.410000     1.267806349     6.982380556    48.041683182   0   0   0 # h*
   4690      1   1 -0.820000    13.124286999     3.557867633    47.765728996   0   0   0 # o*
   4691      1   2  0.410000    13.548344737     3.435602608    46.940550062   0   0   0 # h*
   4692      1   2  0.410000    12.307009035     3.022827382    47.626806106   0   0   0 # h*
   4693      1   1 -0.820000    21.214705662     2.864661094    29.624969822   0   0   0 # o*
   4694      1   2  0.410000    20.303505477     2.557674805    29.694444220   0   0   0 # h*
   4695      1   2  0.410000    21.733466820     2.048692834    29.900256817   0   0   0 # h*
   4696      1   1 -0.820000    11.818295070    20.870717526    67.162258072   0   0   0 # o*
   4697      1   2  0.410000    11.079638664    20.984511985    67.824363498   0   0   0 # h*
   4698      1   2  0.410000    11.471484012    21.316772907    66.403792676   0   0   0 # h*
   4699      1   1 -0.820000     8.017909147    15.283061662    34.522057319   0   0   0 # o*
   4700      1   2  0.410000     7.429508237    15.872871768    34.962091225   0   0   0 # h*
   4701      1   2  0.410000     8.769268387    15.912102428    34.351860856   0   0   0 # h*
   4702      1   1 -0.820000    14.277506461    20.726548340    69.991723765   0   0   0 # o*
   4703      1   2  0.410000    13.537982368    21.354331775    70.345160750   0   0   0 # h*
   4704      1   2  0.410000    14.927027841    20.746067005    70.712621778   0   0   0 # h*
   4705      1   1 -0.820000    12.047746723    18.667278571    63.249479946   0   0   0 # o*
   4706      1   2  0.410000    11.324684793    18.866408028    62.615315053   0   0   0 # h*
   4707      1   2  0.410000    12.197850649    17.721444506    63.110636828   0   0   0 # h*
   4708      1   1 -0.820000     0.454453381     2.170791208    70.406894692   0   0   0 # o*
   4709      1   2  0.410000     0.988007097     1.999836532    69.630521007   0   0   0 # h*
   4710      1   2  0.410000     0.994282744     2.800925097    70.905996412   0   0   0 # h*
   4711      1   1 -0.820000    16.054895788    18.831930921    52.542635217   0   0   0 # o*
   4712      1   2  0.410000    16.299509340    19.219997014    53.434482311   0   0   0 # h*
   4713      1   2  0.410000    15.223417795    18.413970938    52.687193024   0   0   0 # h*
   4714      1   1 -0.820000    12.858999001     9.837018358    38.933404846   0   0   0 # o*
   4715      1   2  0.410000    11.969510674     9.904157562    38.580607464   0   0   0 # h*
   4716      1   2  0.410000    12.942706979    10.723450747    39.354464500   0   0   0 # h*
   4717      1   1 -0.820000     9.826180636    19.792064086    29.680855281   0   0   0 # o*
   4718      1   2  0.410000    10.266695665    18.963739692    29.437108513   0   0   0 # h*
   4719      1   2  0.410000    10.559833580    20.458989314    29.699710590   0   0   0 # h*
   4720      1   1 -0.820000    15.123527922    17.893576840    27.487923484   0   0   0 # o*
   4721      1   2  0.410000    14.593154734    17.352955658    28.087631695   0   0   0 # h*
   4722      1   2  0.410000    14.514154879    18.671932274    27.379280274   0   0   0 # h*
   4723      1   1 -0.820000     5.793425857     8.006647043    53.512529441   0   0   0 # o*
   4724      1   2  0.410000     5.834144944     8.859034147    53.995091630   0   0   0 # h*
   4725      1   2  0.410000     4.837544445     7.894528357    53.361346006   0   0   0 # h*
   4726      1   1 -0.820000     7.804390997     4.427493926    56.461369728   0   0   0 # o*
   4727      1   2  0.410000     8.638139206     3.853824563    56.546650191   0   0   0 # h*
   4728      1   2  0.410000     7.985619410     4.794311339    55.569861402   0   0   0 # h*
   4729      1   1 -0.820000    14.660454715     4.094836288    66.345229953   0   0   0 # o*
   4730      1   2  0.410000    15.179891391     3.901987637    65.526852266   0   0   0 # h*
   4731      1   2  0.410000    14.524786084     3.246200892    66.784563791   0   0   0 # h*
   4732      1   1 -0.820000    22.132798212     6.123519776    67.382171521   0   0   0 # o*
   4733      1   2  0.410000     0.278695931     6.830183374    67.524245359   1   0   0 # h*
   4734      1   2  0.410000    21.260492286     6.570632951    67.542401764   0   0   0 # h*
   4735      1   1 -0.820000    22.129789258    21.784022450    70.211901831   0   0   0 # o*
   4736      1   2  0.410000     0.439904799    21.683803594    70.730039146   1   0   0 # h*
   4737      1   2  0.410000    -0.061257692    21.461878048    69.330411333   1   0   0 # h*
   4738      1   1 -0.820000    20.960604344    10.189852575    30.269265437   0   0   0 # o*
   4739      1   2  0.410000    20.474825114     9.432524047    30.601088934   0   0   0 # h*
   4740      1   2  0.410000    21.377561498     9.695448231    29.475158744   0   0   0 # h*
   4741      1   1 -0.820000     7.947247195    16.899656256    35.572390906   0   0   0 # o*
   4742      1   2  0.410000     7.088410807    16.847103651    35.071481494   0   0   0 # h*
   4743      1   2  0.410000     8.307031043    16.014715044    35.400240548   0   0   0 # h*
   4744      1   1 -0.820000    15.221742580     2.487504375    60.445644707   0   0   0 # o*
   4745      1   2  0.410000    15.600669401     3.306070058    60.033115610   0   0   0 # h*
   4746      1   2  0.410000    14.590535557     2.866223970    61.095435583   0   0   0 # h*
   4747      1   1 -0.820000    20.181195280    18.803208417    32.490696526   0   0   0 # o*
   4748      1   2  0.410000    20.693482780    18.449055259    33.264951932   0   0   0 # h*
   4749      1   2  0.410000    20.778399737    18.446279691    31.777973974   0   0   0 # h*
   4750      1   1 -0.820000     4.351241066     5.149885766    64.000260841   0   0   0 # o*
   4751      1   2  0.410000     4.605882251     5.093725428    64.906575961   0   0   0 # h*
   4752      1   2  0.410000     3.648545117     5.865775960    64.043726523   0   0   0 # h*
   4753      1   1 -0.820000    14.175051580     8.444866693    32.509824640   0   0   0 # o*
   4754      1   2  0.410000    13.184609029     8.336727417    32.666687203   0   0   0 # h*
   4755      1   2  0.410000    14.550597270     7.564307419    32.686870370   0   0   0 # h*
   4756      1   1 -0.820000    19.305413370     1.274841028    71.686920525   0   0   0 # o*
   4757      1   2  0.410000    20.044288331     1.649613070    71.126615225   0   0   0 # h*
   4758      1   2  0.410000    18.788293972     2.093392222    71.860972036   0   0   0 # h*
   4759      1   1 -0.820000    14.111052312     0.767573223    71.702468507   0   0   0 # o*
   4760      1   2  0.410000    14.705916292     1.264808423    72.344081879   0   0   0 # h*
   4761      1   2  0.410000    14.537141215    22.148718434    71.604972427   0  -1   0 # h*
   4762      1   1 -0.820000    20.527819471     1.479742705    36.569754091   0   0   0 # o*
   4763      1   2  0.410000    20.910854677     1.264647527    37.474480519   0   0   0 # h*
   4764      1   2  0.410000    21.250870670     1.251182461    35.940705241   0   0   0 # h*
   4765      1   1 -0.820000     6.732978117     6.335822299    58.101300350   0   0   0 # o*
   4766      1   2  0.410000     7.255668221     5.727448329    57.525870763   0   0   0 # h*
   4767      1   2  0.410000     7.361215553     7.085244832    58.176075331   0   0   0 # h*
   4768      1   1 -0.820000     5.277785065    20.119914214    69.134847596   0   0   0 # o*
   4769      1   2  0.410000     5.159539710    19.155132029    68.946644827   0   0   0 # h*
   4770      1   2  0.410000     5.377991490    20.131503090    70.167695100   0   0   0 # h*
   4771      1   1 -0.820000    20.286251073     4.255950068    60.605538553   0   0   0 # o*
   4772      1   2  0.410000    20.936467959     3.666363922    60.127494903   0   0   0 # h*
   4773      1   2  0.410000    20.798085551     4.356084279    61.422396794   0   0   0 # h*
   4774      1   1 -0.820000     2.688082924    19.933389508    50.364154935   0   0   0 # o*
   4775      1   2  0.410000     1.765364859    20.196353017    50.199728642   0   0   0 # h*
   4776      1   2  0.410000     3.144467512    20.758730347    50.003969979   0   0   0 # h*
   4777      1   1 -0.820000     9.534714688    12.747200557    44.017893923   0   0   0 # o*
   4778      1   2  0.410000     8.666634667    12.706054931    44.392824242   0   0   0 # h*
   4779      1   2  0.410000     9.243316415    13.160541969    43.166599615   0   0   0 # h*
   4780      1   1 -0.820000    19.089784192     4.887265470    50.472118244   0   0   0 # o*
   4781      1   2  0.410000    18.705177469     4.491690304    49.659942962   0   0   0 # h*
   4782      1   2  0.410000    18.694889298     4.267081798    51.121543229   0   0   0 # h*
   4783      1   1 -0.820000     0.580030400    13.177297004    58.030736290   0   0   0 # o*
   4784      1   2  0.410000     0.219284777    12.499271379    57.409320382   0   0   0 # h*
   4785      1   2  0.410000     0.586707973    12.662896361    58.853094064   0   0   0 # h*
   4786      1   1 -0.820000     9.080159825     1.182720693    51.138132691   0   0   0 # o*
   4787      1   2  0.410000     8.949796093     0.230178293    51.437890739   0   0   0 # h*
   4788      1   2  0.410000     9.214858792     1.127754410    50.159698153   0   0   0 # h*
   4789      1   1 -0.820000     2.875543467     4.234363520    42.060404545   0   0   0 # o*
   4790      1   2  0.410000     2.824321195     4.655867336    41.140653245   0   0   0 # h*
   4791      1   2  0.410000     1.901677249     4.034607379    42.178112668   0   0   0 # h*
   4792      1   1 -0.820000     8.817412051     6.624586671    72.324894238   0   0   0 # o*
   4793      1   2  0.410000     8.236761637     5.818484289    72.103226748   0   0   0 # h*
   4794      1   2  0.410000     9.739548526     6.164337315    72.381218639   0   0   0 # h*
   4795      1   1 -0.820000     7.731883047     4.039589473    46.055073158   0   0   0 # o*
   4796      1   2  0.410000     7.681996161     3.947215007    47.020488009   0   0   0 # h*
   4797      1   2  0.410000     8.418145762     4.754871939    45.966768686   0   0   0 # h*
   4798      1   1 -0.820000    16.696932990    11.668495478    62.829072942   0   0   0 # o*
   4799      1   2  0.410000    16.913525551    12.639668587    62.745235624   0   0   0 # h*
   4800      1   2  0.410000    17.007530430    11.544223226    63.766550770   0   0   0 # h*
   4801      1   1 -0.820000     8.233566015    14.646436103    51.890030568   0   0   0 # o*
   4802      1   2  0.410000     7.362222501    14.152555900    51.658279088   0   0   0 # h*
   4803      1   2  0.410000     8.835891458    13.902624642    52.035618111   0   0   0 # h*
   4804      1   1 -0.820000    16.311659635    18.941891071    68.668389291   0   0   0 # o*
   4805      1   2  0.410000    15.697803072    19.616385463    69.002810851   0   0   0 # h*
   4806      1   2  0.410000    15.597398483    18.372339840    68.295822917   0   0   0 # h*
   4807      1   1 -0.820000    12.771845427     8.534024176    61.499346228   0   0   0 # o*
   4808      1   2  0.410000    12.527848431     9.376405703    61.985679087   0   0   0 # h*
   4809      1   2  0.410000    11.840760786     8.322791903    61.245434514   0   0   0 # h*
   4810      1   1 -0.820000     5.547490594    17.492919895    52.607621275   0   0   0 # o*
   4811      1   2  0.410000     5.042524998    17.201350424    53.371974671   0   0   0 # h*
   4812      1   2  0.410000     6.309723375    17.794743281    53.082089699   0   0   0 # h*
   4813      1   1 -0.820000    12.676861196    15.639282609    31.729942636   0   0   0 # o*
   4814      1   2  0.410000    11.977941094    15.027722827    31.402903919   0   0   0 # h*
   4815      1   2  0.410000    12.211525323    16.453190001    31.853869726   0   0   0 # h*
   4816      1   1 -0.820000     9.554572471     3.454582631    36.371401124   0   0   0 # o*
   4817      1   2  0.410000     9.558375392     2.775747350    37.057216668   0   0   0 # h*
   4818      1   2  0.410000    10.455906927     3.371115438    36.010704070   0   0   0 # h*
   4819      1   1 -0.820000    18.830299372     7.515880616    46.723835347   0   0   0 # o*
   4820      1   2  0.410000    18.618145108     6.763748059    46.074902045   0   0   0 # h*
   4821      1   2  0.410000    17.964255916     7.974380228    46.711640776   0   0   0 # h*
   4822      1   1 -0.820000     7.170870276     3.963496006    32.066498473   0   0   0 # o*
   4823      1   2  0.410000     7.810649514     3.813208867    31.311941604   0   0   0 # h*
   4824      1   2  0.410000     7.774615773     4.421284699    32.729609291   0   0   0 # h*
   4825      1   1 -0.820000     6.689051408    12.280180061    57.814517286   0   0   0 # o*
   4826      1   2  0.410000     6.142036925    12.168388131    58.625767908   0   0   0 # h*
   4827      1   2  0.410000     7.306753975    12.891454075    58.220881591   0   0   0 # h*
   4828      1   1 -0.820000     7.922316515     8.255051518    70.397611904   0   0   0 # o*
   4829      1   2  0.410000     8.222295521     7.858300540    71.239651411   0   0   0 # h*
   4830      1   2  0.410000     8.285132552     7.687550803    69.655006920   0   0   0 # h*
   4831      1   1 -0.820000     6.393532954    17.094096728    66.864113320   0   0   0 # o*
   4832      1   2  0.410000     6.753134273    16.277569698    66.360429823   0   0   0 # h*
   4833      1   2  0.410000     6.699775318    17.790705698    66.270190361   0   0   0 # h*
   4834      1   1 -0.820000     1.417454727     3.105347405    48.483607310   0   0   0 # o*
   4835      1   2  0.410000     1.492749395     2.135192209    48.468971868   0   0   0 # h*
   4836      1   2  0.410000     2.342297830     3.426223291    48.490233558   0   0   0 # h*
   4837      1   1 -0.820000     5.733554060     7.802721617    65.597782435   0   0   0 # o*
   4838      1   2  0.410000     6.120992364     8.509647095    66.112611344   0   0   0 # h*
   4839      1   2  0.410000     5.826131883     8.230597878    64.730267691   0   0   0 # h*
   4840      1   1 -0.820000    17.490541839    12.724194774    36.274054290   0   0   0 # o*
   4841      1   2  0.410000    18.410026727    12.315159270    36.361402387   0   0   0 # h*
   4842      1   2  0.410000    16.973289875    11.999079037    36.746381049   0   0   0 # h*
   4843      1   1 -0.820000    13.992465013    21.637544123    40.576980880   0   0   0 # o*
   4844      1   2  0.410000    14.456643206     0.003284178    41.140001512   0   1   0 # h*
   4845      1   2  0.410000    13.176384004    21.541090498    41.065835977   0   0   0 # h*
   4846      1   1 -0.820000    16.395200847    21.070024415    71.761216712   0   0   0 # o*
   4847      1   2  0.410000    17.108307178    20.439677596    71.995214658   0   0   0 # h*
   4848      1   2  0.410000    16.894062843    21.942206324    71.915398377   0   0   0 # h*
   4849      1   1 -0.820000     6.508804889    12.036502096    54.663471040   0   0   0 # o*
   4850      1   2  0.410000     7.267089897    12.518643304    55.119949632   0   0   0 # h*
   4851      1   2  0.410000     5.885693188    12.768054668    54.609296956   0   0   0 # h*
   4852      1   1 -0.820000    13.518530653    19.196983229    39.135614657   0   0   0 # o*
   4853      1   2  0.410000    13.709989593    20.090465662    39.531699909   0   0   0 # h*
   4854      1   2  0.410000    13.133854736    19.607172366    38.355574254   0   0   0 # h*
   4855      1   1 -0.820000    16.516523252    16.026413841    64.902002904   0   0   0 # o*
   4856      1   2  0.410000    17.078682976    16.399557048    65.611574289   0   0   0 # h*
   4857      1   2  0.410000    15.950461419    15.438922124    65.437624195   0   0   0 # h*
   4858      1   1 -0.820000    12.043341715    20.994459240    32.921149708   0   0   0 # o*
   4859      1   2  0.410000    12.475905826    21.483879439    33.658735657   0   0   0 # h*
   4860      1   2  0.410000    11.103201706    21.292915245    33.018765058   0   0   0 # h*
   4861      1   1 -0.820000     2.595671043     1.399681747    29.937591569   0   0   0 # o*
   4862      1   2  0.410000     1.630203221     1.661967433    30.058393316   0   0   0 # h*
   4863      1   2  0.410000     3.065242251     1.573971883    30.811826722   0   0   0 # h*
   4864      1   1 -0.820000    10.113701244     2.115812425    39.994214767   0   0   0 # o*
   4865      1   2  0.410000     9.550938890     2.661125327    40.627013574   0   0   0 # h*
   4866      1   2  0.410000    10.434266160     2.925616529    39.517587748   0   0   0 # h*
   4867      1   1 -0.820000    11.911985942     0.776096063    71.377141785   0   0   0 # o*
   4868      1   2  0.410000    12.546007866     0.833234641    72.112037885   0   0   0 # h*
   4869      1   2  0.410000    11.600070529    22.139631987    71.522282362   0  -1   0 # h*
   4870      1   1 -0.820000     9.265420683     1.818498877    73.070595037   0   0   0 # o*
   4871      1   2  0.410000     9.671034243     2.583668268    73.518679998   0   0   0 # h*
   4872      1   2  0.410000     9.971692917     1.556144002    72.413579293   0   0   0 # h*
   4873      1   1 -0.820000     6.054903372    16.655060838    47.407136598   0   0   0 # o*
   4874      1   2  0.410000     6.040107142    17.554910753    47.130159975   0   0   0 # h*
   4875      1   2  0.410000     6.048297469    16.748080035    48.408911237   0   0   0 # h*
   4876      1   1 -0.820000     4.716909424    18.968220655    48.227886477   0   0   0 # o*
   4877      1   2  0.410000     5.475018852    19.120458457    48.837399301   0   0   0 # h*
   4878      1   2  0.410000     4.007456919    19.123685619    48.902729250   0   0   0 # h*
   4879      1   1 -0.820000     4.156736552     7.361683985    57.110705900   0   0   0 # o*
   4880      1   2  0.410000     5.032952261     7.247117038    57.492126854   0   0   0 # h*
   4881      1   2  0.410000     4.127466258     8.285895547    56.992140032   0   0   0 # h*
   4882      1   1 -0.820000     8.899463875    20.491343791    32.617282202   0   0   0 # o*
   4883      1   2  0.410000     8.218432454    19.874856214    32.955126752   0   0   0 # h*
   4884      1   2  0.410000     8.932814382    20.244514529    31.650122442   0   0   0 # h*
   4885      1   1 -0.820000    19.953445941    21.413096908    56.694699508   0   0   0 # o*
   4886      1   2  0.410000    20.041502082    20.567870254    56.231962389   0   0   0 # h*
   4887      1   2  0.410000    19.059453727    21.332887458    56.956720101   0   0   0 # h*
   4888      1   1 -0.820000    12.655264121    21.890420126    52.274923860   0   0   0 # o*
   4889      1   2  0.410000    13.595039577    22.122058907    52.511506632   0   0   0 # h*
   4890      1   2  0.410000    12.761850563    20.928366217    52.150092645   0   0   0 # h*
   4891      1   1 -0.820000     4.459451437     2.971942440    43.993591442   0   0   0 # o*
   4892      1   2  0.410000     4.990182923     3.778393179    43.817916354   0   0   0 # h*
   4893      1   2  0.410000     3.744426413     3.054517668    43.306669326   0   0   0 # h*
   4894      1   1 -0.820000     1.750805215    10.538613197    45.811406109   0   0   0 # o*
   4895      1   2  0.410000     1.539508690    10.742432253    44.878780128   0   0   0 # h*
   4896      1   2  0.410000     1.102834982    11.046659738    46.333539464   0   0   0 # h*

Bonds

     1   1      1      3
     2   1      1      2
     3   2      4      9
     4   1      5     25
     5   1      5     26
     6   3      8     12
     7   4      8     13
     8   4      8   2434
     9   3      8     57
    10   5      9     11
    11   6      9     14
    12   5      9     16
    13   3     10     12
    14   3     10     16
    15   4     10     17
    16   4     10     18
    17   3    100     11
    18   7     14     20
    19   1     15     21
    20   1     15     22
    21   1     19     23
    22   1     19     24
    23   2     27     32
    24   1     28     48
    25   1     28     49
    26   3     31     35
    27   4     31     36
    28   4     31   2435
    29   3     31     80
    30   5     32     34
    31   6     32     37
    32   5     32     39
    33   3     33     35
    34   3     33     39
    35   4     33     40
    36   4     33     41
    37   3    120     34
    38   7     37     43
    39   1     38     44
    40   1     38     45
    41   1     42     46
    42   1     42     47
    43   2     50     55
    44   1     51     71
    45   1     51     72
    46   3     54     58
    47   4     54     59
    48   4     54   2436
    49   3     54    103
    50   5     55     57
    51   6     55     60
    52   5     55     62
    53   3     56     58
    54   3     56     62
    55   4     56     63
    56   4     56     64
    57   7     60     66
    58   1     61     67
    59   1     61     68
    60   1     65     69
    61   1     65     70
    62   2     73     78
    63   1     74     94
    64   1     74     95
    65   3     77     81
    66   4     77     82
    67   4     77   2437
    68   3     77    123
    69   5     78     80
    70   6     78     83
    71   5     78     85
    72   3     79     81
    73   3     79     85
    74   4     79     86
    75   4     79     87
    76   7     83     89
    77   1     84     90
    78   1     84     91
    79   1     88     92
    80   1     88     93
    81   2     96    101
    82   1     97    114
    83   1     97    115
    84   3    100    104
    85   4    100    105
    86   4    100   2448
    87   5    101    103
    88   6    101    106
    89   5    101    108
    90   3    102    104
    91   3    102    108
    92   4    102    109
    93   4    102    110
    94   7    106    111
    95   1    107    112
    96   1    107    113
    97   2    116    121
    98   1    117    134
    99   1    117    135
   100   3    120    124
   101   4    120    125
   102   4    120   2449
   103   5    121    123
   104   6    121    126
   105   5    121    128
   106   3    122    124
   107   3    122    128
   108   4    122    129
   109   4    122    130
   110   7    126    131
   111   1    127    132
   112   1    127    133
   113   3    138    141
   114   3    138    142
   115   4    138    143
   116   4    138    144
   117   5    139    141
   118   6    139    146
   119   5    139    148
   120   2    177    139
   121   3    140    142
   122   4    140    149
   123   4    140   2418
   124   3    140    548
   125   2    145    172
   126   7    146    207
   127   1    147    210
   128   1    147    211
   129   3    340    148
   130   1    150    234
   131   1    150    235
   132   1    151    212
   133   1    151    213
   134   1    153    214
   135   1    153    215
   136   3    156    159
   137   3    156    160
   138   4    156    161
   139   4    156    162
   140   5    157    159
   141   6    157    164
   142   2    193    157
   143   5    157    366
   144   3    158    160
   145   3    158    166
   146   4    158    167
   147   4    158   2438
   148   2    163    188
   149   7    164    205
   150   1    165    228
   151   1    165    229
   152   5   1158    166
   153   1    168    218
   154   1    168    219
   155   3    171    175
   156   4    171    176
   157   4    171   2439
   158   3    171    374
   159   5    172    174
   160   6    172    178
   161   5    172    180
   162   3    173    175
   163   3    173    180
   164   4    173    181
   165   4    173    182
   166   3    567    174
   167   7    178    204
   168   1    179    230
   169   1    179    231
   170   1    183    208
   171   1    183    209
   172   1    184    232
   173   1    184    233
   174   3    187    190
   175   4    187    192
   176   4    187   2440
   177   3    187   1164
   178   5    188    190
   179   6    188    194
   180   5    188    196
   181   3    189    191
   182   3    189    196
   183   4    189    197
   184   4    189    198
   185   3    387    191
   186   7    194    206
   187   1    195    216
   188   1    195    217
   189   1    199    224
   190   1    199    225
   191   1    200    222
   192   1    200    223
   193   1    201    220
   194   1    201    221
   195   1    203    226
   196   1    203    227
   197   3    238    241
   198   3    238    242
   199   4    238    243
   200   4    238    244
   201   5    239    241
   202   6    239    246
   203   5    239    248
   204   2    277    239
   205   3    240    242
   206   4    240    249
   207   4    240   2419
   208   3    240    635
   209   2    245    272
   210   7    246    307
   211   1    247    310
   212   1    247    311
   213   3    440    248
   214   1    250    334
   215   1    250    335
   216   1    251    312
   217   1    251    313
   218   1    253    314
   219   1    253    315
   220   3    256    259
   221   3    256    260
   222   4    256    261
   223   4    256    262
   224   5    257    259
   225   6    257    264
   226   2    293    257
   227   5    257    466
   228   3    258    260
   229   3    258    266
   230   4    258    267
   231   4    258   2441
   232   2    263    288
   233   7    264    305
   234   1    265    328
   235   1    265    329
   236   5   1171    266
   237   1    268    318
   238   1    268    319
   239   3    271    275
   240   4    271    276
   241   4    271   2442
   242   3    271    474
   243   5    272    274
   244   6    272    278
   245   5    272    280
   246   3    273    275
   247   3    273    280
   248   4    273    281
   249   4    273    282
   250   3    654    274
   251   7    278    304
   252   1    279    330
   253   1    279    331
   254   1    283    308
   255   1    283    309
   256   1    284    332
   257   1    284    333
   258   3    287    290
   259   4    287    292
   260   4    287   2443
   261   3    287   1177
   262   5    288    290
   263   6    288    294
   264   5    288    296
   265   3    289    291
   266   3    289    296
   267   4    289    297
   268   4    289    298
   269   3    487    291
   270   7    294    306
   271   1    295    316
   272   1    295    317
   273   1    299    324
   274   1    299    325
   275   1    300    322
   276   1    300    323
   277   1    301    320
   278   1    301    321
   279   1    303    326
   280   1    303    327
   281   3    338    341
   282   3    338    342
   283   4    338    343
   284   4    338    344
   285   5    339    341
   286   6    339    346
   287   5    339    348
   288   2    377    339
   289   3    340    342
   290   4    340    349
   291   4    340   2404
   292   2    345    372
   293   7    346    407
   294   1    347    410
   295   1    347    411
   296   3    540    348
   297   1    350    434
   298   1    350    435
   299   1    351    412
   300   1    351    413
   301   1    353    414
   302   1    353    415
   303   3    356    359
   304   3    356    360
   305   4    356    361
   306   4    356    362
   307   5    357    359
   308   6    357    364
   309   2    393    357
   310   5    357    564
   311   3    358    360
   312   3    358    366
   313   4    358    367
   314   4    358   2405
   315   2    363    388
   316   7    364    405
   317   1    365    428
   318   1    365    429
   319   1    368    418
   320   1    368    419
   321   3    371    375
   322   4    371    376
   323   4    371   2406
   324   3    371    570
   325   5    372    374
   326   6    372    378
   327   5    372    380
   328   3    373    375
   329   3    373    380
   330   4    373    381
   331   4    373    382
   332   7    378    404
   333   1    379    430
   334   1    379    431
   335   1    383    408
   336   1    383    409
   337   1    384    432
   338   1    384    433
   339   3    387    390
   340   4    387    392
   341   4    387   2407
   342   5    388    390
   343   6    388    394
   344   5    388    396
   345   3    389    391
   346   3    389    396
   347   4    389    397
   348   4    389    398
   349   3    581    391
   350   7    394    406
   351   1    395    416
   352   1    395    417
   353   1    399    424
   354   1    399    425
   355   1    400    422
   356   1    400    423
   357   1    401    420
   358   1    401    421
   359   1    403    426
   360   1    403    427
   361   3    438    441
   362   3    438    442
   363   4    438    443
   364   4    438    444
   365   5    439    441
   366   6    439    446
   367   5    439    448
   368   2    477    439
   369   3    440    442
   370   4    440    449
   371   4    440   2408
   372   2    445    472
   373   7    446    507
   374   1    447    510
   375   1    447    511
   376   3    627    448
   377   1    450    534
   378   1    450    535
   379   1    451    512
   380   1    451    513
   381   1    453    514
   382   1    453    515
   383   3    456    459
   384   3    456    460
   385   4    456    461
   386   4    456    462
   387   5    457    459
   388   6    457    464
   389   2    493    457
   390   5    457    651
   391   3    458    460
   392   3    458    466
   393   4    458    467
   394   4    458   2409
   395   2    463    488
   396   7    464    505
   397   1    465    528
   398   1    465    529
   399   1    468    518
   400   1    468    519
   401   3    471    475
   402   4    471    476
   403   4    471   2410
   404   3    471    657
   405   5    472    474
   406   6    472    478
   407   5    472    480
   408   3    473    475
   409   3    473    480
   410   4    473    481
   411   4    473    482
   412   7    478    504
   413   1    479    530
   414   1    479    531
   415   1    483    508
   416   1    483    509
   417   1    484    532
   418   1    484    533
   419   3    487    490
   420   4    487    492
   421   4    487   2411
   422   5    488    490
   423   6    488    494
   424   5    488    496
   425   3    489    491
   426   3    489    496
   427   4    489    497
   428   4    489    498
   429   3    668    491
   430   7    494    506
   431   1    495    516
   432   1    495    517
   433   1    499    524
   434   1    499    525
   435   1    500    522
   436   1    500    523
   437   1    501    520
   438   1    501    521
   439   1    503    526
   440   1    503    527
   441   3    538    541
   442   3    538    542
   443   4    538    543
   444   4    538    544
   445   5    539    541
   446   6    539    546
   447   5    539    548
   448   2    573    539
   449   3    540    542
   450   4    540    549
   451   4    540   2412
   452   2    545    568
   453   7    546    598
   454   1    547    601
   455   1    547    602
   456   1    550    621
   457   1    550    622
   458   1    551    603
   459   1    551    604
   460   1    553    605
   461   1    553    606
   462   3    556    558
   463   3    556    559
   464   4    556    560
   465   4    556    561
   466   3    557    559
   467   3    557    564
   468   4    557    565
   469   4    557   2413
   470   5   1158    558
   471   2    562    582
   472   1    563    617
   473   1    563    618
   474   3    567    571
   475   4    567    572
   476   4    567   2450
   477   5    568    570
   478   6    568    574
   479   5    568    576
   480   3    569    571
   481   3    569    576
   482   4    569    577
   483   4    569    578
   484   7    574    596
   485   1    575    619
   486   1    575    620
   487   1    579    599
   488   1    579    600
   489   3    581    584
   490   4    581    585
   491   4    581   2414
   492   5    582    584
   493   6    582    586
   494   5    582    588
   495   3    583    588
   496   4    583    589
   497   4    583    590
   498   3    583   1164
   499   7    586    597
   500   1    587    607
   501   1    587    608
   502   1    591    613
   503   1    591    614
   504   1    592    611
   505   1    592    612
   506   1    593    609
   507   1    593    610
   508   1    595    615
   509   1    595    616
   510   3    625    628
   511   3    625    629
   512   4    625    630
   513   4    625    631
   514   5    626    628
   515   6    626    633
   516   5    626    635
   517   2    660    626
   518   3    627    629
   519   4    627    636
   520   4    627   2415
   521   2    632    655
   522   7    633    685
   523   1    634    688
   524   1    634    689
   525   1    637    708
   526   1    637    709
   527   1    638    690
   528   1    638    691
   529   1    640    692
   530   1    640    693
   531   3    643    645
   532   3    643    646
   533   4    643    647
   534   4    643    648
   535   3    644    646
   536   3    644    651
   537   4    644    652
   538   4    644   2416
   539   5   1171    645
   540   2    649    669
   541   1    650    704
   542   1    650    705
   543   3    654    658
   544   4    654    659
   545   4    654   2451
   546   5    655    657
   547   6    655    661
   548   5    655    663
   549   3    656    658
   550   3    656    663
   551   4    656    664
   552   4    656    665
   553   7    661    683
   554   1    662    706
   555   1    662    707
   556   1    666    686
   557   1    666    687
   558   3    668    671
   559   4    668    672
   560   4    668   2417
   561   5    669    671
   562   6    669    673
   563   5    669    675
   564   3    670    675
   565   4    670    676
   566   4    670    677
   567   3    670   1177
   568   7    673    684
   569   1    674    694
   570   1    674    695
   571   1    678    700
   572   1    678    701
   573   1    679    698
   574   1    679    699
   575   1    680    696
   576   1    680    697
   577   1    682    702
   578   1    682    703
   579   3    712    715
   580   3    712    716
   581   4    712    717
   582   4    712    718
   583   5    713    715
   584   6    713    719
   585   5    713    721
   586   2    741    713
   587   3    714    716
   588   4    714    722
   589   4    714   2432
   590   3    714   1029
   591   7    719    764
   592   1    720    767
   593   1    720    768
   594   3    868    721
   595   1    723    769
   596   1    723    770
   597   1    725    771
   598   1    725    772
   599   3    727    730
   600   3    727    731
   601   4    727    732
   602   4    727    733
   603   5    728    730
   604   6    728    735
   605   2    751    728
   606   5    728    891
   607   3    729    731
   608   3    729    737
   609   4    729    738
   610   4    729   2444
   611   2    734    746
   612   7    735    762
   613   1    736    785
   614   1    736    786
   615   5   1184    737
   616   1    739    775
   617   1    739    776
   618   1    742    765
   619   1    742    766
   620   3    745    748
   621   4    745    750
   622   4    745   2445
   623   3    745   1189
   624   5    746    748
   625   6    746    752
   626   5    746    754
   627   3    747    749
   628   3    747    754
   629   4    747    755
   630   4    747    756
   631   3    899    749
   632   7    752    763
   633   1    753    773
   634   1    753    774
   635   1    757    781
   636   1    757    782
   637   1    758    779
   638   1    758    780
   639   1    759    777
   640   1    759    778
   641   1    761    783
   642   1    761    784
   643   3    789    792
   644   3    789    793
   645   4    789    794
   646   4    789    795
   647   5    790    792
   648   6    790    796
   649   5    790    798
   650   2    818    790
   651   3    791    793
   652   4    791    799
   653   4    791   2433
   654   3    791   1096
   655   7    796    841
   656   1    797    844
   657   1    797    845
   658   3    945    798
   659   1    800    846
   660   1    800    847
   661   1    802    848
   662   1    802    849
   663   3    804    807
   664   3    804    808
   665   4    804    809
   666   4    804    810
   667   5    805    807
   668   6    805    812
   669   2    828    805
   670   5    805    968
   671   3    806    808
   672   3    806    814
   673   4    806    815
   674   4    806   2446
   675   2    811    823
   676   7    812    839
   677   1    813    862
   678   1    813    863
   679   5   1194    814
   680   1    816    852
   681   1    816    853
   682   1    819    842
   683   1    819    843
   684   3    822    825
   685   4    822    827
   686   4    822   2447
   687   3    822   1199
   688   5    823    825
   689   6    823    829
   690   5    823    831
   691   3    824    826
   692   3    824    831
   693   4    824    832
   694   4    824    833
   695   3    976    826
   696   7    829    840
   697   1    830    850
   698   1    830    851
   699   1    834    858
   700   1    834    859
   701   1    835    856
   702   1    835    857
   703   1    836    854
   704   1    836    855
   705   1    838    860
   706   1    838    861
   707   3    866    869
   708   3    866    870
   709   4    866    871
   710   4    866    872
   711   5    867    869
   712   6    867    873
   713   5    867    875
   714   2    895    867
   715   3    868    870
   716   4    868    876
   717   4    868   2420
   718   7    873    918
   719   1    874    921
   720   1    874    922
   721   3   1022    875
   722   1    877    923
   723   1    877    924
   724   1    879    925
   725   1    879    926
   726   3    881    884
   727   3    881    885
   728   4    881    886
   729   4    881    887
   730   5    882    884
   731   6    882    889
   732   2    905    882
   733   5    882   1043
   734   3    883    885
   735   3    883    891
   736   4    883    892
   737   4    883   2421
   738   2    888    900
   739   7    889    916
   740   1    890    939
   741   1    890    940
   742   1    893    929
   743   1    893    930
   744   1    896    919
   745   1    896    920
   746   3    899    902
   747   4    899    904
   748   4    899   2422
   749   5    900    902
   750   6    900    906
   751   5    900    908
   752   3    901    903
   753   3    901    908
   754   4    901    909
   755   4    901    910
   756   3   1048    903
   757   7    906    917
   758   1    907    927
   759   1    907    928
   760   1    911    935
   761   1    911    936
   762   1    912    933
   763   1    912    934
   764   1    913    931
   765   1    913    932
   766   1    915    937
   767   1    915    938
   768   3    943    946
   769   3    943    947
   770   4    943    948
   771   4    943    949
   772   5    944    946
   773   6    944    950
   774   5    944    952
   775   2    972    944
   776   3    945    947
   777   4    945    953
   778   4    945   2423
   779   7    950    995
   780   1    951    998
   781   1    951    999
   782   3   1089    952
   783   1    954   1000
   784   1    954   1001
   785   1    956   1002
   786   1    956   1003
   787   3    958    961
   788   3    958    962
   789   4    958    963
   790   4    958    964
   791   5    959    961
   792   6    959    966
   793   2    982    959
   794   5    959   1110
   795   3    960    962
   796   3    960    968
   797   4    960    969
   798   4    960   2424
   799   2    965    977
   800   7    966    993
   801   1    967   1016
   802   1    967   1017
   803   1    970   1006
   804   1    970   1007
   805   1    973    996
   806   1    973    997
   807   3    976    979
   808   4    976    981
   809   4    976   2425
   810   5    977    979
   811   6    977    983
   812   5    977    985
   813   3    978    980
   814   3    978    985
   815   4    978    986
   816   4    978    987
   817   3   1115    980
   818   7    983    994
   819   1    984   1004
   820   1    984   1005
   821   1    988   1012
   822   1    988   1013
   823   1    989   1010
   824   1    989   1011
   825   1    990   1008
   826   1    990   1009
   827   1    992   1014
   828   1    992   1015
   829   3   1020   1023
   830   3   1020   1024
   831   4   1020   1025
   832   4   1020   1026
   833   5   1021   1023
   834   6   1021   1027
   835   5   1021   1029
   836   2   1045   1021
   837   3   1022   1024
   838   4   1022   1030
   839   4   1022   2426
   840   7   1027   1064
   841   1   1028   1067
   842   1   1028   1068
   843   1   1031   1069
   844   1   1031   1070
   845   1   1033   1071
   846   1   1033   1072
   847   3   1035   1037
   848   3   1035   1038
   849   4   1035   1039
   850   4   1035   1040
   851   3   1036   1038
   852   3   1036   1043
   853   4   1036   1044
   854   4   1036   2427
   855   5   1184   1037
   856   2   1041   1049
   857   1   1042   1083
   858   1   1042   1084
   859   1   1046   1065
   860   1   1046   1066
   861   3   1048   1051
   862   4   1048   1052
   863   4   1048   2428
   864   5   1049   1051
   865   6   1049   1053
   866   5   1049   1055
   867   3   1050   1055
   868   4   1050   1056
   869   4   1050   1057
   870   3   1050   1189
   871   7   1053   1063
   872   1   1054   1073
   873   1   1054   1074
   874   1   1058   1079
   875   1   1058   1080
   876   1   1059   1077
   877   1   1059   1078
   878   1   1060   1075
   879   1   1060   1076
   880   1   1062   1081
   881   1   1062   1082
   882   3   1087   1090
   883   3   1087   1091
   884   4   1087   1092
   885   4   1087   1093
   886   5   1088   1090
   887   6   1088   1094
   888   5   1088   1096
   889   2   1112   1088
   890   3   1089   1091
   891   4   1089   1097
   892   4   1089   2429
   893   7   1094   1131
   894   1   1095   1134
   895   1   1095   1135
   896   1   1098   1136
   897   1   1098   1137
   898   1   1100   1138
   899   1   1100   1139
   900   3   1102   1104
   901   3   1102   1105
   902   4   1102   1106
   903   4   1102   1107
   904   3   1103   1105
   905   3   1103   1110
   906   4   1103   1111
   907   4   1103   2430
   908   5   1194   1104
   909   2   1108   1116
   910   1   1109   1150
   911   1   1109   1151
   912   1   1113   1132
   913   1   1113   1133
   914   3   1115   1118
   915   4   1115   1119
   916   4   1115   2431
   917   5   1116   1118
   918   6   1116   1120
   919   5   1116   1122
   920   3   1117   1122
   921   4   1117   1123
   922   4   1117   1124
   923   3   1117   1199
   924   7   1120   1130
   925   1   1121   1140
   926   1   1121   1141
   927   1   1125   1146
   928   1   1125   1147
   929   1   1126   1144
   930   1   1126   1145
   931   1   1127   1142
   932   1   1127   1143
   933   1   1129   1148
   934   1   1129   1149
   935   1   1152   1153
   936   1   1152   1154
   937   1   1155   1156
   938   1   1155   1157
   939   6   1158   1159
   940   2   1165   1158
   941   7   1159   1166
   942   1   1160   1167
   943   1   1160   1168
   944   1   1162   1169
   945   1   1162   1170
   946   6   1171   1172
   947   2   1178   1171
   948   7   1172   1179
   949   1   1173   1180
   950   1   1173   1181
   951   1   1175   1182
   952   1   1175   1183
   953   6   1184   1185
   954   2   1190   1184
   955   7   1185   1191
   956   1   1186   1192
   957   1   1186   1193
   958   6   1194   1195
   959   2   1200   1194
   960   7   1195   1201
   961   1   1196   1202
   962   1   1196   1203
   963   2   1204   1209
   964   1   1205   1224
   965   1   1205   1225
   966   3   1208   1211
   967   3   1208   1212
   968   4   1208   1213
   969   4   1208   2494
   970   5   1209   1211
   971   6   1209   1214
   972   5   1209   1216
   973   3   1210   1212
   974   4   1210   1217
   975   4   1210   2384
   976   3   1210   1306
   977   7   1214   1219
   978   1   1215   1220
   979   1   1215   1221
   980   3   1254   1216
   981   1   1218   1222
   982   1   1218   1223
   983   2   1226   1231
   984   1   1227   1246
   985   1   1227   1247
   986   3   1230   1233
   987   3   1230   1234
   988   4   1230   1235
   989   4   1230   2495
   990   5   1231   1233
   991   6   1231   1236
   992   5   1231   1238
   993   3   1232   1234
   994   4   1232   1239
   995   4   1232   2385
   996   3   1232   1329
   997   7   1236   1241
   998   1   1237   1242
   999   1   1237   1243
  1000   3   1277   1238
  1001   1   1240   1244
  1002   1   1240   1245
  1003   2   1248   1253
  1004   1   1249   1269
  1005   1   1249   1270
  1006   3   1252   1255
  1007   3   1252   1256
  1008   4   1252   1257
  1009   4   1252   2496
  1010   5   1253   1255
  1011   6   1253   1258
  1012   5   1253   1260
  1013   3   1254   1256
  1014   4   1254   1261
  1015   4   1254   1262
  1016   7   1258   1264
  1017   1   1259   1265
  1018   1   1259   1266
  1019   3   1300   1260
  1020   1   1263   1267
  1021   1   1263   1268
  1022   2   1271   1276
  1023   1   1272   1292
  1024   1   1272   1293
  1025   3   1275   1278
  1026   3   1275   1279
  1027   4   1275   1280
  1028   4   1275   2497
  1029   5   1276   1278
  1030   6   1276   1281
  1031   5   1276   1283
  1032   3   1277   1279
  1033   4   1277   1284
  1034   4   1277   1285
  1035   7   1281   1287
  1036   1   1282   1288
  1037   1   1282   1289
  1038   3   1323   1283
  1039   1   1286   1290
  1040   1   1286   1291
  1041   2   1294   1299
  1042   1   1295   1315
  1043   1   1295   1316
  1044   3   1298   1301
  1045   3   1298   1302
  1046   4   1298   1303
  1047   4   1298   2498
  1048   5   1299   1301
  1049   6   1299   1304
  1050   5   1299   1306
  1051   3   1300   1302
  1052   4   1300   1307
  1053   4   1300   1308
  1054   7   1304   1310
  1055   1   1305   1311
  1056   1   1305   1312
  1057   1   1309   1313
  1058   1   1309   1314
  1059   2   1317   1322
  1060   1   1318   1338
  1061   1   1318   1339
  1062   3   1321   1324
  1063   3   1321   1325
  1064   4   1321   1326
  1065   4   1321   2499
  1066   5   1322   1324
  1067   6   1322   1327
  1068   5   1322   1329
  1069   3   1323   1325
  1070   4   1323   1330
  1071   4   1323   1331
  1072   7   1327   1333
  1073   1   1328   1334
  1074   1   1328   1335
  1075   1   1332   1336
  1076   1   1332   1337
  1077   3   1342   1346
  1078   4   1342   1347
  1079   4   1342   1348
  1080   3   1342   1535
  1081   5   1343   1345
  1082   6   1343   1350
  1083   5   1343   1352
  1084   2   1381   1343
  1085   3   1344   1346
  1086   3   1344   1352
  1087   4   1344   1353
  1088   4   1344   2452
  1089   3   1732   1345
  1090   2   1349   1376
  1091   7   1350   1408
  1092   1   1351   1411
  1093   1   1351   1412
  1094   1   1354   1433
  1095   1   1354   1434
  1096   1   1355   1413
  1097   1   1355   1414
  1098   1   1357   1415
  1099   1   1357   1416
  1100   3   1360   1363
  1101   4   1360   1365
  1102   4   1360   1366
  1103   3   1360   2377
  1104   5   1361   1363
  1105   6   1361   1368
  1106   5   1361   1370
  1107   2   1396   1361
  1108   3   1362   1370
  1109   4   1362   1371
  1110   4   1362   2453
  1111   3   1362   1364
  1112   3   1550   1364
  1113   2   1367   1391
  1114   7   1368   1407
  1115   1   1369   1427
  1116   1   1369   1428
  1117   1   1372   1419
  1118   1   1372   1420
  1119   3   1375   1378
  1120   3   1375   1379
  1121   4   1375   1380
  1122   4   1375   2454
  1123   5   1376   1378
  1124   6   1376   1382
  1125   5   1376   1384
  1126   3   1377   1379
  1127   4   1377   1385
  1128   4   1377   2386
  1129   3   1377   1772
  1130   7   1382   1406
  1131   1   1383   1429
  1132   1   1383   1430
  1133   3   1567   1384
  1134   1   1386   1409
  1135   1   1386   1410
  1136   1   1387   1431
  1137   1   1387   1432
  1138   3   1390   1393
  1139   3   1390   1394
  1140   4   1390   1395
  1141   4   1390   2455
  1142   6   1391   1397
  1143   5   1391   1399
  1144   5   1391   1782
  1145   3   1392   1394
  1146   3   1392   1399
  1147   4   1392   1400
  1148   4   1392   1401
  1149   5   1582   1393
  1150   7   1397   2388
  1151   1   1398   1417
  1152   1   1398   1418
  1153   1   1402   1423
  1154   1   1402   1424
  1155   1   1403   1421
  1156   1   1403   1422
  1157   1   1405   1425
  1158   1   1405   1426
  1159   3   1437   1441
  1160   4   1437   1442
  1161   4   1437   1443
  1162   3   1437   1635
  1163   5   1438   1440
  1164   6   1438   1445
  1165   5   1438   1447
  1166   2   1476   1438
  1167   3   1439   1441
  1168   3   1439   1447
  1169   4   1439   1448
  1170   4   1439   2456
  1171   3   1830   1440
  1172   2   1444   1471
  1173   7   1445   1503
  1174   1   1446   1506
  1175   1   1446   1507
  1176   1   1449   1528
  1177   1   1449   1529
  1178   1   1450   1508
  1179   1   1450   1509
  1180   1   1452   1510
  1181   1   1452   1511
  1182   3   1455   1458
  1183   4   1455   1460
  1184   4   1455   1461
  1185   3   1455   2379
  1186   5   1456   1458
  1187   6   1456   1463
  1188   5   1456   1465
  1189   2   1491   1456
  1190   3   1457   1465
  1191   4   1457   1466
  1192   4   1457   2457
  1193   3   1457   1459
  1194   3   1650   1459
  1195   2   1462   1486
  1196   7   1463   1502
  1197   1   1464   1522
  1198   1   1464   1523
  1199   1   1467   1514
  1200   1   1467   1515
  1201   3   1470   1473
  1202   3   1470   1474
  1203   4   1470   1475
  1204   4   1470   2458
  1205   5   1471   1473
  1206   6   1471   1477
  1207   5   1471   1479
  1208   3   1472   1474
  1209   4   1472   1480
  1210   4   1472   2391
  1211   3   1472   1870
  1212   7   1477   1501
  1213   1   1478   1524
  1214   1   1478   1525
  1215   3   1667   1479
  1216   1   1481   1504
  1217   1   1481   1505
  1218   1   1482   1526
  1219   1   1482   1527
  1220   3   1485   1488
  1221   3   1485   1489
  1222   4   1485   1490
  1223   4   1485   2459
  1224   6   1486   1492
  1225   5   1486   1494
  1226   5   1486   1880
  1227   3   1487   1489
  1228   3   1487   1494
  1229   4   1487   1495
  1230   4   1487   1496
  1231   5   1682   1488
  1232   7   1492   2393
  1233   1   1493   1512
  1234   1   1493   1513
  1235   1   1497   1518
  1236   1   1497   1519
  1237   1   1498   1516
  1238   1   1498   1517
  1239   1   1500   1520
  1240   1   1500   1521
  1241   3   1532   1536
  1242   4   1532   1537
  1243   4   1532   1538
  1244   3   1532   1735
  1245   5   1533   1535
  1246   6   1533   1540
  1247   5   1533   1542
  1248   2   1571   1533
  1249   3   1534   1536
  1250   3   1534   1542
  1251   4   1534   1543
  1252   4   1534   2460
  1253   2   1539   1566
  1254   7   1540   1601
  1255   1   1541   1604
  1256   1   1541   1605
  1257   1   1544   1628
  1258   1   1544   1629
  1259   1   1545   1606
  1260   1   1545   1607
  1261   1   1547   1608
  1262   1   1547   1609
  1263   3   1550   1553
  1264   4   1550   1555
  1265   4   1550   1556
  1266   5   1551   1553
  1267   6   1551   1558
  1268   5   1551   1560
  1269   2   1587   1551
  1270   3   1552   1560
  1271   4   1552   1561
  1272   4   1552   2461
  1273   3   1552   1554
  1274   3   1749   1554
  1275   2   1557   1582
  1276   7   1558   1599
  1277   1   1559   1622
  1278   1   1559   1623
  1279   1   1562   1612
  1280   1   1562   1613
  1281   3   1565   1568
  1282   3   1565   1569
  1283   4   1565   1570
  1284   4   1565   2462
  1285   5   1566   1568
  1286   6   1566   1572
  1287   5   1566   1574
  1288   3   1567   1569
  1289   4   1567   1575
  1290   4   1567   1576
  1291   7   1572   1598
  1292   1   1573   1624
  1293   1   1573   1625
  1294   3   1765   1574
  1295   1   1577   1602
  1296   1   1577   1603
  1297   1   1578   1626
  1298   1   1578   1627
  1299   3   1581   1584
  1300   3   1581   1585
  1301   4   1581   1586
  1302   4   1581   2463
  1303   6   1582   1588
  1304   5   1582   1590
  1305   3   1583   1585
  1306   3   1583   1590
  1307   4   1583   1591
  1308   4   1583   1592
  1309   5   1780   1584
  1310   7   1588   1600
  1311   1   1589   1610
  1312   1   1589   1611
  1313   1   1593   1618
  1314   1   1593   1619
  1315   1   1594   1616
  1316   1   1594   1617
  1317   1   1595   1614
  1318   1   1595   1615
  1319   1   1597   1620
  1320   1   1597   1621
  1321   3   1632   1636
  1322   4   1632   1637
  1323   4   1632   1638
  1324   3   1632   1833
  1325   5   1633   1635
  1326   6   1633   1640
  1327   5   1633   1642
  1328   2   1671   1633
  1329   3   1634   1636
  1330   3   1634   1642
  1331   4   1634   1643
  1332   4   1634   2464
  1333   2   1639   1666
  1334   7   1640   1701
  1335   1   1641   1704
  1336   1   1641   1705
  1337   1   1644   1728
  1338   1   1644   1729
  1339   1   1645   1706
  1340   1   1645   1707
  1341   1   1647   1708
  1342   1   1647   1709
  1343   3   1650   1653
  1344   4   1650   1655
  1345   4   1650   1656
  1346   5   1651   1653
  1347   6   1651   1658
  1348   5   1651   1660
  1349   2   1687   1651
  1350   3   1652   1660
  1351   4   1652   1661
  1352   4   1652   2465
  1353   3   1652   1654
  1354   3   1847   1654
  1355   2   1657   1682
  1356   7   1658   1699
  1357   1   1659   1722
  1358   1   1659   1723
  1359   1   1662   1712
  1360   1   1662   1713
  1361   3   1665   1668
  1362   3   1665   1669
  1363   4   1665   1670
  1364   4   1665   2466
  1365   5   1666   1668
  1366   6   1666   1672
  1367   5   1666   1674
  1368   3   1667   1669
  1369   4   1667   1675
  1370   4   1667   1676
  1371   7   1672   1698
  1372   1   1673   1724
  1373   1   1673   1725
  1374   3   1863   1674
  1375   1   1677   1702
  1376   1   1677   1703
  1377   1   1678   1726
  1378   1   1678   1727
  1379   3   1681   1684
  1380   3   1681   1685
  1381   4   1681   1686
  1382   4   1681   2467
  1383   6   1682   1688
  1384   5   1682   1690
  1385   3   1683   1685
  1386   3   1683   1690
  1387   4   1683   1691
  1388   4   1683   1692
  1389   5   1878   1684
  1390   7   1688   1700
  1391   1   1689   1710
  1392   1   1689   1711
  1393   1   1693   1718
  1394   1   1693   1719
  1395   1   1694   1716
  1396   1   1694   1717
  1397   1   1695   1714
  1398   1   1695   1715
  1399   1   1697   1720
  1400   1   1697   1721
  1401   3   1732   1736
  1402   4   1732   1737
  1403   4   1732   2376
  1404   5   1733   1735
  1405   6   1733   1739
  1406   5   1733   1741
  1407   2   1769   1733
  1408   3   1734   1736
  1409   3   1734   1741
  1410   4   1734   1742
  1411   4   1734   2468
  1412   2   1738   1764
  1413   7   1739   1799
  1414   1   1740   1802
  1415   1   1740   1803
  1416   1   1743   1826
  1417   1   1743   1827
  1418   1   1744   1804
  1419   1   1744   1805
  1420   1   1746   1806
  1421   1   1746   1807
  1422   3   1749   1752
  1423   4   1749   1753
  1424   4   1749   1754
  1425   5   1750   1752
  1426   6   1750   1756
  1427   5   1750   1758
  1428   2   1785   1750
  1429   3   1751   1758
  1430   4   1751   1759
  1431   4   1751   2469
  1432   3   1751   2377
  1433   2   1755   1780
  1434   7   1756   1797
  1435   1   1757   1820
  1436   1   1757   1821
  1437   1   1760   1810
  1438   1   1760   1811
  1439   3   1763   1766
  1440   3   1763   1767
  1441   4   1763   1768
  1442   4   1763   2470
  1443   5   1764   1766
  1444   6   1764   1770
  1445   5   1764   1772
  1446   3   1765   1767
  1447   4   1765   1773
  1448   4   1765   1774
  1449   7   1770   1796
  1450   1   1771   1822
  1451   1   1771   1823
  1452   1   1775   1800
  1453   1   1775   1801
  1454   1   1776   1824
  1455   1   1776   1825
  1456   3   1779   1782
  1457   3   1779   1783
  1458   4   1779   1784
  1459   4   1779   2471
  1460   6   1780   1786
  1461   5   1780   1788
  1462   3   1781   1783
  1463   3   1781   1788
  1464   4   1781   1789
  1465   4   1781   1790
  1466   7   1786   1798
  1467   1   1787   1808
  1468   1   1787   1809
  1469   1   1791   1816
  1470   1   1791   1817
  1471   1   1792   1814
  1472   1   1792   1815
  1473   1   1793   1812
  1474   1   1793   1813
  1475   1   1795   1818
  1476   1   1795   1819
  1477   3   1830   1834
  1478   4   1830   1835
  1479   4   1830   2378
  1480   5   1831   1833
  1481   6   1831   1837
  1482   5   1831   1839
  1483   2   1867   1831
  1484   3   1832   1834
  1485   3   1832   1839
  1486   4   1832   1840
  1487   4   1832   2472
  1488   2   1836   1862
  1489   7   1837   1897
  1490   1   1838   1900
  1491   1   1838   1901
  1492   1   1841   1924
  1493   1   1841   1925
  1494   1   1842   1902
  1495   1   1842   1903
  1496   1   1844   1904
  1497   1   1844   1905
  1498   3   1847   1850
  1499   4   1847   1851
  1500   4   1847   1852
  1501   5   1848   1850
  1502   6   1848   1854
  1503   5   1848   1856
  1504   2   1883   1848
  1505   3   1849   1856
  1506   4   1849   1857
  1507   4   1849   2473
  1508   3   1849   2379
  1509   2   1853   1878
  1510   7   1854   1895
  1511   1   1855   1918
  1512   1   1855   1919
  1513   1   1858   1908
  1514   1   1858   1909
  1515   3   1861   1864
  1516   3   1861   1865
  1517   4   1861   1866
  1518   4   1861   2474
  1519   5   1862   1864
  1520   6   1862   1868
  1521   5   1862   1870
  1522   3   1863   1865
  1523   4   1863   1871
  1524   4   1863   1872
  1525   7   1868   1894
  1526   1   1869   1920
  1527   1   1869   1921
  1528   1   1873   1898
  1529   1   1873   1899
  1530   1   1874   1922
  1531   1   1874   1923
  1532   3   1877   1880
  1533   3   1877   1881
  1534   4   1877   1882
  1535   4   1877   2475
  1536   6   1878   1884
  1537   5   1878   1886
  1538   3   1879   1881
  1539   3   1879   1886
  1540   4   1879   1887
  1541   4   1879   1888
  1542   7   1884   1896
  1543   1   1885   1906
  1544   1   1885   1907
  1545   1   1889   1914
  1546   1   1889   1915
  1547   1   1890   1912
  1548   1   1890   1913
  1549   1   1891   1910
  1550   1   1891   1911
  1551   1   1893   1916
  1552   1   1893   1917
  1553   3   1928   1932
  1554   4   1928   1933
  1555   4   1928   1934
  1556   3   1928   2077
  1557   5   1929   1931
  1558   6   1929   1935
  1559   5   1929   1937
  1560   2   1957   1929
  1561   3   1930   1932
  1562   3   1930   1937
  1563   4   1930   1938
  1564   4   1930   2476
  1565   3   2228   1931
  1566   7   1935   1978
  1567   1   1936   1981
  1568   1   1936   1982
  1569   1   1939   1983
  1570   1   1939   1984
  1571   1   1941   1985
  1572   1   1941   1986
  1573   3   1943   1946
  1574   4   1943   1948
  1575   4   1943   1949
  1576   3   1943   2381
  1577   5   1944   1946
  1578   6   1944   1951
  1579   5   1944   1953
  1580   2   1967   1944
  1581   3   1945   1953
  1582   4   1945   1954
  1583   4   1945   2477
  1584   3   1945   1947
  1585   3   2089   1947
  1586   2   1950   1962
  1587   7   1951   1977
  1588   1   1952   1997
  1589   1   1952   1998
  1590   1   1955   1989
  1591   1   1955   1990
  1592   1   1958   1979
  1593   1   1958   1980
  1594   3   1961   1964
  1595   3   1961   1965
  1596   4   1961   1966
  1597   4   1961   2478
  1598   6   1962   1968
  1599   5   1962   1970
  1600   5   1962   2262
  1601   3   1963   1965
  1602   3   1963   1970
  1603   4   1963   1971
  1604   4   1963   1972
  1605   5   2108   1964
  1606   7   1968   2397
  1607   1   1969   1987
  1608   1   1969   1988
  1609   1   1973   1993
  1610   1   1973   1994
  1611   1   1974   1991
  1612   1   1974   1992
  1613   1   1976   1995
  1614   1   1976   1996
  1615   3   2001   2005
  1616   4   2001   2006
  1617   4   2001   2007
  1618   3   2001   2154
  1619   5   2002   2004
  1620   6   2002   2008
  1621   5   2002   2010
  1622   2   2030   2002
  1623   3   2003   2005
  1624   3   2003   2010
  1625   4   2003   2011
  1626   4   2003   2479
  1627   3   2303   2004
  1628   7   2008   2051
  1629   1   2009   2054
  1630   1   2009   2055
  1631   1   2012   2056
  1632   1   2012   2057
  1633   1   2014   2058
  1634   1   2014   2059
  1635   3   2016   2019
  1636   4   2016   2021
  1637   4   2016   2022
  1638   3   2016   2383
  1639   5   2017   2019
  1640   6   2017   2024
  1641   5   2017   2026
  1642   2   2040   2017
  1643   3   2018   2026
  1644   4   2018   2027
  1645   4   2018   2480
  1646   3   2018   2020
  1647   3   2166   2020
  1648   2   2023   2035
  1649   7   2024   2050
  1650   1   2025   2070
  1651   1   2025   2071
  1652   1   2028   2062
  1653   1   2028   2063
  1654   1   2031   2052
  1655   1   2031   2053
  1656   3   2034   2037
  1657   3   2034   2038
  1658   4   2034   2039
  1659   4   2034   2481
  1660   6   2035   2041
  1661   5   2035   2043
  1662   5   2035   2337
  1663   3   2036   2038
  1664   3   2036   2043
  1665   4   2036   2044
  1666   4   2036   2045
  1667   5   2185   2037
  1668   7   2041   2401
  1669   1   2042   2060
  1670   1   2042   2061
  1671   1   2046   2066
  1672   1   2046   2067
  1673   1   2047   2064
  1674   1   2047   2065
  1675   1   2049   2068
  1676   1   2049   2069
  1677   3   2074   2078
  1678   4   2074   2079
  1679   4   2074   2080
  1680   3   2074   2231
  1681   5   2075   2077
  1682   6   2075   2081
  1683   5   2075   2083
  1684   2   2103   2075
  1685   3   2076   2078
  1686   3   2076   2083
  1687   4   2076   2084
  1688   4   2076   2482
  1689   7   2081   2126
  1690   1   2082   2129
  1691   1   2082   2130
  1692   1   2085   2131
  1693   1   2085   2132
  1694   1   2087   2133
  1695   1   2087   2134
  1696   3   2089   2092
  1697   4   2089   2094
  1698   4   2089   2095
  1699   5   2090   2092
  1700   6   2090   2097
  1701   5   2090   2099
  1702   2   2113   2090
  1703   3   2091   2099
  1704   4   2091   2100
  1705   4   2091   2483
  1706   3   2091   2093
  1707   3   2242   2093
  1708   2   2096   2108
  1709   7   2097   2124
  1710   1   2098   2147
  1711   1   2098   2148
  1712   1   2101   2137
  1713   1   2101   2138
  1714   1   2104   2127
  1715   1   2104   2128
  1716   3   2107   2110
  1717   3   2107   2111
  1718   4   2107   2112
  1719   4   2107   2484
  1720   6   2108   2114
  1721   5   2108   2116
  1722   3   2109   2111
  1723   3   2109   2116
  1724   4   2109   2117
  1725   4   2109   2118
  1726   5   2260   2110
  1727   7   2114   2125
  1728   1   2115   2135
  1729   1   2115   2136
  1730   1   2119   2143
  1731   1   2119   2144
  1732   1   2120   2141
  1733   1   2120   2142
  1734   1   2121   2139
  1735   1   2121   2140
  1736   1   2123   2145
  1737   1   2123   2146
  1738   3   2151   2155
  1739   4   2151   2156
  1740   4   2151   2157
  1741   3   2151   2306
  1742   5   2152   2154
  1743   6   2152   2158
  1744   5   2152   2160
  1745   2   2180   2152
  1746   3   2153   2155
  1747   3   2153   2160
  1748   4   2153   2161
  1749   4   2153   2485
  1750   7   2158   2203
  1751   1   2159   2206
  1752   1   2159   2207
  1753   1   2162   2208
  1754   1   2162   2209
  1755   1   2164   2210
  1756   1   2164   2211
  1757   3   2166   2169
  1758   4   2166   2171
  1759   4   2166   2172
  1760   5   2167   2169
  1761   6   2167   2174
  1762   5   2167   2176
  1763   2   2190   2167
  1764   3   2168   2176
  1765   4   2168   2177
  1766   4   2168   2486
  1767   3   2168   2170
  1768   3   2317   2170
  1769   2   2173   2185
  1770   7   2174   2201
  1771   1   2175   2224
  1772   1   2175   2225
  1773   1   2178   2214
  1774   1   2178   2215
  1775   1   2181   2204
  1776   1   2181   2205
  1777   3   2184   2187
  1778   3   2184   2188
  1779   4   2184   2189
  1780   4   2184   2487
  1781   6   2185   2191
  1782   5   2185   2193
  1783   3   2186   2188
  1784   3   2186   2193
  1785   4   2186   2194
  1786   4   2186   2195
  1787   5   2335   2187
  1788   7   2191   2202
  1789   1   2192   2212
  1790   1   2192   2213
  1791   1   2196   2220
  1792   1   2196   2221
  1793   1   2197   2218
  1794   1   2197   2219
  1795   1   2198   2216
  1796   1   2198   2217
  1797   1   2200   2222
  1798   1   2200   2223
  1799   3   2228   2232
  1800   4   2228   2233
  1801   4   2228   2380
  1802   5   2229   2231
  1803   6   2229   2234
  1804   5   2229   2236
  1805   2   2255   2229
  1806   3   2230   2232
  1807   3   2230   2236
  1808   4   2230   2237
  1809   4   2230   2488
  1810   7   2234   2278
  1811   1   2235   2281
  1812   1   2235   2282
  1813   1   2238   2283
  1814   1   2238   2284
  1815   1   2240   2285
  1816   1   2240   2286
  1817   3   2242   2245
  1818   4   2242   2246
  1819   4   2242   2247
  1820   5   2243   2245
  1821   6   2243   2249
  1822   5   2243   2251
  1823   2   2265   2243
  1824   3   2244   2251
  1825   4   2244   2252
  1826   4   2244   2489
  1827   3   2244   2381
  1828   2   2248   2260
  1829   7   2249   2276
  1830   1   2250   2299
  1831   1   2250   2300
  1832   1   2253   2289
  1833   1   2253   2290
  1834   1   2256   2279
  1835   1   2256   2280
  1836   3   2259   2262
  1837   3   2259   2263
  1838   4   2259   2264
  1839   4   2259   2490
  1840   6   2260   2266
  1841   5   2260   2268
  1842   3   2261   2263
  1843   3   2261   2268
  1844   4   2261   2269
  1845   4   2261   2270
  1846   7   2266   2277
  1847   1   2267   2287
  1848   1   2267   2288
  1849   1   2271   2295
  1850   1   2271   2296
  1851   1   2272   2293
  1852   1   2272   2294
  1853   1   2273   2291
  1854   1   2273   2292
  1855   1   2275   2297
  1856   1   2275   2298
  1857   3   2303   2307
  1858   4   2303   2308
  1859   4   2303   2382
  1860   5   2304   2306
  1861   6   2304   2309
  1862   5   2304   2311
  1863   2   2330   2304
  1864   3   2305   2307
  1865   3   2305   2311
  1866   4   2305   2312
  1867   4   2305   2491
  1868   7   2309   2353
  1869   1   2310   2356
  1870   1   2310   2357
  1871   1   2313   2358
  1872   1   2313   2359
  1873   1   2315   2360
  1874   1   2315   2361
  1875   3   2317   2320
  1876   4   2317   2321
  1877   4   2317   2322
  1878   5   2318   2320
  1879   6   2318   2324
  1880   5   2318   2326
  1881   2   2340   2318
  1882   3   2319   2326
  1883   4   2319   2327
  1884   4   2319   2492
  1885   3   2319   2383
  1886   2   2323   2335
  1887   7   2324   2351
  1888   1   2325   2374
  1889   1   2325   2375
  1890   1   2328   2364
  1891   1   2328   2365
  1892   1   2331   2354
  1893   1   2331   2355
  1894   3   2334   2337
  1895   3   2334   2338
  1896   4   2334   2339
  1897   4   2334   2493
  1898   6   2335   2341
  1899   5   2335   2343
  1900   3   2336   2338
  1901   3   2336   2343
  1902   4   2336   2344
  1903   4   2336   2345
  1904   7   2341   2352
  1905   1   2342   2362
  1906   1   2342   2363
  1907   1   2346   2370
  1908   1   2346   2371
  1909   1   2347   2368
  1910   1   2347   2369
  1911   1   2348   2366
  1912   1   2348   2367
  1913   1   2350   2372
  1914   1   2350   2373
  1915   1   2387   2389
  1916   1   2387   2390
  1917   1   2392   2394
  1918   1   2392   2395
  1919   1   2396   2398
  1920   1   2396   2399
  1921   1   2400   2402
  1922   1   2400   2403
  1923   1   2500   2502
  1924   1   2500   2501
  1925   1   2503   2505
  1926   1   2503   2504
  1927   1   2506   2508
  1928   1   2506   2507
  1929   1   2509   2511
  1930   1   2509   2510
  1931   1   2512   2514
  1932   1   2512   2513
  1933   1   2515   2517
  1934   1   2515   2516
  1935   1   2518   2520
  1936   1   2518   2519
  1937   1   2521   2523
  1938   1   2521   2522
  1939   1   2524   2526
  1940   1   2524   2525
  1941   1   2527   2529
  1942   1   2527   2528
  1943   1   2530   2532
  1944   1   2530   2531
  1945   1   2533   2535
  1946   1   2533   2534
  1947   1   2536   2538
  1948   1   2536   2537
  1949   1   2539   2541
  1950   1   2539   2540
  1951   1   2542   2544
  1952   1   2542   2543
  1953   1   2545   2547
  1954   1   2545   2546
  1955   1   2548   2550
  1956   1   2548   2549
  1957   1   2551   2553
  1958   1   2551   2552
  1959   1   2554   2556
  1960   1   2554   2555
  1961   1   2557   2559
  1962   1   2557   2558
  1963   1   2560   2562
  1964   1   2560   2561
  1965   1   2563   2565
  1966   1   2563   2564
  1967   1   2566   2568
  1968   1   2566   2567
  1969   1   2569   2571
  1970   1   2569   2570
  1971   1   2572   2574
  1972   1   2572   2573
  1973   1   2575   2577
  1974   1   2575   2576
  1975   1   2578   2580
  1976   1   2578   2579
  1977   1   2581   2583
  1978   1   2581   2582
  1979   1   2584   2586
  1980   1   2584   2585
  1981   1   2587   2589
  1982   1   2587   2588
  1983   1   2590   2592
  1984   1   2590   2591
  1985   1   2593   2595
  1986   1   2593   2594
  1987   1   2596   2598
  1988   1   2596   2597
  1989   1   2599   2601
  1990   1   2599   2600
  1991   1   2602   2604
  1992   1   2602   2603
  1993   1   2605   2607
  1994   1   2605   2606
  1995   1   2608   2610
  1996   1   2608   2609
  1997   1   2611   2613
  1998   1   2611   2612
  1999   1   2614   2616
  2000   1   2614   2615
  2001   1   2617   2619
  2002   1   2617   2618
  2003   1   2620   2622
  2004   1   2620   2621
  2005   1   2623   2625
  2006   1   2623   2624
  2007   1   2626   2628
  2008   1   2626   2627
  2009   1   2629   2631
  2010   1   2629   2630
  2011   1   2632   2634
  2012   1   2632   2633
  2013   1   2635   2637
  2014   1   2635   2636
  2015   1   2638   2640
  2016   1   2638   2639
  2017   1   2641   2643
  2018   1   2641   2642
  2019   1   2644   2646
  2020   1   2644   2645
  2021   1   2647   2649
  2022   1   2647   2648
  2023   1   2650   2652
  2024   1   2650   2651
  2025   1   2653   2655
  2026   1   2653   2654
  2027   1   2656   2658
  2028   1   2656   2657
  2029   1   2659   2661
  2030   1   2659   2660
  2031   1   2662   2664
  2032   1   2662   2663
  2033   1   2665   2667
  2034   1   2665   2666
  2035   1   2668   2670
  2036   1   2668   2669
  2037   1   2671   2673
  2038   1   2671   2672
  2039   1   2674   2676
  2040   1   2674   2675
  2041   1   2677   2679
  2042   1   2677   2678
  2043   1   2680   2682
  2044   1   2680   2681
  2045   1   2683   2685
  2046   1   2683   2684
  2047   1   2686   2688
  2048   1   2686   2687
  2049   1   2689   2691
  2050   1   2689   2690
  2051   1   2692   2694
  2052   1   2692   2693
  2053   1   2695   2697
  2054   1   2695   2696
  2055   1   2698   2700
  2056   1   2698   2699
  2057   1   2701   2703
  2058   1   2701   2702
  2059   1   2704   2706
  2060   1   2704   2705
  2061   1   2707   2709
  2062   1   2707   2708
  2063   1   2710   2712
  2064   1   2710   2711
  2065   1   2713   2715
  2066   1   2713   2714
  2067   1   2716   2718
  2068   1   2716   2717
  2069   1   2719   2721
  2070   1   2719   2720
  2071   1   2722   2724
  2072   1   2722   2723
  2073   1   2725   2727
  2074   1   2725   2726
  2075   1   2728   2730
  2076   1   2728   2729
  2077   1   2731   2733
  2078   1   2731   2732
  2079   1   2734   2736
  2080   1   2734   2735
  2081   1   2737   2739
  2082   1   2737   2738
  2083   1   2740   2742
  2084   1   2740   2741
  2085   1   2743   2745
  2086   1   2743   2744
  2087   1   2746   2748
  2088   1   2746   2747
  2089   1   2749   2751
  2090   1   2749   2750
  2091   1   2752   2754
  2092   1   2752   2753
  2093   1   2755   2757
  2094   1   2755   2756
  2095   1   2758   2760
  2096   1   2758   2759
  2097   1   2761   2763
  2098   1   2761   2762
  2099   1   2764   2766
  2100   1   2764   2765
  2101   1   2767   2769
  2102   1   2767   2768
  2103   1   2770   2772
  2104   1   2770   2771
  2105   1   2773   2775
  2106   1   2773   2774
  2107   1   2776   2778
  2108   1   2776   2777
  2109   1   2779   2781
  2110   1   2779   2780
  2111   1   2782   2784
  2112   1   2782   2783
  2113   1   2785   2787
  2114   1   2785   2786
  2115   1   2788   2790
  2116   1   2788   2789
  2117   1   2791   2793
  2118   1   2791   2792
  2119   1   2794   2796
  2120   1   2794   2795
  2121   1   2797   2799
  2122   1   2797   2798
  2123   1   2800   2802
  2124   1   2800   2801
  2125   1   2803   2805
  2126   1   2803   2804
  2127   1   2806   2808
  2128   1   2806   2807
  2129   1   2809   2811
  2130   1   2809   2810
  2131   1   2812   2814
  2132   1   2812   2813
  2133   1   2815   2817
  2134   1   2815   2816
  2135   1   2818   2820
  2136   1   2818   2819
  2137   1   2821   2823
  2138   1   2821   2822
  2139   1   2824   2826
  2140   1   2824   2825
  2141   1   2827   2829
  2142   1   2827   2828
  2143   1   2830   2832
  2144   1   2830   2831
  2145   1   2833   2835
  2146   1   2833   2834
  2147   1   2836   2838
  2148   1   2836   2837
  2149   1   2839   2841
  2150   1   2839   2840
  2151   1   2842   2844
  2152   1   2842   2843
  2153   1   2845   2847
  2154   1   2845   2846
  2155   1   2848   2850
  2156   1   2848   2849
  2157   1   2851   2853
  2158   1   2851   2852
  2159   1   2854   2856
  2160   1   2854   2855
  2161   1   2857   2859
  2162   1   2857   2858
  2163   1   2860   2862
  2164   1   2860   2861
  2165   1   2863   2865
  2166   1   2863   2864
  2167   1   2866   2868
  2168   1   2866   2867
  2169   1   2869   2871
  2170   1   2869   2870
  2171   1   2872   2874
  2172   1   2872   2873
  2173   1   2875   2877
  2174   1   2875   2876
  2175   1   2878   2880
  2176   1   2878   2879
  2177   1   2881   2883
  2178   1   2881   2882
  2179   1   2884   2886
  2180   1   2884   2885
  2181   1   2887   2889
  2182   1   2887   2888
  2183   1   2890   2892
  2184   1   2890   2891
  2185   1   2893   2895
  2186   1   2893   2894
  2187   1   2896   2898
  2188   1   2896   2897
  2189   1   2899   2901
  2190   1   2899   2900
  2191   1   2902   2904
  2192   1   2902   2903
  2193   1   2905   2907
  2194   1   2905   2906
  2195   1   2908   2910
  2196   1   2908   2909
  2197   1   2911   2913
  2198   1   2911   2912
  2199   1   2914   2916
  2200   1   2914   2915
  2201   1   2917   2919
  2202   1   2917   2918
  2203   1   2920   2922
  2204   1   2920   2921
  2205   1   2923   2925
  2206   1   2923   2924
  2207   1   2926   2928
  2208   1   2926   2927
  2209   1   2929   2931
  2210   1   2929   2930
  2211   1   2932   2934
  2212   1   2932   2933
  2213   1   2935   2937
  2214   1   2935   2936
  2215   1   2938   2940
  2216   1   2938   2939
  2217   1   2941   2943
  2218   1   2941   2942
  2219   1   2944   2946
  2220   1   2944   2945
  2221   1   2947   2949
  2222   1   2947   2948
  2223   1   2950   2952
  2224   1   2950   2951
  2225   1   2953   2955
  2226   1   2953   2954
  2227   1   2956   2958
  2228   1   2956   2957
  2229   1   2959   2961
  2230   1   2959   2960
  2231   1   2962   2964
  2232   1   2962   2963
  2233   1   2965   2967
  2234   1   2965   2966
  2235   1   2968   2970
  2236   1   2968   2969
  2237   1   2971   2973
  2238   1   2971   2972
  2239   1   2974   2976
  2240   1   2974   2975
  2241   1   2977   2979
  2242   1   2977   2978
  2243   1   2980   2982
  2244   1   2980   2981
  2245   1   2983   2985
  2246   1   2983   2984
  2247   1   2986   2988
  2248   1   2986   2987
  2249   1   2989   2991
  2250   1   2989   2990
  2251   1   2992   2994
  2252   1   2992   2993
  2253   1   2995   2997
  2254   1   2995   2996
  2255   1   2998   3000
  2256   1   2998   2999
  2257   1   3001   3003
  2258   1   3001   3002
  2259   1   3004   3006
  2260   1   3004   3005
  2261   1   3007   3009
  2262   1   3007   3008
  2263   1   3010   3012
  2264   1   3010   3011
  2265   1   3013   3015
  2266   1   3013   3014
  2267   1   3016   3018
  2268   1   3016   3017
  2269   1   3019   3021
  2270   1   3019   3020
  2271   1   3022   3024
  2272   1   3022   3023
  2273   1   3025   3027
  2274   1   3025   3026
  2275   1   3028   3030
  2276   1   3028   3029
  2277   1   3031   3033
  2278   1   3031   3032
  2279   1   3034   3036
  2280   1   3034   3035
  2281   1   3037   3039
  2282   1   3037   3038
  2283   1   3040   3042
  2284   1   3040   3041
  2285   1   3043   3045
  2286   1   3043   3044
  2287   1   3046   3048
  2288   1   3046   3047
  2289   1   3049   3051
  2290   1   3049   3050
  2291   1   3052   3054
  2292   1   3052   3053
  2293   1   3055   3057
  2294   1   3055   3056
  2295   1   3058   3060
  2296   1   3058   3059
  2297   1   3061   3063
  2298   1   3061   3062
  2299   1   3064   3066
  2300   1   3064   3065
  2301   1   3067   3069
  2302   1   3067   3068
  2303   1   3070   3072
  2304   1   3070   3071
  2305   1   3073   3075
  2306   1   3073   3074
  2307   1   3076   3078
  2308   1   3076   3077
  2309   1   3079   3081
  2310   1   3079   3080
  2311   1   3082   3084
  2312   1   3082   3083
  2313   1   3085   3087
  2314   1   3085   3086
  2315   1   3088   3090
  2316   1   3088   3089
  2317   1   3091   3093
  2318   1   3091   3092
  2319   1   3094   3096
  2320   1   3094   3095
  2321   1   3097   3099
  2322   1   3097   3098
  2323   1   3100   3102
  2324   1   3100   3101
  2325   1   3103   3105
  2326   1   3103   3104
  2327   1   3106   3108
  2328   1   3106   3107
  2329   1   3109   3111
  2330   1   3109   3110
  2331   1   3112   3114
  2332   1   3112   3113
  2333   1   3115   3117
  2334   1   3115   3116
  2335   1   3118   3120
  2336   1   3118   3119
  2337   1   3121   3123
  2338   1   3121   3122
  2339   1   3124   3126
  2340   1   3124   3125
  2341   1   3127   3129
  2342   1   3127   3128
  2343   1   3130   3132
  2344   1   3130   3131
  2345   1   3133   3135
  2346   1   3133   3134
  2347   1   3136   3138
  2348   1   3136   3137
  2349   1   3139   3141
  2350   1   3139   3140
  2351   1   3142   3144
  2352   1   3142   3143
  2353   1   3145   3147
  2354   1   3145   3146
  2355   1   3148   3150
  2356   1   3148   3149
  2357   1   3151   3153
  2358   1   3151   3152
  2359   1   3154   3156
  2360   1   3154   3155
  2361   1   3157   3159
  2362   1   3157   3158
  2363   1   3160   3162
  2364   1   3160   3161
  2365   1   3163   3165
  2366   1   3163   3164
  2367   1   3166   3168
  2368   1   3166   3167
  2369   1   3169   3171
  2370   1   3169   3170
  2371   1   3172   3174
  2372   1   3172   3173
  2373   1   3175   3177
  2374   1   3175   3176
  2375   1   3178   3180
  2376   1   3178   3179
  2377   1   3181   3183
  2378   1   3181   3182
  2379   1   3184   3186
  2380   1   3184   3185
  2381   1   3187   3189
  2382   1   3187   3188
  2383   1   3190   3192
  2384   1   3190   3191
  2385   1   3193   3195
  2386   1   3193   3194
  2387   1   3196   3198
  2388   1   3196   3197
  2389   1   3199   3201
  2390   1   3199   3200
  2391   1   3202   3204
  2392   1   3202   3203
  2393   1   3205   3207
  2394   1   3205   3206
  2395   1   3208   3210
  2396   1   3208   3209
  2397   1   3211   3213
  2398   1   3211   3212
  2399   1   3214   3216
  2400   1   3214   3215
  2401   1   3217   3219
  2402   1   3217   3218
  2403   1   3220   3222
  2404   1   3220   3221
  2405   1   3223   3225
  2406   1   3223   3224
  2407   1   3226   3228
  2408   1   3226   3227
  2409   1   3229   3231
  2410   1   3229   3230
  2411   1   3232   3234
  2412   1   3232   3233
  2413   1   3235   3237
  2414   1   3235   3236
  2415   1   3238   3240
  2416   1   3238   3239
  2417   1   3241   3243
  2418   1   3241   3242
  2419   1   3244   3246
  2420   1   3244   3245
  2421   1   3247   3249
  2422   1   3247   3248
  2423   1   3250   3252
  2424   1   3250   3251
  2425   1   3253   3255
  2426   1   3253   3254
  2427   1   3256   3258
  2428   1   3256   3257
  2429   1   3259   3261
  2430   1   3259   3260
  2431   1   3262   3264
  2432   1   3262   3263
  2433   1   3265   3267
  2434   1   3265   3266
  2435   1   3268   3270
  2436   1   3268   3269
  2437   1   3271   3273
  2438   1   3271   3272
  2439   1   3274   3276
  2440   1   3274   3275
  2441   1   3277   3279
  2442   1   3277   3278
  2443   1   3280   3282
  2444   1   3280   3281
  2445   1   3283   3285
  2446   1   3283   3284
  2447   1   3286   3288
  2448   1   3286   3287
  2449   1   3289   3291
  2450   1   3289   3290
  2451   1   3292   3294
  2452   1   3292   3293
  2453   1   3295   3297
  2454   1   3295   3296
  2455   1   3298   3300
  2456   1   3298   3299
  2457   1   3301   3303
  2458   1   3301   3302
  2459   1   3304   3306
  2460   1   3304   3305
  2461   1   3307   3309
  2462   1   3307   3308
  2463   1   3310   3312
  2464   1   3310   3311
  2465   1   3313   3315
  2466   1   3313   3314
  2467   1   3316   3318
  2468   1   3316   3317
  2469   1   3319   3321
  2470   1   3319   3320
  2471   1   3322   3324
  2472   1   3322   3323
  2473   1   3325   3327
  2474   1   3325   3326
  2475   1   3328   3330
  2476   1   3328   3329
  2477   1   3331   3333
  2478   1   3331   3332
  2479   1   3334   3336
  2480   1   3334   3335
  2481   1   3337   3339
  2482   1   3337   3338
  2483   1   3340   3342
  2484   1   3340   3341
  2485   1   3343   3345
  2486   1   3343   3344
  2487   1   3346   3348
  2488   1   3346   3347
  2489   1   3349   3351
  2490   1   3349   3350
  2491   1   3352   3354
  2492   1   3352   3353
  2493   1   3355   3357
  2494   1   3355   3356
  2495   1   3358   3360
  2496   1   3358   3359
  2497   1   3361   3363
  2498   1   3361   3362
  2499   1   3364   3366
  2500   1   3364   3365
  2501   1   3367   3369
  2502   1   3367   3368
  2503   1   3370   3372
  2504   1   3370   3371
  2505   1   3373   3375
  2506   1   3373   3374
  2507   1   3376   3378
  2508   1   3376   3377
  2509   1   3379   3381
  2510   1   3379   3380
  2511   1   3382   3384
  2512   1   3382   3383
  2513   1   3385   3387
  2514   1   3385   3386
  2515   1   3388   3390
  2516   1   3388   3389
  2517   1   3391   3393
  2518   1   3391   3392
  2519   1   3394   3396
  2520   1   3394   3395
  2521   1   3397   3399
  2522   1   3397   3398
  2523   1   3400   3402
  2524   1   3400   3401
  2525   1   3403   3405
  2526   1   3403   3404
  2527   1   3406   3408
  2528   1   3406   3407
  2529   1   3409   3411
  2530   1   3409   3410
  2531   1   3412   3414
  2532   1   3412   3413
  2533   1   3415   3417
  2534   1   3415   3416
  2535   1   3418   3420
  2536   1   3418   3419
  2537   1   3421   3423
  2538   1   3421   3422
  2539   1   3424   3426
  2540   1   3424   3425
  2541   1   3427   3429
  2542   1   3427   3428
  2543   1   3430   3432
  2544   1   3430   3431
  2545   1   3433   3435
  2546   1   3433   3434
  2547   1   3436   3438
  2548   1   3436   3437
  2549   1   3439   3441
  2550   1   3439   3440
  2551   1   3442   3444
  2552   1   3442   3443
  2553   1   3445   3447
  2554   1   3445   3446
  2555   1   3448   3450
  2556   1   3448   3449
  2557   1   3451   3453
  2558   1   3451   3452
  2559   1   3454   3456
  2560   1   3454   3455
  2561   1   3457   3459
  2562   1   3457   3458
  2563   1   3460   3462
  2564   1   3460   3461
  2565   1   3463   3465
  2566   1   3463   3464
  2567   1   3466   3468
  2568   1   3466   3467
  2569   1   3469   3471
  2570   1   3469   3470
  2571   1   3472   3474
  2572   1   3472   3473
  2573   1   3475   3477
  2574   1   3475   3476
  2575   1   3478   3480
  2576   1   3478   3479
  2577   1   3481   3483
  2578   1   3481   3482
  2579   1   3484   3486
  2580   1   3484   3485
  2581   1   3487   3489
  2582   1   3487   3488
  2583   1   3490   3492
  2584   1   3490   3491
  2585   1   3493   3495
  2586   1   3493   3494
  2587   1   3496   3498
  2588   1   3496   3497
  2589   1   3499   3501
  2590   1   3499   3500
  2591   1   3502   3504
  2592   1   3502   3503
  2593   1   3505   3507
  2594   1   3505   3506
  2595   1   3508   3510
  2596   1   3508   3509
  2597   1   3511   3513
  2598   1   3511   3512
  2599   1   3514   3516
  2600   1   3514   3515
  2601   1   3517   3519
  2602   1   3517   3518
  2603   1   3520   3522
  2604   1   3520   3521
  2605   1   3523   3525
  2606   1   3523   3524
  2607   1   3526   3528
  2608   1   3526   3527
  2609   1   3529   3531
  2610   1   3529   3530
  2611   1   3532   3534
  2612   1   3532   3533
  2613   1   3535   3537
  2614   1   3535   3536
  2615   1   3538   3540
  2616   1   3538   3539
  2617   1   3541   3543
  2618   1   3541   3542
  2619   1   3544   3546
  2620   1   3544   3545
  2621   1   3547   3549
  2622   1   3547   3548
  2623   1   3550   3552
  2624   1   3550   3551
  2625   1   3553   3555
  2626   1   3553   3554
  2627   1   3556   3558
  2628   1   3556   3557
  2629   1   3559   3561
  2630   1   3559   3560
  2631   1   3562   3564
  2632   1   3562   3563
  2633   1   3565   3567
  2634   1   3565   3566
  2635   1   3568   3570
  2636   1   3568   3569
  2637   1   3571   3573
  2638   1   3571   3572
  2639   1   3574   3576
  2640   1   3574   3575
  2641   1   3577   3579
  2642   1   3577   3578
  2643   1   3580   3582
  2644   1   3580   3581
  2645   1   3583   3585
  2646   1   3583   3584
  2647   1   3586   3588
  2648   1   3586   3587
  2649   1   3589   3591
  2650   1   3589   3590
  2651   1   3592   3594
  2652   1   3592   3593
  2653   1   3595   3597
  2654   1   3595   3596
  2655   1   3598   3600
  2656   1   3598   3599
  2657   1   3601   3603
  2658   1   3601   3602
  2659   1   3604   3606
  2660   1   3604   3605
  2661   1   3607   3609
  2662   1   3607   3608
  2663   1   3610   3612
  2664   1   3610   3611
  2665   1   3613   3615
  2666   1   3613   3614
  2667   1   3616   3618
  2668   1   3616   3617
  2669   1   3619   3621
  2670   1   3619   3620
  2671   1   3622   3624
  2672   1   3622   3623
  2673   1   3625   3627
  2674   1   3625   3626
  2675   1   3628   3630
  2676   1   3628   3629
  2677   1   3631   3633
  2678   1   3631   3632
  2679   1   3634   3636
  2680   1   3634   3635
  2681   1   3637   3639
  2682   1   3637   3638
  2683   1   3640   3642
  2684   1   3640   3641
  2685   1   3643   3645
  2686   1   3643   3644
  2687   1   3646   3648
  2688   1   3646   3647
  2689   1   3649   3651
  2690   1   3649   3650
  2691   1   3652   3654
  2692   1   3652   3653
  2693   1   3655   3657
  2694   1   3655   3656
  2695   1   3658   3660
  2696   1   3658   3659
  2697   1   3661   3663
  2698   1   3661   3662
  2699   1   3664   3666
  2700   1   3664   3665
  2701   1   3667   3669
  2702   1   3667   3668
  2703   1   3670   3672
  2704   1   3670   3671
  2705   1   3673   3675
  2706   1   3673   3674
  2707   1   3676   3678
  2708   1   3676   3677
  2709   1   3679   3681
  2710   1   3679   3680
  2711   1   3682   3684
  2712   1   3682   3683
  2713   1   3685   3687
  2714   1   3685   3686
  2715   1   3688   3690
  2716   1   3688   3689
  2717   1   3691   3693
  2718   1   3691   3692
  2719   1   3694   3696
  2720   1   3694   3695
  2721   1   3697   3699
  2722   1   3697   3698
  2723   1   3700   3702
  2724   1   3700   3701
  2725   1   3703   3705
  2726   1   3703   3704
  2727   1   3706   3708
  2728   1   3706   3707
  2729   1   3709   3711
  2730   1   3709   3710
  2731   1   3712   3714
  2732   1   3712   3713
  2733   1   3715   3717
  2734   1   3715   3716
  2735   1   3718   3720
  2736   1   3718   3719
  2737   1   3721   3723
  2738   1   3721   3722
  2739   1   3724   3726
  2740   1   3724   3725
  2741   1   3727   3729
  2742   1   3727   3728
  2743   1   3730   3732
  2744   1   3730   3731
  2745   1   3733   3735
  2746   1   3733   3734
  2747   1   3736   3738
  2748   1   3736   3737
  2749   1   3739   3741
  2750   1   3739   3740
  2751   1   3742   3744
  2752   1   3742   3743
  2753   1   3745   3747
  2754   1   3745   3746
  2755   1   3748   3750
  2756   1   3748   3749
  2757   1   3751   3753
  2758   1   3751   3752
  2759   1   3754   3756
  2760   1   3754   3755
  2761   1   3757   3759
  2762   1   3757   3758
  2763   1   3760   3762
  2764   1   3760   3761
  2765   1   3763   3765
  2766   1   3763   3764
  2767   1   3766   3768
  2768   1   3766   3767
  2769   1   3769   3771
  2770   1   3769   3770
  2771   1   3772   3774
  2772   1   3772   3773
  2773   1   3775   3777
  2774   1   3775   3776
  2775   1   3778   3780
  2776   1   3778   3779
  2777   1   3781   3783
  2778   1   3781   3782
  2779   1   3784   3786
  2780   1   3784   3785
  2781   1   3787   3789
  2782   1   3787   3788
  2783   1   3790   3792
  2784   1   3790   3791
  2785   1   3793   3795
  2786   1   3793   3794
  2787   1   3796   3798
  2788   1   3796   3797
  2789   1   3799   3801
  2790   1   3799   3800
  2791   1   3802   3804
  2792   1   3802   3803
  2793   1   3805   3807
  2794   1   3805   3806
  2795   1   3808   3810
  2796   1   3808   3809
  2797   1   3811   3813
  2798   1   3811   3812
  2799   1   3814   3816
  2800   1   3814   3815
  2801   1   3817   3819
  2802   1   3817   3818
  2803   1   3820   3822
  2804   1   3820   3821
  2805   1   3823   3825
  2806   1   3823   3824
  2807   1   3826   3828
  2808   1   3826   3827
  2809   1   3829   3831
  2810   1   3829   3830
  2811   1   3832   3834
  2812   1   3832   3833
  2813   1   3835   3837
  2814   1   3835   3836
  2815   1   3838   3840
  2816   1   3838   3839
  2817   1   3841   3843
  2818   1   3841   3842
  2819   1   3844   3846
  2820   1   3844   3845
  2821   1   3847   3849
  2822   1   3847   3848
  2823   1   3850   3852
  2824   1   3850   3851
  2825   1   3853   3855
  2826   1   3853   3854
  2827   1   3856   3858
  2828   1   3856   3857
  2829   1   3859   3861
  2830   1   3859   3860
  2831   1   3862   3864
  2832   1   3862   3863
  2833   1   3865   3867
  2834   1   3865   3866
  2835   1   3868   3870
  2836   1   3868   3869
  2837   1   3871   3873
  2838   1   3871   3872
  2839   1   3874   3876
  2840   1   3874   3875
  2841   1   3877   3879
  2842   1   3877   3878
  2843   1   3880   3882
  2844   1   3880   3881
  2845   1   3883   3885
  2846   1   3883   3884
  2847   1   3886   3888
  2848   1   3886   3887
  2849   1   3889   3891
  2850   1   3889   3890
  2851   1   3892   3894
  2852   1   3892   3893
  2853   1   3895   3897
  2854   1   3895   3896
  2855   1   3898   3900
  2856   1   3898   3899
  2857   1   3901   3903
  2858   1   3901   3902
  2859   1   3904   3906
  2860   1   3904   3905
  2861   1   3907   3909
  2862   1   3907   3908
  2863   1   3910   3912
  2864   1   3910   3911
  2865   1   3913   3915
  2866   1   3913   3914
  2867   1   3916   3918
  2868   1   3916   3917
  2869   1   3919   3921
  2870   1   3919   3920
  2871   1   3922   3924
  2872   1   3922   3923
  2873   1   3925   3927
  2874   1   3925   3926
  2875   1   3928   3930
  2876   1   3928   3929
  2877   1   3931   3933
  2878   1   3931   3932
  2879   1   3934   3936
  2880   1   3934   3935
  2881   1   3937   3939
  2882   1   3937   3938
  2883   1   3940   3942
  2884   1   3940   3941
  2885   1   3943   3945
  2886   1   3943   3944
  2887   1   3946   3948
  2888   1   3946   3947
  2889   1   3949   3951
  2890   1   3949   3950
  2891   1   3952   3954
  2892   1   3952   3953
  2893   1   3955   3957
  2894   1   3955   3956
  2895   1   3958   3960
  2896   1   3958   3959
  2897   1   3961   3963
  2898   1   3961   3962
  2899   1   3964   3966
  2900   1   3964   3965
  2901   1   3967   3969
  2902   1   3967   3968
  2903   1   3970   3972
  2904   1   3970   3971
  2905   1   3973   3975
  2906   1   3973   3974
  2907   1   3976   3978
  2908   1   3976   3977
  2909   1   3979   3981
  2910   1   3979   3980
  2911   1   3982   3984
  2912   1   3982   3983
  2913   1   3985   3987
  2914   1   3985   3986
  2915   1   3988   3990
  2916   1   3988   3989
  2917   1   3991   3993
  2918   1   3991   3992
  2919   1   3994   3996
  2920   1   3994   3995
  2921   1   3997   3999
  2922   1   3997   3998
  2923   1   4000   4002
  2924   1   4000   4001
  2925   1   4003   4005
  2926   1   4003   4004
  2927   1   4006   4008
  2928   1   4006   4007
  2929   1   4009   4011
  2930   1   4009   4010
  2931   1   4012   4014
  2932   1   4012   4013
  2933   1   4015   4017
  2934   1   4015   4016
  2935   1   4018   4020
  2936   1   4018   4019
  2937   1   4021   4023
  2938   1   4021   4022
  2939   1   4024   4026
  2940   1   4024   4025
  2941   1   4027   4029
  2942   1   4027   4028
  2943   1   4030   4032
  2944   1   4030   4031
  2945   1   4033   4035
  2946   1   4033   4034
  2947   1   4036   4038
  2948   1   4036   4037
  2949   1   4039   4041
  2950   1   4039   4040
  2951   1   4042   4044
  2952   1   4042   4043
  2953   1   4045   4047
  2954   1   4045   4046
  2955   1   4048   4050
  2956   1   4048   4049
  2957   1   4051   4053
  2958   1   4051   4052
  2959   1   4054   4056
  2960   1   4054   4055
  2961   1   4057   4059
  2962   1   4057   4058
  2963   1   4060   4062
  2964   1   4060   4061
  2965   1   4063   4065
  2966   1   4063   4064
  2967   1   4066   4068
  2968   1   4066   4067
  2969   1   4069   4071
  2970   1   4069   4070
  2971   1   4072   4074
  2972   1   4072   4073
  2973   1   4075   4077
  2974   1   4075   4076
  2975   1   4078   4080
  2976   1   4078   4079
  2977   1   4081   4083
  2978   1   4081   4082
  2979   1   4084   4086
  2980   1   4084   4085
  2981   1   4087   4089
  2982   1   4087   4088
  2983   1   4090   4092
  2984   1   4090   4091
  2985   1   4093   4095
  2986   1   4093   4094
  2987   1   4096   4098
  2988   1   4096   4097
  2989   1   4099   4101
  2990   1   4099   4100
  2991   1   4102   4104
  2992   1   4102   4103
  2993   1   4105   4107
  2994   1   4105   4106
  2995   1   4108   4110
  2996   1   4108   4109
  2997   1   4111   4113
  2998   1   4111   4112
  2999   1   4114   4116
  3000   1   4114   4115
  3001   1   4117   4119
  3002   1   4117   4118
  3003   1   4120   4122
  3004   1   4120   4121
  3005   1   4123   4125
  3006   1   4123   4124
  3007   1   4126   4128
  3008   1   4126   4127
  3009   1   4129   4131
  3010   1   4129   4130
  3011   1   4132   4134
  3012   1   4132   4133
  3013   1   4135   4137
  3014   1   4135   4136
  3015   1   4138   4140
  3016   1   4138   4139
  3017   1   4141   4143
  3018   1   4141   4142
  3019   1   4144   4146
  3020   1   4144   4145
  3021   1   4147   4149
  3022   1   4147   4148
  3023   1   4150   4152
  3024   1   4150   4151
  3025   1   4153   4155
  3026   1   4153   4154
  3027   1   4156   4158
  3028   1   4156   4157
  3029   1   4159   4161
  3030   1   4159   4160
  3031   1   4162   4164
  3032   1   4162   4163
  3033   1   4165   4167
  3034   1   4165   4166
  3035   1   4168   4170
  3036   1   4168   4169
  3037   1   4171   4173
  3038   1   4171   4172
  3039   1   4174   4176
  3040   1   4174   4175
  3041   1   4177   4179
  3042   1   4177   4178
  3043   1   4180   4182
  3044   1   4180   4181
  3045   1   4183   4185
  3046   1   4183   4184
  3047   1   4186   4188
  3048   1   4186   4187
  3049   1   4189   4191
  3050   1   4189   4190
  3051   1   4192   4194
  3052   1   4192   4193
  3053   1   4195   4197
  3054   1   4195   4196
  3055   1   4198   4200
  3056   1   4198   4199
  3057   1   4201   4203
  3058   1   4201   4202
  3059   1   4204   4206
  3060   1   4204   4205
  3061   1   4207   4209
  3062   1   4207   4208
  3063   1   4210   4212
  3064   1   4210   4211
  3065   1   4213   4215
  3066   1   4213   4214
  3067   1   4216   4218
  3068   1   4216   4217
  3069   1   4219   4221
  3070   1   4219   4220
  3071   1   4222   4224
  3072   1   4222   4223
  3073   1   4225   4227
  3074   1   4225   4226
  3075   1   4228   4230
  3076   1   4228   4229
  3077   1   4231   4233
  3078   1   4231   4232
  3079   1   4234   4236
  3080   1   4234   4235
  3081   1   4237   4239
  3082   1   4237   4238
  3083   1   4240   4242
  3084   1   4240   4241
  3085   1   4243   4245
  3086   1   4243   4244
  3087   1   4246   4248
  3088   1   4246   4247
  3089   1   4249   4251
  3090   1   4249   4250
  3091   1   4252   4254
  3092   1   4252   4253
  3093   1   4255   4257
  3094   1   4255   4256
  3095   1   4258   4260
  3096   1   4258   4259
  3097   1   4261   4263
  3098   1   4261   4262
  3099   1   4264   4266
  3100   1   4264   4265
  3101   1   4267   4269
  3102   1   4267   4268
  3103   1   4270   4272
  3104   1   4270   4271
  3105   1   4273   4275
  3106   1   4273   4274
  3107   1   4276   4278
  3108   1   4276   4277
  3109   1   4279   4281
  3110   1   4279   4280
  3111   1   4282   4284
  3112   1   4282   4283
  3113   1   4285   4287
  3114   1   4285   4286
  3115   1   4288   4290
  3116   1   4288   4289
  3117   1   4291   4293
  3118   1   4291   4292
  3119   1   4294   4296
  3120   1   4294   4295
  3121   1   4297   4299
  3122   1   4297   4298
  3123   1   4300   4302
  3124   1   4300   4301
  3125   1   4303   4305
  3126   1   4303   4304
  3127   1   4306   4308
  3128   1   4306   4307
  3129   1   4309   4311
  3130   1   4309   4310
  3131   1   4312   4314
  3132   1   4312   4313
  3133   1   4315   4317
  3134   1   4315   4316
  3135   1   4318   4320
  3136   1   4318   4319
  3137   1   4321   4323
  3138   1   4321   4322
  3139   1   4324   4326
  3140   1   4324   4325
  3141   1   4327   4329
  3142   1   4327   4328
  3143   1   4330   4332
  3144   1   4330   4331
  3145   1   4333   4335
  3146   1   4333   4334
  3147   1   4336   4338
  3148   1   4336   4337
  3149   1   4339   4341
  3150   1   4339   4340
  3151   1   4342   4344
  3152   1   4342   4343
  3153   1   4345   4347
  3154   1   4345   4346
  3155   1   4348   4350
  3156   1   4348   4349
  3157   1   4351   4353
  3158   1   4351   4352
  3159   1   4354   4356
  3160   1   4354   4355
  3161   1   4357   4359
  3162   1   4357   4358
  3163   1   4360   4362
  3164   1   4360   4361
  3165   1   4363   4365
  3166   1   4363   4364
  3167   1   4366   4368
  3168   1   4366   4367
  3169   1   4369   4371
  3170   1   4369   4370
  3171   1   4372   4374
  3172   1   4372   4373
  3173   1   4375   4377
  3174   1   4375   4376
  3175   1   4378   4380
  3176   1   4378   4379
  3177   1   4381   4383
  3178   1   4381   4382
  3179   1   4384   4386
  3180   1   4384   4385
  3181   1   4387   4389
  3182   1   4387   4388
  3183   1   4390   4392
  3184   1   4390   4391
  3185   1   4393   4395
  3186   1   4393   4394
  3187   1   4396   4398
  3188   1   4396   4397
  3189   1   4399   4401
  3190   1   4399   4400
  3191   1   4402   4404
  3192   1   4402   4403
  3193   1   4405   4407
  3194   1   4405   4406
  3195   1   4408   4410
  3196   1   4408   4409
  3197   1   4411   4413
  3198   1   4411   4412
  3199   1   4414   4416
  3200   1   4414   4415
  3201   1   4417   4419
  3202   1   4417   4418
  3203   1   4420   4422
  3204   1   4420   4421
  3205   1   4423   4425
  3206   1   4423   4424
  3207   1   4426   4428
  3208   1   4426   4427
  3209   1   4429   4431
  3210   1   4429   4430
  3211   1   4432   4434
  3212   1   4432   4433
  3213   1   4435   4437
  3214   1   4435   4436
  3215   1   4438   4440
  3216   1   4438   4439
  3217   1   4441   4443
  3218   1   4441   4442
  3219   1   4444   4446
  3220   1   4444   4445
  3221   1   4447   4449
  3222   1   4447   4448
  3223   1   4450   4452
  3224   1   4450   4451
  3225   1   4453   4455
  3226   1   4453   4454
  3227   1   4456   4458
  3228   1   4456   4457
  3229   1   4459   4461
  3230   1   4459   4460
  3231   1   4462   4464
  3232   1   4462   4463
  3233   1   4465   4467
  3234   1   4465   4466
  3235   1   4468   4470
  3236   1   4468   4469
  3237   1   4471   4473
  3238   1   4471   4472
  3239   1   4474   4476
  3240   1   4474   4475
  3241   1   4477   4479
  3242   1   4477   4478
  3243   1   4480   4482
  3244   1   4480   4481
  3245   1   4483   4485
  3246   1   4483   4484
  3247   1   4486   4488
  3248   1   4486   4487
  3249   1   4489   4491
  3250   1   4489   4490
  3251   1   4492   4494
  3252   1   4492   4493
  3253   1   4495   4497
  3254   1   4495   4496
  3255   1   4498   4500
  3256   1   4498   4499
  3257   1   4501   4503
  3258   1   4501   4502
  3259   1   4504   4506
  3260   1   4504   4505
  3261   1   4507   4509
  3262   1   4507   4508
  3263   1   4510   4512
  3264   1   4510   4511
  3265   1   4513   4515
  3266   1   4513   4514
  3267   1   4516   4518
  3268   1   4516   4517
  3269   1   4519   4521
  3270   1   4519   4520
  3271   1   4522   4524
  3272   1   4522   4523
  3273   1   4525   4527
  3274   1   4525   4526
  3275   1   4528   4530
  3276   1   4528   4529
  3277   1   4531   4533
  3278   1   4531   4532
  3279   1   4534   4536
  3280   1   4534   4535
  3281   1   4537   4539
  3282   1   4537   4538
  3283   1   4540   4542
  3284   1   4540   4541
  3285   1   4543   4545
  3286   1   4543   4544
  3287   1   4546   4548
  3288   1   4546   4547
  3289   1   4549   4551
  3290   1   4549   4550
  3291   1   4552   4554
  3292   1   4552   4553
  3293   1   4555   4557
  3294   1   4555   4556
  3295   1   4558   4560
  3296   1   4558   4559
  3297   1   4561   4563
  3298   1   4561   4562
  3299   1   4564   4566
  3300   1   4564   4565
  3301   1   4567   4569
  3302   1   4567   4568
  3303   1   4570   4572
  3304   1   4570   4571
  3305   1   4573   4575
  3306   1   4573   4574
  3307   1   4576   4578
  3308   1   4576   4577
  3309   1   4579   4581
  3310   1   4579   4580
  3311   1   4582   4584
  3312   1   4582   4583
  3313   1   4585   4587
  3314   1   4585   4586
  3315   1   4588   4590
  3316   1   4588   4589
  3317   1   4591   4593
  3318   1   4591   4592
  3319   1   4594   4596
  3320   1   4594   4595
  3321   1   4597   4599
  3322   1   4597   4598
  3323   1   4600   4602
  3324   1   4600   4601
  3325   1   4603   4605
  3326   1   4603   4604
  3327   1   4606   4608
  3328   1   4606   4607
  3329   1   4609   4611
  3330   1   4609   4610
  3331   1   4612   4614
  3332   1   4612   4613
  3333   1   4615   4617
  3334   1   4615   4616
  3335   1   4618   4620
  3336   1   4618   4619
  3337   1   4621   4623
  3338   1   4621   4622
  3339   1   4624   4626
  3340   1   4624   4625
  3341   1   4627   4629
  3342   1   4627   4628
  3343   1   4630   4632
  3344   1   4630   4631
  3345   1   4633   4635
  3346   1   4633   4634
  3347   1   4636   4638
  3348   1   4636   4637
  3349   1   4639   4641
  3350   1   4639   4640
  3351   1   4642   4644
  3352   1   4642   4643
  3353   1   4645   4647
  3354   1   4645   4646
  3355   1   4648   4650
  3356   1   4648   4649
  3357   1   4651   4653
  3358   1   4651   4652
  3359   1   4654   4656
  3360   1   4654   4655
  3361   1   4657   4659
  3362   1   4657   4658
  3363   1   4660   4662
  3364   1   4660   4661
  3365   1   4663   4665
  3366   1   4663   4664
  3367   1   4666   4668
  3368   1   4666   4667
  3369   1   4669   4671
  3370   1   4669   4670
  3371   1   4672   4674
  3372   1   4672   4673
  3373   1   4675   4677
  3374   1   4675   4676
  3375   1   4678   4680
  3376   1   4678   4679
  3377   1   4681   4683
  3378   1   4681   4682
  3379   1   4684   4686
  3380   1   4684   4685
  3381   1   4687   4689
  3382   1   4687   4688
  3383   1   4690   4692
  3384   1   4690   4691
  3385   1   4693   4695
  3386   1   4693   4694
  3387   1   4696   4698
  3388   1   4696   4697
  3389   1   4699   4701
  3390   1   4699   4700
  3391   1   4702   4704
  3392   1   4702   4703
  3393   1   4705   4707
  3394   1   4705   4706
  3395   1   4708   4710
  3396   1   4708   4709
  3397   1   4711   4713
  3398   1   4711   4712
  3399   1   4714   4716
  3400   1   4714   4715
  3401   1   4717   4719
  3402   1   4717   4718
  3403   1   4720   4722
  3404   1   4720   4721
  3405   1   4723   4725
  3406   1   4723   4724
  3407   1   4726   4728
  3408   1   4726   4727
  3409   1   4729   4731
  3410   1   4729   4730
  3411   1   4732   4734
  3412   1   4732   4733
  3413   1   4735   4737
  3414   1   4735   4736
  3415   1   4738   4740
  3416   1   4738   4739
  3417   1   4741   4743
  3418   1   4741   4742
  3419   1   4744   4746
  3420   1   4744   4745
  3421   1   4747   4749
  3422   1   4747   4748
  3423   1   4750   4752
  3424   1   4750   4751
  3425   1   4753   4755
  3426   1   4753   4754
  3427   1   4756   4758
  3428   1   4756   4757
  3429   1   4759   4761
  3430   1   4759   4760
  3431   1   4762   4764
  3432   1   4762   4763
  3433   1   4765   4767
  3434   1   4765   4766
  3435   1   4768   4770
  3436   1   4768   4769
  3437   1   4771   4773
  3438   1   4771   4772
  3439   1   4774   4776
  3440   1   4774   4775
  3441   1   4777   4779
  3442   1   4777   4778
  3443   1   4780   4782
  3444   1   4780   4781
  3445   1   4783   4785
  3446   1   4783   4784
  3447   1   4786   4788
  3448   1   4786   4787
  3449   1   4789   4791
  3450   1   4789   4790
  3451   1   4792   4794
  3452   1   4792   4793
  3453   1   4795   4797
  3454   1   4795   4796
  3455   1   4798   4800
  3456   1   4798   4799
  3457   1   4801   4803
  3458   1   4801   4802
  3459   1   4804   4806
  3460   1   4804   4805
  3461   1   4807   4809
  3462   1   4807   4808
  3463   1   4810   4812
  3464   1   4810   4811
  3465   1   4813   4815
  3466   1   4813   4814
  3467   1   4816   4818
  3468   1   4816   4817
  3469   1   4819   4821
  3470   1   4819   4820
  3471   1   4822   4824
  3472   1   4822   4823
  3473   1   4825   4827
  3474   1   4825   4826
  3475   1   4828   4830
  3476   1   4828   4829
  3477   1   4831   4833
  3478   1   4831   4832
  3479   1   4834   4836
  3480   1   4834   4835
  3481   1   4837   4839
  3482   1   4837   4838
  3483   1   4840   4842
  3484   1   4840   4841
  3485   1   4843   4845
  3486   1   4843   4844
  3487   1   4846   4848
  3488   1   4846   4847
  3489   1   4849   4851
  3490   1   4849   4850
  3491   1   4852   4854
  3492   1   4852   4853
  3493   1   4855   4857
  3494   1   4855   4856
  3495   1   4858   4860
  3496   1   4858   4859
  3497   1   4861   4863
  3498   1   4861   4862
  3499   1   4864   4866
  3500   1   4864   4865
  3501   1   4867   4869
  3502   1   4867   4868
  3503   1   4870   4872
  3504   1   4870   4871
  3505   1   4873   4875
  3506   1   4873   4874
  3507   1   4876   4878
  3508   1   4876   4877
  3509   1   4879   4881
  3510   1   4879   4880
  3511   1   4882   4884
  3512   1   4882   4883
  3513   1   4885   4887
  3514   1   4885   4886
  3515   1   4888   4890
  3516   1   4888   4889
  3517   1   4891   4893
  3518   1   4891   4892
  3519   1   4894   4896
  3520   1   4894   4895

Angles

     1   1      3      1      2
     2   1     25      5     26
     3   2     12      8     13
     4   2     12      8   2434
     5   3     12      8     57
     6   4     13      8   2434
     7   2     57      8     13
     8   2     57      8   2434
     9   5      4      9     11
    10   6      4      9     14
    11   5      4      9     16
    12   7     11      9     14
    13   8     11      9     16
    14   7     16      9     14
    15   3     12     10     16
    16   2     12     10     17
    17   2     12     10     18
    18   2     16     10     17
    19   2     16     10     18
    20   4     17     10     18
    21   9    100     11      9
    22  10      8     12     10
    23  11      9     14     20
    24   1     21     15     22
    25   9     10     16      9
    26   1     23     19     24
    27   1     48     28     49
    28   2     35     31     36
    29   2     35     31   2435
    30   3     35     31     80
    31   4     36     31   2435
    32   2     80     31     36
    33   2     80     31   2435
    34   5     27     32     34
    35   6     27     32     37
    36   5     27     32     39
    37   7     34     32     37
    38   8     34     32     39
    39   7     39     32     37
    40   3     35     33     39
    41   2     35     33     40
    42   2     35     33     41
    43   2     39     33     40
    44   2     39     33     41
    45   4     40     33     41
    46   9    120     34     32
    47  10     31     35     33
    48  11     32     37     43
    49   1     44     38     45
    50   9     33     39     32
    51   1     46     42     47
    52   1     71     51     72
    53   2     58     54     59
    54   2     58     54   2436
    55   3     58     54    103
    56   4     59     54   2436
    57   2    103     54     59
    58   2    103     54   2436
    59   5     50     55     57
    60   6     50     55     60
    61   5     50     55     62
    62   7     57     55     60
    63   8     57     55     62
    64   7     62     55     60
    65   3     58     56     62
    66   2     58     56     63
    67   2     58     56     64
    68   2     62     56     63
    69   2     62     56     64
    70   4     63     56     64
    71   9      8     57     55
    72  10     54     58     56
    73  11     55     60     66
    74   1     67     61     68
    75   9     56     62     55
    76   1     69     65     70
    77   1     94     74     95
    78   2     81     77     82
    79   2     81     77   2437
    80   3     81     77    123
    81   4     82     77   2437
    82   2    123     77     82
    83   2    123     77   2437
    84   5     73     78     80
    85   6     73     78     83
    86   5     73     78     85
    87   7     80     78     83
    88   8     80     78     85
    89   7     85     78     83
    90   3     81     79     85
    91   2     81     79     86
    92   2     81     79     87
    93   2     85     79     86
    94   2     85     79     87
    95   4     86     79     87
    96   9     31     80     78
    97  10     77     81     79
    98  11     78     83     89
    99   1     90     84     91
   100   9     79     85     78
   101   1     92     88     93
   102   1    114     97    115
   103   2    104    100    105
   104   3    104    100     11
   105   2    104    100   2448
   106   2     11    100    105
   107   4    105    100   2448
   108   2     11    100   2448
   109   5     96    101    103
   110   6     96    101    106
   111   5     96    101    108
   112   7    103    101    106
   113   8    103    101    108
   114   7    108    101    106
   115   3    104    102    108
   116   2    104    102    109
   117   2    104    102    110
   118   2    108    102    109
   119   2    108    102    110
   120   4    109    102    110
   121   9     54    103    101
   122  10    100    104    102
   123  11    101    106    111
   124   1    112    107    113
   125   9    102    108    101
   126   1    134    117    135
   127   2    124    120    125
   128   3    124    120     34
   129   2    124    120   2449
   130   2     34    120    125
   131   4    125    120   2449
   132   2     34    120   2449
   133   5    116    121    123
   134   6    116    121    126
   135   5    116    121    128
   136   7    123    121    126
   137   8    123    121    128
   138   7    128    121    126
   139   3    124    122    128
   140   2    124    122    129
   141   2    124    122    130
   142   2    128    122    129
   143   2    128    122    130
   144   4    129    122    130
   145   9     77    123    121
   146  10    120    124    122
   147  11    121    126    131
   148   1    132    127    133
   149   9    122    128    121
   150   3    141    138    142
   151   2    141    138    143
   152   2    141    138    144
   153   2    142    138    143
   154   2    142    138    144
   155   4    143    138    144
   156   7    141    139    146
   157   8    141    139    148
   158   5    177    139    141
   159   7    148    139    146
   160   6    177    139    146
   161   5    177    139    148
   162   2    142    140    149
   163   2    142    140   2418
   164   3    142    140    548
   165   4    149    140   2418
   166   2    548    140    149
   167   2    548    140   2418
   168   9    138    141    139
   169  10    138    142    140
   170  11    139    146    207
   171   1    210    147    211
   172   9    340    148    139
   173   1    234    150    235
   174   1    212    151    213
   175   1    214    153    215
   176   3    159    156    160
   177   2    159    156    161
   178   2    159    156    162
   179   2    160    156    161
   180   2    160    156    162
   181   4    161    156    162
   182   7    159    157    164
   183   5    193    157    159
   184   8    159    157    366
   185   6    193    157    164
   186   7    366    157    164
   187   5    193    157    366
   188   3    160    158    166
   189   2    160    158    167
   190   2    160    158   2438
   191   2    166    158    167
   192   2    166    158   2438
   193   4    167    158   2438
   194   9    156    159    157
   195  10    156    160    158
   196  11    157    164    205
   197   1    228    165    229
   198   9    158    166   1158
   199   1    218    168    219
   200   2    175    171    176
   201   2    175    171   2439
   202   3    175    171    374
   203   4    176    171   2439
   204   2    374    171    176
   205   2    374    171   2439
   206   5    145    172    174
   207   6    145    172    178
   208   5    145    172    180
   209   7    174    172    178
   210   8    174    172    180
   211   7    180    172    178
   212   3    175    173    180
   213   2    175    173    181
   214   2    175    173    182
   215   2    180    173    181
   216   2    180    173    182
   217   4    181    173    182
   218   9    567    174    172
   219  10    171    175    173
   220  11    172    178    204
   221   1    230    179    231
   222   9    173    180    172
   223   1    208    183    209
   224   1    232    184    233
   225   2    190    187    192
   226   2    190    187   2440
   227   3    190    187   1164
   228   4    192    187   2440
   229   2   1164    187    192
   230   2   1164    187   2440
   231   5    163    188    190
   232   6    163    188    194
   233   5    163    188    196
   234   7    190    188    194
   235   8    190    188    196
   236   7    196    188    194
   237   3    191    189    196
   238   2    191    189    197
   239   2    191    189    198
   240   2    196    189    197
   241   2    196    189    198
   242   4    197    189    198
   243   9    187    190    188
   244  10    189    191    387
   245  11    188    194    206
   246   1    216    195    217
   247   9    189    196    188
   248   1    224    199    225
   249   1    222    200    223
   250   1    220    201    221
   251   1    226    203    227
   252   3    241    238    242
   253   2    241    238    243
   254   2    241    238    244
   255   2    242    238    243
   256   2    242    238    244
   257   4    243    238    244
   258   7    241    239    246
   259   8    241    239    248
   260   5    277    239    241
   261   7    248    239    246
   262   6    277    239    246
   263   5    277    239    248
   264   2    242    240    249
   265   2    242    240   2419
   266   3    242    240    635
   267   4    249    240   2419
   268   2    635    240    249
   269   2    635    240   2419
   270   9    238    241    239
   271  10    238    242    240
   272  11    239    246    307
   273   1    310    247    311
   274   9    440    248    239
   275   1    334    250    335
   276   1    312    251    313
   277   1    314    253    315
   278   3    259    256    260
   279   2    259    256    261
   280   2    259    256    262
   281   2    260    256    261
   282   2    260    256    262
   283   4    261    256    262
   284   7    259    257    264
   285   5    293    257    259
   286   8    259    257    466
   287   6    293    257    264
   288   7    466    257    264
   289   5    293    257    466
   290   3    260    258    266
   291   2    260    258    267
   292   2    260    258   2441
   293   2    266    258    267
   294   2    266    258   2441
   295   4    267    258   2441
   296   9    256    259    257
   297  10    256    260    258
   298  11    257    264    305
   299   1    328    265    329
   300   9    258    266   1171
   301   1    318    268    319
   302   2    275    271    276
   303   2    275    271   2442
   304   3    275    271    474
   305   4    276    271   2442
   306   2    474    271    276
   307   2    474    271   2442
   308   5    245    272    274
   309   6    245    272    278
   310   5    245    272    280
   311   7    274    272    278
   312   8    274    272    280
   313   7    280    272    278
   314   3    275    273    280
   315   2    275    273    281
   316   2    275    273    282
   317   2    280    273    281
   318   2    280    273    282
   319   4    281    273    282
   320   9    654    274    272
   321  10    271    275    273
   322  11    272    278    304
   323   1    330    279    331
   324   9    273    280    272
   325   1    308    283    309
   326   1    332    284    333
   327   2    290    287    292
   328   2    290    287   2443
   329   3    290    287   1177
   330   4    292    287   2443
   331   2   1177    287    292
   332   2   1177    287   2443
   333   5    263    288    290
   334   6    263    288    294
   335   5    263    288    296
   336   7    290    288    294
   337   8    290    288    296
   338   7    296    288    294
   339   3    291    289    296
   340   2    291    289    297
   341   2    291    289    298
   342   2    296    289    297
   343   2    296    289    298
   344   4    297    289    298
   345   9    287    290    288
   346  10    289    291    487
   347  11    288    294    306
   348   1    316    295    317
   349   9    289    296    288
   350   1    324    299    325
   351   1    322    300    323
   352   1    320    301    321
   353   1    326    303    327
   354   3    341    338    342
   355   2    341    338    343
   356   2    341    338    344
   357   2    342    338    343
   358   2    342    338    344
   359   4    343    338    344
   360   7    341    339    346
   361   8    341    339    348
   362   5    377    339    341
   363   7    348    339    346
   364   6    377    339    346
   365   5    377    339    348
   366   3    148    340    342
   367   2    148    340    349
   368   2    148    340   2404
   369   2    342    340    349
   370   2    342    340   2404
   371   4    349    340   2404
   372   9    338    341    339
   373  10    338    342    340
   374  11    339    346    407
   375   1    410    347    411
   376   9    540    348    339
   377   1    434    350    435
   378   1    412    351    413
   379   1    414    353    415
   380   3    359    356    360
   381   2    359    356    361
   382   2    359    356    362
   383   2    360    356    361
   384   2    360    356    362
   385   4    361    356    362
   386   7    359    357    364
   387   5    393    357    359
   388   8    359    357    564
   389   6    393    357    364
   390   7    564    357    364
   391   5    393    357    564
   392   3    360    358    366
   393   2    360    358    367
   394   2    360    358   2405
   395   2    366    358    367
   396   2    366    358   2405
   397   4    367    358   2405
   398   9    356    359    357
   399  10    356    360    358
   400  11    357    364    405
   401   1    428    365    429
   402   9    358    366    157
   403   1    418    368    419
   404   2    375    371    376
   405   2    375    371   2406
   406   3    375    371    570
   407   4    376    371   2406
   408   2    570    371    376
   409   2    570    371   2406
   410   5    345    372    374
   411   6    345    372    378
   412   5    345    372    380
   413   7    374    372    378
   414   8    374    372    380
   415   7    380    372    378
   416   3    375    373    380
   417   2    375    373    381
   418   2    375    373    382
   419   2    380    373    381
   420   2    380    373    382
   421   4    381    373    382
   422   9    171    374    372
   423  10    371    375    373
   424  11    372    378    404
   425   1    430    379    431
   426   9    373    380    372
   427   1    408    383    409
   428   1    432    384    433
   429   3    191    387    390
   430   2    191    387    392
   431   2    191    387   2407
   432   2    390    387    392
   433   2    390    387   2407
   434   4    392    387   2407
   435   5    363    388    390
   436   6    363    388    394
   437   5    363    388    396
   438   7    390    388    394
   439   8    390    388    396
   440   7    396    388    394
   441   3    391    389    396
   442   2    391    389    397
   443   2    391    389    398
   444   2    396    389    397
   445   2    396    389    398
   446   4    397    389    398
   447   9    387    390    388
   448  10    389    391    581
   449  11    388    394    406
   450   1    416    395    417
   451   9    389    396    388
   452   1    424    399    425
   453   1    422    400    423
   454   1    420    401    421
   455   1    426    403    427
   456   3    441    438    442
   457   2    441    438    443
   458   2    441    438    444
   459   2    442    438    443
   460   2    442    438    444
   461   4    443    438    444
   462   7    441    439    446
   463   8    441    439    448
   464   5    477    439    441
   465   7    448    439    446
   466   6    477    439    446
   467   5    477    439    448
   468   3    248    440    442
   469   2    248    440    449
   470   2    248    440   2408
   471   2    442    440    449
   472   2    442    440   2408
   473   4    449    440   2408
   474   9    438    441    439
   475  10    438    442    440
   476  11    439    446    507
   477   1    510    447    511
   478   9    627    448    439
   479   1    534    450    535
   480   1    512    451    513
   481   1    514    453    515
   482   3    459    456    460
   483   2    459    456    461
   484   2    459    456    462
   485   2    460    456    461
   486   2    460    456    462
   487   4    461    456    462
   488   7    459    457    464
   489   5    493    457    459
   490   8    459    457    651
   491   6    493    457    464
   492   7    651    457    464
   493   5    493    457    651
   494   3    460    458    466
   495   2    460    458    467
   496   2    460    458   2409
   497   2    466    458    467
   498   2    466    458   2409
   499   4    467    458   2409
   500   9    456    459    457
   501  10    456    460    458
   502  11    457    464    505
   503   1    528    465    529
   504   9    458    466    257
   505   1    518    468    519
   506   2    475    471    476
   507   2    475    471   2410
   508   3    475    471    657
   509   4    476    471   2410
   510   2    657    471    476
   511   2    657    471   2410
   512   5    445    472    474
   513   6    445    472    478
   514   5    445    472    480
   515   7    474    472    478
   516   8    474    472    480
   517   7    480    472    478
   518   3    475    473    480
   519   2    475    473    481
   520   2    475    473    482
   521   2    480    473    481
   522   2    480    473    482
   523   4    481    473    482
   524   9    271    474    472
   525  10    471    475    473
   526  11    472    478    504
   527   1    530    479    531
   528   9    473    480    472
   529   1    508    483    509
   530   1    532    484    533
   531   3    291    487    490
   532   2    291    487    492
   533   2    291    487   2411
   534   2    490    487    492
   535   2    490    487   2411
   536   4    492    487   2411
   537   5    463    488    490
   538   6    463    488    494
   539   5    463    488    496
   540   7    490    488    494
   541   8    490    488    496
   542   7    496    488    494
   543   3    491    489    496
   544   2    491    489    497
   545   2    491    489    498
   546   2    496    489    497
   547   2    496    489    498
   548   4    497    489    498
   549   9    487    490    488
   550  10    489    491    668
   551  11    488    494    506
   552   1    516    495    517
   553   9    489    496    488
   554   1    524    499    525
   555   1    522    500    523
   556   1    520    501    521
   557   1    526    503    527
   558   3    541    538    542
   559   2    541    538    543
   560   2    541    538    544
   561   2    542    538    543
   562   2    542    538    544
   563   4    543    538    544
   564   7    541    539    546
   565   8    541    539    548
   566   5    573    539    541
   567   7    548    539    546
   568   6    573    539    546
   569   5    573    539    548
   570   3    348    540    542
   571   2    348    540    549
   572   2    348    540   2412
   573   2    542    540    549
   574   2    542    540   2412
   575   4    549    540   2412
   576   9    538    541    539
   577  10    538    542    540
   578  11    539    546    598
   579   1    601    547    602
   580   9    140    548    539
   581   1    621    550    622
   582   1    603    551    604
   583   1    605    553    606
   584   3    558    556    559
   585   2    558    556    560
   586   2    558    556    561
   587   2    559    556    560
   588   2    559    556    561
   589   4    560    556    561
   590   3    559    557    564
   591   2    559    557    565
   592   2    559    557   2413
   593   2    564    557    565
   594   2    564    557   2413
   595   4    565    557   2413
   596   9    556    558   1158
   597  10    556    559    557
   598   1    617    563    618
   599   9    557    564    357
   600   2    571    567    572
   601   3    571    567    174
   602   2    571    567   2450
   603   2    174    567    572
   604   4    572    567   2450
   605   2    174    567   2450
   606   5    545    568    570
   607   6    545    568    574
   608   5    545    568    576
   609   7    570    568    574
   610   8    570    568    576
   611   7    576    568    574
   612   3    571    569    576
   613   2    571    569    577
   614   2    571    569    578
   615   2    576    569    577
   616   2    576    569    578
   617   4    577    569    578
   618   9    371    570    568
   619  10    567    571    569
   620  11    568    574    596
   621   1    619    575    620
   622   9    569    576    568
   623   1    599    579    600
   624   3    391    581    584
   625   2    391    581    585
   626   2    391    581   2414
   627   2    584    581    585
   628   2    584    581   2414
   629   4    585    581   2414
   630   5    562    582    584
   631   6    562    582    586
   632   5    562    582    588
   633   7    584    582    586
   634   8    584    582    588
   635   7    588    582    586
   636   2    588    583    589
   637   2    588    583    590
   638   3    588    583   1164
   639   4    589    583    590
   640   2   1164    583    589
   641   2   1164    583    590
   642   9    581    584    582
   643  11    582    586    597
   644   1    607    587    608
   645   9    583    588    582
   646   1    613    591    614
   647   1    611    592    612
   648   1    609    593    610
   649   1    615    595    616
   650   3    628    625    629
   651   2    628    625    630
   652   2    628    625    631
   653   2    629    625    630
   654   2    629    625    631
   655   4    630    625    631
   656   7    628    626    633
   657   8    628    626    635
   658   5    660    626    628
   659   7    635    626    633
   660   6    660    626    633
   661   5    660    626    635
   662   3    448    627    629
   663   2    448    627    636
   664   2    448    627   2415
   665   2    629    627    636
   666   2    629    627   2415
   667   4    636    627   2415
   668   9    625    628    626
   669  10    625    629    627
   670  11    626    633    685
   671   1    688    634    689
   672   9    240    635    626
   673   1    708    637    709
   674   1    690    638    691
   675   1    692    640    693
   676   3    645    643    646
   677   2    645    643    647
   678   2    645    643    648
   679   2    646    643    647
   680   2    646    643    648
   681   4    647    643    648
   682   3    646    644    651
   683   2    646    644    652
   684   2    646    644   2416
   685   2    651    644    652
   686   2    651    644   2416
   687   4    652    644   2416
   688   9    643    645   1171
   689  10    643    646    644
   690   1    704    650    705
   691   9    644    651    457
   692   2    658    654    659
   693   3    658    654    274
   694   2    658    654   2451
   695   2    274    654    659
   696   4    659    654   2451
   697   2    274    654   2451
   698   5    632    655    657
   699   6    632    655    661
   700   5    632    655    663
   701   7    657    655    661
   702   8    657    655    663
   703   7    663    655    661
   704   3    658    656    663
   705   2    658    656    664
   706   2    658    656    665
   707   2    663    656    664
   708   2    663    656    665
   709   4    664    656    665
   710   9    471    657    655
   711  10    654    658    656
   712  11    655    661    683
   713   1    706    662    707
   714   9    656    663    655
   715   1    686    666    687
   716   3    491    668    671
   717   2    491    668    672
   718   2    491    668   2417
   719   2    671    668    672
   720   2    671    668   2417
   721   4    672    668   2417
   722   5    649    669    671
   723   6    649    669    673
   724   5    649    669    675
   725   7    671    669    673
   726   8    671    669    675
   727   7    675    669    673
   728   2    675    670    676
   729   2    675    670    677
   730   3    675    670   1177
   731   4    676    670    677
   732   2   1177    670    676
   733   2   1177    670    677
   734   9    668    671    669
   735  11    669    673    684
   736   1    694    674    695
   737   9    670    675    669
   738   1    700    678    701
   739   1    698    679    699
   740   1    696    680    697
   741   1    702    682    703
   742   3    715    712    716
   743   2    715    712    717
   744   2    715    712    718
   745   2    716    712    717
   746   2    716    712    718
   747   4    717    712    718
   748   7    715    713    719
   749   8    715    713    721
   750   5    741    713    715
   751   7    721    713    719
   752   6    741    713    719
   753   5    741    713    721
   754   2    716    714    722
   755   2    716    714   2432
   756   3    716    714   1029
   757   4    722    714   2432
   758   2   1029    714    722
   759   2   1029    714   2432
   760   9    712    715    713
   761  10    712    716    714
   762  11    713    719    764
   763   1    767    720    768
   764   9    868    721    713
   765   1    769    723    770
   766   1    771    725    772
   767   3    730    727    731
   768   2    730    727    732
   769   2    730    727    733
   770   2    731    727    732
   771   2    731    727    733
   772   4    732    727    733
   773   7    730    728    735
   774   5    751    728    730
   775   8    730    728    891
   776   6    751    728    735
   777   7    891    728    735
   778   5    751    728    891
   779   3    731    729    737
   780   2    731    729    738
   781   2    731    729   2444
   782   2    737    729    738
   783   2    737    729   2444
   784   4    738    729   2444
   785   9    727    730    728
   786  10    727    731    729
   787  11    728    735    762
   788   1    785    736    786
   789   9    729    737   1184
   790   1    775    739    776
   791   1    765    742    766
   792   2    748    745    750
   793   2    748    745   2445
   794   3    748    745   1189
   795   4    750    745   2445
   796   2   1189    745    750
   797   2   1189    745   2445
   798   5    734    746    748
   799   6    734    746    752
   800   5    734    746    754
   801   7    748    746    752
   802   8    748    746    754
   803   7    754    746    752
   804   3    749    747    754
   805   2    749    747    755
   806   2    749    747    756
   807   2    754    747    755
   808   2    754    747    756
   809   4    755    747    756
   810   9    745    748    746
   811  10    747    749    899
   812  11    746    752    763
   813   1    773    753    774
   814   9    747    754    746
   815   1    781    757    782
   816   1    779    758    780
   817   1    777    759    778
   818   1    783    761    784
   819   3    792    789    793
   820   2    792    789    794
   821   2    792    789    795
   822   2    793    789    794
   823   2    793    789    795
   824   4    794    789    795
   825   7    792    790    796
   826   8    792    790    798
   827   5    818    790    792
   828   7    798    790    796
   829   6    818    790    796
   830   5    818    790    798
   831   2    793    791    799
   832   2    793    791   2433
   833   3    793    791   1096
   834   4    799    791   2433
   835   2   1096    791    799
   836   2   1096    791   2433
   837   9    789    792    790
   838  10    789    793    791
   839  11    790    796    841
   840   1    844    797    845
   841   9    945    798    790
   842   1    846    800    847
   843   1    848    802    849
   844   3    807    804    808
   845   2    807    804    809
   846   2    807    804    810
   847   2    808    804    809
   848   2    808    804    810
   849   4    809    804    810
   850   7    807    805    812
   851   5    828    805    807
   852   8    807    805    968
   853   6    828    805    812
   854   7    968    805    812
   855   5    828    805    968
   856   3    808    806    814
   857   2    808    806    815
   858   2    808    806   2446
   859   2    814    806    815
   860   2    814    806   2446
   861   4    815    806   2446
   862   9    804    807    805
   863  10    804    808    806
   864  11    805    812    839
   865   1    862    813    863
   866   9    806    814   1194
   867   1    852    816    853
   868   1    842    819    843
   869   2    825    822    827
   870   2    825    822   2447
   871   3    825    822   1199
   872   4    827    822   2447
   873   2   1199    822    827
   874   2   1199    822   2447
   875   5    811    823    825
   876   6    811    823    829
   877   5    811    823    831
   878   7    825    823    829
   879   8    825    823    831
   880   7    831    823    829
   881   3    826    824    831
   882   2    826    824    832
   883   2    826    824    833
   884   2    831    824    832
   885   2    831    824    833
   886   4    832    824    833
   887   9    822    825    823
   888  10    824    826    976
   889  11    823    829    840
   890   1    850    830    851
   891   9    824    831    823
   892   1    858    834    859
   893   1    856    835    857
   894   1    854    836    855
   895   1    860    838    861
   896   3    869    866    870
   897   2    869    866    871
   898   2    869    866    872
   899   2    870    866    871
   900   2    870    866    872
   901   4    871    866    872
   902   7    869    867    873
   903   8    869    867    875
   904   5    895    867    869
   905   7    875    867    873
   906   6    895    867    873
   907   5    895    867    875
   908   3    721    868    870
   909   2    721    868    876
   910   2    721    868   2420
   911   2    870    868    876
   912   2    870    868   2420
   913   4    876    868   2420
   914   9    866    869    867
   915  10    866    870    868
   916  11    867    873    918
   917   1    921    874    922
   918   9   1022    875    867
   919   1    923    877    924
   920   1    925    879    926
   921   3    884    881    885
   922   2    884    881    886
   923   2    884    881    887
   924   2    885    881    886
   925   2    885    881    887
   926   4    886    881    887
   927   7    884    882    889
   928   5    905    882    884
   929   8    884    882   1043
   930   6    905    882    889
   931   7   1043    882    889
   932   5    905    882   1043
   933   3    885    883    891
   934   2    885    883    892
   935   2    885    883   2421
   936   2    891    883    892
   937   2    891    883   2421
   938   4    892    883   2421
   939   9    881    884    882
   940  10    881    885    883
   941  11    882    889    916
   942   1    939    890    940
   943   9    883    891    728
   944   1    929    893    930
   945   1    919    896    920
   946   3    749    899    902
   947   2    749    899    904
   948   2    749    899   2422
   949   2    902    899    904
   950   2    902    899   2422
   951   4    904    899   2422
   952   5    888    900    902
   953   6    888    900    906
   954   5    888    900    908
   955   7    902    900    906
   956   8    902    900    908
   957   7    908    900    906
   958   3    903    901    908
   959   2    903    901    909
   960   2    903    901    910
   961   2    908    901    909
   962   2    908    901    910
   963   4    909    901    910
   964   9    899    902    900
   965  10    901    903   1048
   966  11    900    906    917
   967   1    927    907    928
   968   9    901    908    900
   969   1    935    911    936
   970   1    933    912    934
   971   1    931    913    932
   972   1    937    915    938
   973   3    946    943    947
   974   2    946    943    948
   975   2    946    943    949
   976   2    947    943    948
   977   2    947    943    949
   978   4    948    943    949
   979   7    946    944    950
   980   8    946    944    952
   981   5    972    944    946
   982   7    952    944    950
   983   6    972    944    950
   984   5    972    944    952
   985   3    798    945    947
   986   2    798    945    953
   987   2    798    945   2423
   988   2    947    945    953
   989   2    947    945   2423
   990   4    953    945   2423
   991   9    943    946    944
   992  10    943    947    945
   993  11    944    950    995
   994   1    998    951    999
   995   9   1089    952    944
   996   1   1000    954   1001
   997   1   1002    956   1003
   998   3    961    958    962
   999   2    961    958    963
  1000   2    961    958    964
  1001   2    962    958    963
  1002   2    962    958    964
  1003   4    963    958    964
  1004   7    961    959    966
  1005   5    982    959    961
  1006   8    961    959   1110
  1007   6    982    959    966
  1008   7   1110    959    966
  1009   5    982    959   1110
  1010   3    962    960    968
  1011   2    962    960    969
  1012   2    962    960   2424
  1013   2    968    960    969
  1014   2    968    960   2424
  1015   4    969    960   2424
  1016   9    958    961    959
  1017  10    958    962    960
  1018  11    959    966    993
  1019   1   1016    967   1017
  1020   9    960    968    805
  1021   1   1006    970   1007
  1022   1    996    973    997
  1023   3    826    976    979
  1024   2    826    976    981
  1025   2    826    976   2425
  1026   2    979    976    981
  1027   2    979    976   2425
  1028   4    981    976   2425
  1029   5    965    977    979
  1030   6    965    977    983
  1031   5    965    977    985
  1032   7    979    977    983
  1033   8    979    977    985
  1034   7    985    977    983
  1035   3    980    978    985
  1036   2    980    978    986
  1037   2    980    978    987
  1038   2    985    978    986
  1039   2    985    978    987
  1040   4    986    978    987
  1041   9    976    979    977
  1042  10    978    980   1115
  1043  11    977    983    994
  1044   1   1004    984   1005
  1045   9    978    985    977
  1046   1   1012    988   1013
  1047   1   1010    989   1011
  1048   1   1008    990   1009
  1049   1   1014    992   1015
  1050   3   1023   1020   1024
  1051   2   1023   1020   1025
  1052   2   1023   1020   1026
  1053   2   1024   1020   1025
  1054   2   1024   1020   1026
  1055   4   1025   1020   1026
  1056   7   1023   1021   1027
  1057   8   1023   1021   1029
  1058   5   1045   1021   1023
  1059   7   1029   1021   1027
  1060   6   1045   1021   1027
  1061   5   1045   1021   1029
  1062   3    875   1022   1024
  1063   2    875   1022   1030
  1064   2    875   1022   2426
  1065   2   1024   1022   1030
  1066   2   1024   1022   2426
  1067   4   1030   1022   2426
  1068   9   1020   1023   1021
  1069  10   1020   1024   1022
  1070  11   1021   1027   1064
  1071   1   1067   1028   1068
  1072   9    714   1029   1021
  1073   1   1069   1031   1070
  1074   1   1071   1033   1072
  1075   3   1037   1035   1038
  1076   2   1037   1035   1039
  1077   2   1037   1035   1040
  1078   2   1038   1035   1039
  1079   2   1038   1035   1040
  1080   4   1039   1035   1040
  1081   3   1038   1036   1043
  1082   2   1038   1036   1044
  1083   2   1038   1036   2427
  1084   2   1043   1036   1044
  1085   2   1043   1036   2427
  1086   4   1044   1036   2427
  1087   9   1035   1037   1184
  1088  10   1035   1038   1036
  1089   1   1083   1042   1084
  1090   9   1036   1043    882
  1091   1   1065   1046   1066
  1092   3    903   1048   1051
  1093   2    903   1048   1052
  1094   2    903   1048   2428
  1095   2   1051   1048   1052
  1096   2   1051   1048   2428
  1097   4   1052   1048   2428
  1098   5   1041   1049   1051
  1099   6   1041   1049   1053
  1100   5   1041   1049   1055
  1101   7   1051   1049   1053
  1102   8   1051   1049   1055
  1103   7   1055   1049   1053
  1104   2   1055   1050   1056
  1105   2   1055   1050   1057
  1106   3   1055   1050   1189
  1107   4   1056   1050   1057
  1108   2   1189   1050   1056
  1109   2   1189   1050   1057
  1110   9   1048   1051   1049
  1111  11   1049   1053   1063
  1112   1   1073   1054   1074
  1113   9   1050   1055   1049
  1114   1   1079   1058   1080
  1115   1   1077   1059   1078
  1116   1   1075   1060   1076
  1117   1   1081   1062   1082
  1118   3   1090   1087   1091
  1119   2   1090   1087   1092
  1120   2   1090   1087   1093
  1121   2   1091   1087   1092
  1122   2   1091   1087   1093
  1123   4   1092   1087   1093
  1124   7   1090   1088   1094
  1125   8   1090   1088   1096
  1126   5   1112   1088   1090
  1127   7   1096   1088   1094
  1128   6   1112   1088   1094
  1129   5   1112   1088   1096
  1130   3    952   1089   1091
  1131   2    952   1089   1097
  1132   2    952   1089   2429
  1133   2   1091   1089   1097
  1134   2   1091   1089   2429
  1135   4   1097   1089   2429
  1136   9   1087   1090   1088
  1137  10   1087   1091   1089
  1138  11   1088   1094   1131
  1139   1   1134   1095   1135
  1140   9    791   1096   1088
  1141   1   1136   1098   1137
  1142   1   1138   1100   1139
  1143   3   1104   1102   1105
  1144   2   1104   1102   1106
  1145   2   1104   1102   1107
  1146   2   1105   1102   1106
  1147   2   1105   1102   1107
  1148   4   1106   1102   1107
  1149   3   1105   1103   1110
  1150   2   1105   1103   1111
  1151   2   1105   1103   2430
  1152   2   1110   1103   1111
  1153   2   1110   1103   2430
  1154   4   1111   1103   2430
  1155   9   1102   1104   1194
  1156  10   1102   1105   1103
  1157   1   1150   1109   1151
  1158   9   1103   1110    959
  1159   1   1132   1113   1133
  1160   3    980   1115   1118
  1161   2    980   1115   1119
  1162   2    980   1115   2431
  1163   2   1118   1115   1119
  1164   2   1118   1115   2431
  1165   4   1119   1115   2431
  1166   5   1108   1116   1118
  1167   6   1108   1116   1120
  1168   5   1108   1116   1122
  1169   7   1118   1116   1120
  1170   8   1118   1116   1122
  1171   7   1122   1116   1120
  1172   2   1122   1117   1123
  1173   2   1122   1117   1124
  1174   3   1122   1117   1199
  1175   4   1123   1117   1124
  1176   2   1199   1117   1123
  1177   2   1199   1117   1124
  1178   9   1115   1118   1116
  1179  11   1116   1120   1130
  1180   1   1140   1121   1141
  1181   9   1117   1122   1116
  1182   1   1146   1125   1147
  1183   1   1144   1126   1145
  1184   1   1142   1127   1143
  1185   1   1148   1129   1149
  1186   1   1153   1152   1154
  1187   1   1156   1155   1157
  1188   7    166   1158   1159
  1189   5   1165   1158    166
  1190   8    166   1158    558
  1191   6   1165   1158   1159
  1192   7    558   1158   1159
  1193   5   1165   1158    558
  1194  11   1158   1159   1166
  1195   1   1167   1160   1168
  1196   1   1169   1162   1170
  1197  10    187   1164    583
  1198   7    266   1171   1172
  1199   5   1178   1171    266
  1200   8    266   1171    645
  1201   6   1178   1171   1172
  1202   7    645   1171   1172
  1203   5   1178   1171    645
  1204  11   1171   1172   1179
  1205   1   1180   1173   1181
  1206   1   1182   1175   1183
  1207  10    287   1177    670
  1208   7    737   1184   1185
  1209   5   1190   1184    737
  1210   8    737   1184   1037
  1211   6   1190   1184   1185
  1212   7   1037   1184   1185
  1213   5   1190   1184   1037
  1214  11   1184   1185   1191
  1215   1   1192   1186   1193
  1216  10    745   1189   1050
  1217   7    814   1194   1195
  1218   5   1200   1194    814
  1219   8    814   1194   1104
  1220   6   1200   1194   1195
  1221   7   1104   1194   1195
  1222   5   1200   1194   1104
  1223  11   1194   1195   1201
  1224   1   1202   1196   1203
  1225  10    822   1199   1117
  1226   1   1224   1205   1225
  1227   3   1211   1208   1212
  1228   2   1211   1208   1213
  1229   2   1211   1208   2494
  1230   2   1212   1208   1213
  1231   2   1212   1208   2494
  1232   4   1213   1208   2494
  1233   5   1204   1209   1211
  1234   6   1204   1209   1214
  1235   5   1204   1209   1216
  1236   7   1211   1209   1214
  1237   8   1211   1209   1216
  1238   7   1216   1209   1214
  1239   2   1212   1210   1217
  1240   2   1212   1210   2384
  1241   3   1212   1210   1306
  1242   4   1217   1210   2384
  1243   2   1306   1210   1217
  1244   2   1306   1210   2384
  1245   9   1208   1211   1209
  1246  10   1208   1212   1210
  1247  11   1209   1214   1219
  1248   1   1220   1215   1221
  1249   9   1254   1216   1209
  1250   1   1222   1218   1223
  1251   1   1246   1227   1247
  1252   3   1233   1230   1234
  1253   2   1233   1230   1235
  1254   2   1233   1230   2495
  1255   2   1234   1230   1235
  1256   2   1234   1230   2495
  1257   4   1235   1230   2495
  1258   5   1226   1231   1233
  1259   6   1226   1231   1236
  1260   5   1226   1231   1238
  1261   7   1233   1231   1236
  1262   8   1233   1231   1238
  1263   7   1238   1231   1236
  1264   2   1234   1232   1239
  1265   2   1234   1232   2385
  1266   3   1234   1232   1329
  1267   4   1239   1232   2385
  1268   2   1329   1232   1239
  1269   2   1329   1232   2385
  1270   9   1230   1233   1231
  1271  10   1230   1234   1232
  1272  11   1231   1236   1241
  1273   1   1242   1237   1243
  1274   9   1277   1238   1231
  1275   1   1244   1240   1245
  1276   1   1269   1249   1270
  1277   3   1255   1252   1256
  1278   2   1255   1252   1257
  1279   2   1255   1252   2496
  1280   2   1256   1252   1257
  1281   2   1256   1252   2496
  1282   4   1257   1252   2496
  1283   5   1248   1253   1255
  1284   6   1248   1253   1258
  1285   5   1248   1253   1260
  1286   7   1255   1253   1258
  1287   8   1255   1253   1260
  1288   7   1260   1253   1258
  1289   3   1216   1254   1256
  1290   2   1216   1254   1261
  1291   2   1216   1254   1262
  1292   2   1256   1254   1261
  1293   2   1256   1254   1262
  1294   4   1261   1254   1262
  1295   9   1252   1255   1253
  1296  10   1252   1256   1254
  1297  11   1253   1258   1264
  1298   1   1265   1259   1266
  1299   9   1300   1260   1253
  1300   1   1267   1263   1268
  1301   1   1292   1272   1293
  1302   3   1278   1275   1279
  1303   2   1278   1275   1280
  1304   2   1278   1275   2497
  1305   2   1279   1275   1280
  1306   2   1279   1275   2497
  1307   4   1280   1275   2497
  1308   5   1271   1276   1278
  1309   6   1271   1276   1281
  1310   5   1271   1276   1283
  1311   7   1278   1276   1281
  1312   8   1278   1276   1283
  1313   7   1283   1276   1281
  1314   3   1238   1277   1279
  1315   2   1238   1277   1284
  1316   2   1238   1277   1285
  1317   2   1279   1277   1284
  1318   2   1279   1277   1285
  1319   4   1284   1277   1285
  1320   9   1275   1278   1276
  1321  10   1275   1279   1277
  1322  11   1276   1281   1287
  1323   1   1288   1282   1289
  1324   9   1323   1283   1276
  1325   1   1290   1286   1291
  1326   1   1315   1295   1316
  1327   3   1301   1298   1302
  1328   2   1301   1298   1303
  1329   2   1301   1298   2498
  1330   2   1302   1298   1303
  1331   2   1302   1298   2498
  1332   4   1303   1298   2498
  1333   5   1294   1299   1301
  1334   6   1294   1299   1304
  1335   5   1294   1299   1306
  1336   7   1301   1299   1304
  1337   8   1301   1299   1306
  1338   7   1306   1299   1304
  1339   3   1260   1300   1302
  1340   2   1260   1300   1307
  1341   2   1260   1300   1308
  1342   2   1302   1300   1307
  1343   2   1302   1300   1308
  1344   4   1307   1300   1308
  1345   9   1298   1301   1299
  1346  10   1298   1302   1300
  1347  11   1299   1304   1310
  1348   1   1311   1305   1312
  1349   9   1210   1306   1299
  1350   1   1313   1309   1314
  1351   1   1338   1318   1339
  1352   3   1324   1321   1325
  1353   2   1324   1321   1326
  1354   2   1324   1321   2499
  1355   2   1325   1321   1326
  1356   2   1325   1321   2499
  1357   4   1326   1321   2499
  1358   5   1317   1322   1324
  1359   6   1317   1322   1327
  1360   5   1317   1322   1329
  1361   7   1324   1322   1327
  1362   8   1324   1322   1329
  1363   7   1329   1322   1327
  1364   3   1283   1323   1325
  1365   2   1283   1323   1330
  1366   2   1283   1323   1331
  1367   2   1325   1323   1330
  1368   2   1325   1323   1331
  1369   4   1330   1323   1331
  1370   9   1321   1324   1322
  1371  10   1321   1325   1323
  1372  11   1322   1327   1333
  1373   1   1334   1328   1335
  1374   9   1232   1329   1322
  1375   1   1336   1332   1337
  1376   2   1346   1342   1347
  1377   2   1346   1342   1348
  1378   3   1346   1342   1535
  1379   4   1347   1342   1348
  1380   2   1535   1342   1347
  1381   2   1535   1342   1348
  1382   7   1345   1343   1350
  1383   8   1345   1343   1352
  1384   5   1381   1343   1345
  1385   7   1352   1343   1350
  1386   6   1381   1343   1350
  1387   5   1381   1343   1352
  1388   3   1346   1344   1352
  1389   2   1346   1344   1353
  1390   2   1346   1344   2452
  1391   2   1352   1344   1353
  1392   2   1352   1344   2452
  1393   4   1353   1344   2452
  1394   9   1732   1345   1343
  1395  10   1342   1346   1344
  1396  11   1343   1350   1408
  1397   1   1411   1351   1412
  1398   9   1344   1352   1343
  1399   1   1433   1354   1434
  1400   1   1413   1355   1414
  1401   1   1415   1357   1416
  1402   2   1363   1360   1365
  1403   2   1363   1360   1366
  1404   3   1363   1360   2377
  1405   4   1365   1360   1366
  1406   2   2377   1360   1365
  1407   2   2377   1360   1366
  1408   7   1363   1361   1368
  1409   8   1363   1361   1370
  1410   5   1396   1361   1363
  1411   7   1370   1361   1368
  1412   6   1396   1361   1368
  1413   5   1396   1361   1370
  1414   2   1370   1362   1371
  1415   2   1370   1362   2453
  1416   3   1370   1362   1364
  1417   4   1371   1362   2453
  1418   2   1364   1362   1371
  1419   2   1364   1362   2453
  1420   9   1360   1363   1361
  1421  10   1362   1364   1550
  1422  11   1361   1368   1407
  1423   1   1427   1369   1428
  1424   9   1362   1370   1361
  1425   1   1419   1372   1420
  1426   3   1378   1375   1379
  1427   2   1378   1375   1380
  1428   2   1378   1375   2454
  1429   2   1379   1375   1380
  1430   2   1379   1375   2454
  1431   4   1380   1375   2454
  1432   5   1349   1376   1378
  1433   6   1349   1376   1382
  1434   5   1349   1376   1384
  1435   7   1378   1376   1382
  1436   8   1378   1376   1384
  1437   7   1384   1376   1382
  1438   2   1379   1377   1385
  1439   2   1379   1377   2386
  1440   3   1379   1377   1772
  1441   4   1385   1377   2386
  1442   2   1772   1377   1385
  1443   2   1772   1377   2386
  1444   9   1375   1378   1376
  1445  10   1375   1379   1377
  1446  11   1376   1382   1406
  1447   1   1429   1383   1430
  1448   9   1567   1384   1376
  1449   1   1409   1386   1410
  1450   1   1431   1387   1432
  1451   3   1393   1390   1394
  1452   2   1393   1390   1395
  1453   2   1393   1390   2455
  1454   2   1394   1390   1395
  1455   2   1394   1390   2455
  1456   4   1395   1390   2455
  1457   6   1367   1391   1397
  1458   5   1367   1391   1399
  1459   5   1367   1391   1782
  1460   7   1399   1391   1397
  1461   7   1782   1391   1397
  1462   8   1399   1391   1782
  1463   3   1394   1392   1399
  1464   2   1394   1392   1400
  1465   2   1394   1392   1401
  1466   2   1399   1392   1400
  1467   2   1399   1392   1401
  1468   4   1400   1392   1401
  1469   9   1390   1393   1582
  1470  10   1390   1394   1392
  1471  11   1391   1397   2388
  1472   1   1417   1398   1418
  1473   9   1392   1399   1391
  1474   1   1423   1402   1424
  1475   1   1421   1403   1422
  1476   1   1425   1405   1426
  1477   2   1441   1437   1442
  1478   2   1441   1437   1443
  1479   3   1441   1437   1635
  1480   4   1442   1437   1443
  1481   2   1635   1437   1442
  1482   2   1635   1437   1443
  1483   7   1440   1438   1445
  1484   8   1440   1438   1447
  1485   5   1476   1438   1440
  1486   7   1447   1438   1445
  1487   6   1476   1438   1445
  1488   5   1476   1438   1447
  1489   3   1441   1439   1447
  1490   2   1441   1439   1448
  1491   2   1441   1439   2456
  1492   2   1447   1439   1448
  1493   2   1447   1439   2456
  1494   4   1448   1439   2456
  1495   9   1830   1440   1438
  1496  10   1437   1441   1439
  1497  11   1438   1445   1503
  1498   1   1506   1446   1507
  1499   9   1439   1447   1438
  1500   1   1528   1449   1529
  1501   1   1508   1450   1509
  1502   1   1510   1452   1511
  1503   2   1458   1455   1460
  1504   2   1458   1455   1461
  1505   3   1458   1455   2379
  1506   4   1460   1455   1461
  1507   2   2379   1455   1460
  1508   2   2379   1455   1461
  1509   7   1458   1456   1463
  1510   8   1458   1456   1465
  1511   5   1491   1456   1458
  1512   7   1465   1456   1463
  1513   6   1491   1456   1463
  1514   5   1491   1456   1465
  1515   2   1465   1457   1466
  1516   2   1465   1457   2457
  1517   3   1465   1457   1459
  1518   4   1466   1457   2457
  1519   2   1459   1457   1466
  1520   2   1459   1457   2457
  1521   9   1455   1458   1456
  1522  10   1457   1459   1650
  1523  11   1456   1463   1502
  1524   1   1522   1464   1523
  1525   9   1457   1465   1456
  1526   1   1514   1467   1515
  1527   3   1473   1470   1474
  1528   2   1473   1470   1475
  1529   2   1473   1470   2458
  1530   2   1474   1470   1475
  1531   2   1474   1470   2458
  1532   4   1475   1470   2458
  1533   5   1444   1471   1473
  1534   6   1444   1471   1477
  1535   5   1444   1471   1479
  1536   7   1473   1471   1477
  1537   8   1473   1471   1479
  1538   7   1479   1471   1477
  1539   2   1474   1472   1480
  1540   2   1474   1472   2391
  1541   3   1474   1472   1870
  1542   4   1480   1472   2391
  1543   2   1870   1472   1480
  1544   2   1870   1472   2391
  1545   9   1470   1473   1471
  1546  10   1470   1474   1472
  1547  11   1471   1477   1501
  1548   1   1524   1478   1525
  1549   9   1667   1479   1471
  1550   1   1504   1481   1505
  1551   1   1526   1482   1527
  1552   3   1488   1485   1489
  1553   2   1488   1485   1490
  1554   2   1488   1485   2459
  1555   2   1489   1485   1490
  1556   2   1489   1485   2459
  1557   4   1490   1485   2459
  1558   6   1462   1486   1492
  1559   5   1462   1486   1494
  1560   5   1462   1486   1880
  1561   7   1494   1486   1492
  1562   7   1880   1486   1492
  1563   8   1494   1486   1880
  1564   3   1489   1487   1494
  1565   2   1489   1487   1495
  1566   2   1489   1487   1496
  1567   2   1494   1487   1495
  1568   2   1494   1487   1496
  1569   4   1495   1487   1496
  1570   9   1485   1488   1682
  1571  10   1485   1489   1487
  1572  11   1486   1492   2393
  1573   1   1512   1493   1513
  1574   9   1487   1494   1486
  1575   1   1518   1497   1519
  1576   1   1516   1498   1517
  1577   1   1520   1500   1521
  1578   2   1536   1532   1537
  1579   2   1536   1532   1538
  1580   3   1536   1532   1735
  1581   4   1537   1532   1538
  1582   2   1735   1532   1537
  1583   2   1735   1532   1538
  1584   7   1535   1533   1540
  1585   8   1535   1533   1542
  1586   5   1571   1533   1535
  1587   7   1542   1533   1540
  1588   6   1571   1533   1540
  1589   5   1571   1533   1542
  1590   3   1536   1534   1542
  1591   2   1536   1534   1543
  1592   2   1536   1534   2460
  1593   2   1542   1534   1543
  1594   2   1542   1534   2460
  1595   4   1543   1534   2460
  1596   9   1342   1535   1533
  1597  10   1532   1536   1534
  1598  11   1533   1540   1601
  1599   1   1604   1541   1605
  1600   9   1534   1542   1533
  1601   1   1628   1544   1629
  1602   1   1606   1545   1607
  1603   1   1608   1547   1609
  1604   3   1364   1550   1553
  1605   2   1364   1550   1555
  1606   2   1364   1550   1556
  1607   2   1553   1550   1555
  1608   2   1553   1550   1556
  1609   4   1555   1550   1556
  1610   7   1553   1551   1558
  1611   8   1553   1551   1560
  1612   5   1587   1551   1553
  1613   7   1560   1551   1558
  1614   6   1587   1551   1558
  1615   5   1587   1551   1560
  1616   2   1560   1552   1561
  1617   2   1560   1552   2461
  1618   3   1560   1552   1554
  1619   4   1561   1552   2461
  1620   2   1554   1552   1561
  1621   2   1554   1552   2461
  1622   9   1550   1553   1551
  1623  10   1552   1554   1749
  1624  11   1551   1558   1599
  1625   1   1622   1559   1623
  1626   9   1552   1560   1551
  1627   1   1612   1562   1613
  1628   3   1568   1565   1569
  1629   2   1568   1565   1570
  1630   2   1568   1565   2462
  1631   2   1569   1565   1570
  1632   2   1569   1565   2462
  1633   4   1570   1565   2462
  1634   5   1539   1566   1568
  1635   6   1539   1566   1572
  1636   5   1539   1566   1574
  1637   7   1568   1566   1572
  1638   8   1568   1566   1574
  1639   7   1574   1566   1572
  1640   3   1384   1567   1569
  1641   2   1384   1567   1575
  1642   2   1384   1567   1576
  1643   2   1569   1567   1575
  1644   2   1569   1567   1576
  1645   4   1575   1567   1576
  1646   9   1565   1568   1566
  1647  10   1565   1569   1567
  1648  11   1566   1572   1598
  1649   1   1624   1573   1625
  1650   9   1765   1574   1566
  1651   1   1602   1577   1603
  1652   1   1626   1578   1627
  1653   3   1584   1581   1585
  1654   2   1584   1581   1586
  1655   2   1584   1581   2463
  1656   2   1585   1581   1586
  1657   2   1585   1581   2463
  1658   4   1586   1581   2463
  1659   5   1557   1582   1393
  1660   7   1393   1582   1588
  1661   8   1393   1582   1590
  1662   6   1557   1582   1588
  1663   5   1557   1582   1590
  1664   7   1590   1582   1588
  1665   3   1585   1583   1590
  1666   2   1585   1583   1591
  1667   2   1585   1583   1592
  1668   2   1590   1583   1591
  1669   2   1590   1583   1592
  1670   4   1591   1583   1592
  1671   9   1581   1584   1780
  1672  10   1581   1585   1583
  1673  11   1582   1588   1600
  1674   1   1610   1589   1611
  1675   9   1583   1590   1582
  1676   1   1618   1593   1619
  1677   1   1616   1594   1617
  1678   1   1614   1595   1615
  1679   1   1620   1597   1621
  1680   2   1636   1632   1637
  1681   2   1636   1632   1638
  1682   3   1636   1632   1833
  1683   4   1637   1632   1638
  1684   2   1833   1632   1637
  1685   2   1833   1632   1638
  1686   7   1635   1633   1640
  1687   8   1635   1633   1642
  1688   5   1671   1633   1635
  1689   7   1642   1633   1640
  1690   6   1671   1633   1640
  1691   5   1671   1633   1642
  1692   3   1636   1634   1642
  1693   2   1636   1634   1643
  1694   2   1636   1634   2464
  1695   2   1642   1634   1643
  1696   2   1642   1634   2464
  1697   4   1643   1634   2464
  1698   9   1437   1635   1633
  1699  10   1632   1636   1634
  1700  11   1633   1640   1701
  1701   1   1704   1641   1705
  1702   9   1634   1642   1633
  1703   1   1728   1644   1729
  1704   1   1706   1645   1707
  1705   1   1708   1647   1709
  1706   3   1459   1650   1653
  1707   2   1459   1650   1655
  1708   2   1459   1650   1656
  1709   2   1653   1650   1655
  1710   2   1653   1650   1656
  1711   4   1655   1650   1656
  1712   7   1653   1651   1658
  1713   8   1653   1651   1660
  1714   5   1687   1651   1653
  1715   7   1660   1651   1658
  1716   6   1687   1651   1658
  1717   5   1687   1651   1660
  1718   2   1660   1652   1661
  1719   2   1660   1652   2465
  1720   3   1660   1652   1654
  1721   4   1661   1652   2465
  1722   2   1654   1652   1661
  1723   2   1654   1652   2465
  1724   9   1650   1653   1651
  1725  10   1652   1654   1847
  1726  11   1651   1658   1699
  1727   1   1722   1659   1723
  1728   9   1652   1660   1651
  1729   1   1712   1662   1713
  1730   3   1668   1665   1669
  1731   2   1668   1665   1670
  1732   2   1668   1665   2466
  1733   2   1669   1665   1670
  1734   2   1669   1665   2466
  1735   4   1670   1665   2466
  1736   5   1639   1666   1668
  1737   6   1639   1666   1672
  1738   5   1639   1666   1674
  1739   7   1668   1666   1672
  1740   8   1668   1666   1674
  1741   7   1674   1666   1672
  1742   3   1479   1667   1669
  1743   2   1479   1667   1675
  1744   2   1479   1667   1676
  1745   2   1669   1667   1675
  1746   2   1669   1667   1676
  1747   4   1675   1667   1676
  1748   9   1665   1668   1666
  1749  10   1665   1669   1667
  1750  11   1666   1672   1698
  1751   1   1724   1673   1725
  1752   9   1863   1674   1666
  1753   1   1702   1677   1703
  1754   1   1726   1678   1727
  1755   3   1684   1681   1685
  1756   2   1684   1681   1686
  1757   2   1684   1681   2467
  1758   2   1685   1681   1686
  1759   2   1685   1681   2467
  1760   4   1686   1681   2467
  1761   5   1657   1682   1488
  1762   7   1488   1682   1688
  1763   8   1488   1682   1690
  1764   6   1657   1682   1688
  1765   5   1657   1682   1690
  1766   7   1690   1682   1688
  1767   3   1685   1683   1690
  1768   2   1685   1683   1691
  1769   2   1685   1683   1692
  1770   2   1690   1683   1691
  1771   2   1690   1683   1692
  1772   4   1691   1683   1692
  1773   9   1681   1684   1878
  1774  10   1681   1685   1683
  1775  11   1682   1688   1700
  1776   1   1710   1689   1711
  1777   9   1683   1690   1682
  1778   1   1718   1693   1719
  1779   1   1716   1694   1717
  1780   1   1714   1695   1715
  1781   1   1720   1697   1721
  1782   2   1736   1732   1737
  1783   3   1736   1732   1345
  1784   2   1736   1732   2376
  1785   2   1345   1732   1737
  1786   4   1737   1732   2376
  1787   2   1345   1732   2376
  1788   7   1735   1733   1739
  1789   8   1735   1733   1741
  1790   5   1769   1733   1735
  1791   7   1741   1733   1739
  1792   6   1769   1733   1739
  1793   5   1769   1733   1741
  1794   3   1736   1734   1741
  1795   2   1736   1734   1742
  1796   2   1736   1734   2468
  1797   2   1741   1734   1742
  1798   2   1741   1734   2468
  1799   4   1742   1734   2468
  1800   9   1532   1735   1733
  1801  10   1732   1736   1734
  1802  11   1733   1739   1799
  1803   1   1802   1740   1803
  1804   9   1734   1741   1733
  1805   1   1826   1743   1827
  1806   1   1804   1744   1805
  1807   1   1806   1746   1807
  1808   3   1554   1749   1752
  1809   2   1554   1749   1753
  1810   2   1554   1749   1754
  1811   2   1752   1749   1753
  1812   2   1752   1749   1754
  1813   4   1753   1749   1754
  1814   7   1752   1750   1756
  1815   8   1752   1750   1758
  1816   5   1785   1750   1752
  1817   7   1758   1750   1756
  1818   6   1785   1750   1756
  1819   5   1785   1750   1758
  1820   2   1758   1751   1759
  1821   2   1758   1751   2469
  1822   3   1758   1751   2377
  1823   4   1759   1751   2469
  1824   2   2377   1751   1759
  1825   2   2377   1751   2469
  1826   9   1749   1752   1750
  1827  11   1750   1756   1797
  1828   1   1820   1757   1821
  1829   9   1751   1758   1750
  1830   1   1810   1760   1811
  1831   3   1766   1763   1767
  1832   2   1766   1763   1768
  1833   2   1766   1763   2470
  1834   2   1767   1763   1768
  1835   2   1767   1763   2470
  1836   4   1768   1763   2470
  1837   5   1738   1764   1766
  1838   6   1738   1764   1770
  1839   5   1738   1764   1772
  1840   7   1766   1764   1770
  1841   8   1766   1764   1772
  1842   7   1772   1764   1770
  1843   3   1574   1765   1767
  1844   2   1574   1765   1773
  1845   2   1574   1765   1774
  1846   2   1767   1765   1773
  1847   2   1767   1765   1774
  1848   4   1773   1765   1774
  1849   9   1763   1766   1764
  1850  10   1763   1767   1765
  1851  11   1764   1770   1796
  1852   1   1822   1771   1823
  1853   9   1377   1772   1764
  1854   1   1800   1775   1801
  1855   1   1824   1776   1825
  1856   3   1782   1779   1783
  1857   2   1782   1779   1784
  1858   2   1782   1779   2471
  1859   2   1783   1779   1784
  1860   2   1783   1779   2471
  1861   4   1784   1779   2471
  1862   5   1755   1780   1584
  1863   7   1584   1780   1786
  1864   8   1584   1780   1788
  1865   6   1755   1780   1786
  1866   5   1755   1780   1788
  1867   7   1788   1780   1786
  1868   3   1783   1781   1788
  1869   2   1783   1781   1789
  1870   2   1783   1781   1790
  1871   2   1788   1781   1789
  1872   2   1788   1781   1790
  1873   4   1789   1781   1790
  1874   9   1779   1782   1391
  1875  10   1779   1783   1781
  1876  11   1780   1786   1798
  1877   1   1808   1787   1809
  1878   9   1781   1788   1780
  1879   1   1816   1791   1817
  1880   1   1814   1792   1815
  1881   1   1812   1793   1813
  1882   1   1818   1795   1819
  1883   2   1834   1830   1835
  1884   3   1834   1830   1440
  1885   2   1834   1830   2378
  1886   2   1440   1830   1835
  1887   4   1835   1830   2378
  1888   2   1440   1830   2378
  1889   7   1833   1831   1837
  1890   8   1833   1831   1839
  1891   5   1867   1831   1833
  1892   7   1839   1831   1837
  1893   6   1867   1831   1837
  1894   5   1867   1831   1839
  1895   3   1834   1832   1839
  1896   2   1834   1832   1840
  1897   2   1834   1832   2472
  1898   2   1839   1832   1840
  1899   2   1839   1832   2472
  1900   4   1840   1832   2472
  1901   9   1632   1833   1831
  1902  10   1830   1834   1832
  1903  11   1831   1837   1897
  1904   1   1900   1838   1901
  1905   9   1832   1839   1831
  1906   1   1924   1841   1925
  1907   1   1902   1842   1903
  1908   1   1904   1844   1905
  1909   3   1654   1847   1850
  1910   2   1654   1847   1851
  1911   2   1654   1847   1852
  1912   2   1850   1847   1851
  1913   2   1850   1847   1852
  1914   4   1851   1847   1852
  1915   7   1850   1848   1854
  1916   8   1850   1848   1856
  1917   5   1883   1848   1850
  1918   7   1856   1848   1854
  1919   6   1883   1848   1854
  1920   5   1883   1848   1856
  1921   2   1856   1849   1857
  1922   2   1856   1849   2473
  1923   3   1856   1849   2379
  1924   4   1857   1849   2473
  1925   2   2379   1849   1857
  1926   2   2379   1849   2473
  1927   9   1847   1850   1848
  1928  11   1848   1854   1895
  1929   1   1918   1855   1919
  1930   9   1849   1856   1848
  1931   1   1908   1858   1909
  1932   3   1864   1861   1865
  1933   2   1864   1861   1866
  1934   2   1864   1861   2474
  1935   2   1865   1861   1866
  1936   2   1865   1861   2474
  1937   4   1866   1861   2474
  1938   5   1836   1862   1864
  1939   6   1836   1862   1868
  1940   5   1836   1862   1870
  1941   7   1864   1862   1868
  1942   8   1864   1862   1870
  1943   7   1870   1862   1868
  1944   3   1674   1863   1865
  1945   2   1674   1863   1871
  1946   2   1674   1863   1872
  1947   2   1865   1863   1871
  1948   2   1865   1863   1872
  1949   4   1871   1863   1872
  1950   9   1861   1864   1862
  1951  10   1861   1865   1863
  1952  11   1862   1868   1894
  1953   1   1920   1869   1921
  1954   9   1472   1870   1862
  1955   1   1898   1873   1899
  1956   1   1922   1874   1923
  1957   3   1880   1877   1881
  1958   2   1880   1877   1882
  1959   2   1880   1877   2475
  1960   2   1881   1877   1882
  1961   2   1881   1877   2475
  1962   4   1882   1877   2475
  1963   5   1853   1878   1684
  1964   7   1684   1878   1884
  1965   8   1684   1878   1886
  1966   6   1853   1878   1884
  1967   5   1853   1878   1886
  1968   7   1886   1878   1884
  1969   3   1881   1879   1886
  1970   2   1881   1879   1887
  1971   2   1881   1879   1888
  1972   2   1886   1879   1887
  1973   2   1886   1879   1888
  1974   4   1887   1879   1888
  1975   9   1877   1880   1486
  1976  10   1877   1881   1879
  1977  11   1878   1884   1896
  1978   1   1906   1885   1907
  1979   9   1879   1886   1878
  1980   1   1914   1889   1915
  1981   1   1912   1890   1913
  1982   1   1910   1891   1911
  1983   1   1916   1893   1917
  1984   2   1932   1928   1933
  1985   2   1932   1928   1934
  1986   3   1932   1928   2077
  1987   4   1933   1928   1934
  1988   2   2077   1928   1933
  1989   2   2077   1928   1934
  1990   7   1931   1929   1935
  1991   8   1931   1929   1937
  1992   5   1957   1929   1931
  1993   7   1937   1929   1935
  1994   6   1957   1929   1935
  1995   5   1957   1929   1937
  1996   3   1932   1930   1937
  1997   2   1932   1930   1938
  1998   2   1932   1930   2476
  1999   2   1937   1930   1938
  2000   2   1937   1930   2476
  2001   4   1938   1930   2476
  2002   9   2228   1931   1929
  2003  10   1928   1932   1930
  2004  11   1929   1935   1978
  2005   1   1981   1936   1982
  2006   9   1930   1937   1929
  2007   1   1983   1939   1984
  2008   1   1985   1941   1986
  2009   2   1946   1943   1948
  2010   2   1946   1943   1949
  2011   3   1946   1943   2381
  2012   4   1948   1943   1949
  2013   2   2381   1943   1948
  2014   2   2381   1943   1949
  2015   7   1946   1944   1951
  2016   8   1946   1944   1953
  2017   5   1967   1944   1946
  2018   7   1953   1944   1951
  2019   6   1967   1944   1951
  2020   5   1967   1944   1953
  2021   2   1953   1945   1954
  2022   2   1953   1945   2477
  2023   3   1953   1945   1947
  2024   4   1954   1945   2477
  2025   2   1947   1945   1954
  2026   2   1947   1945   2477
  2027   9   1943   1946   1944
  2028  10   1945   1947   2089
  2029  11   1944   1951   1977
  2030   1   1997   1952   1998
  2031   9   1945   1953   1944
  2032   1   1989   1955   1990
  2033   1   1979   1958   1980
  2034   3   1964   1961   1965
  2035   2   1964   1961   1966
  2036   2   1964   1961   2478
  2037   2   1965   1961   1966
  2038   2   1965   1961   2478
  2039   4   1966   1961   2478
  2040   6   1950   1962   1968
  2041   5   1950   1962   1970
  2042   5   1950   1962   2262
  2043   7   1970   1962   1968
  2044   7   2262   1962   1968
  2045   8   1970   1962   2262
  2046   3   1965   1963   1970
  2047   2   1965   1963   1971
  2048   2   1965   1963   1972
  2049   2   1970   1963   1971
  2050   2   1970   1963   1972
  2051   4   1971   1963   1972
  2052   9   1961   1964   2108
  2053  10   1961   1965   1963
  2054  11   1962   1968   2397
  2055   1   1987   1969   1988
  2056   9   1963   1970   1962
  2057   1   1993   1973   1994
  2058   1   1991   1974   1992
  2059   1   1995   1976   1996
  2060   2   2005   2001   2006
  2061   2   2005   2001   2007
  2062   3   2005   2001   2154
  2063   4   2006   2001   2007
  2064   2   2154   2001   2006
  2065   2   2154   2001   2007
  2066   7   2004   2002   2008
  2067   8   2004   2002   2010
  2068   5   2030   2002   2004
  2069   7   2010   2002   2008
  2070   6   2030   2002   2008
  2071   5   2030   2002   2010
  2072   3   2005   2003   2010
  2073   2   2005   2003   2011
  2074   2   2005   2003   2479
  2075   2   2010   2003   2011
  2076   2   2010   2003   2479
  2077   4   2011   2003   2479
  2078   9   2303   2004   2002
  2079  10   2001   2005   2003
  2080  11   2002   2008   2051
  2081   1   2054   2009   2055
  2082   9   2003   2010   2002
  2083   1   2056   2012   2057
  2084   1   2058   2014   2059
  2085   2   2019   2016   2021
  2086   2   2019   2016   2022
  2087   3   2019   2016   2383
  2088   4   2021   2016   2022
  2089   2   2383   2016   2021
  2090   2   2383   2016   2022
  2091   7   2019   2017   2024
  2092   8   2019   2017   2026
  2093   5   2040   2017   2019
  2094   7   2026   2017   2024
  2095   6   2040   2017   2024
  2096   5   2040   2017   2026
  2097   2   2026   2018   2027
  2098   2   2026   2018   2480
  2099   3   2026   2018   2020
  2100   4   2027   2018   2480
  2101   2   2020   2018   2027
  2102   2   2020   2018   2480
  2103   9   2016   2019   2017
  2104  10   2018   2020   2166
  2105  11   2017   2024   2050
  2106   1   2070   2025   2071
  2107   9   2018   2026   2017
  2108   1   2062   2028   2063
  2109   1   2052   2031   2053
  2110   3   2037   2034   2038
  2111   2   2037   2034   2039
  2112   2   2037   2034   2481
  2113   2   2038   2034   2039
  2114   2   2038   2034   2481
  2115   4   2039   2034   2481
  2116   6   2023   2035   2041
  2117   5   2023   2035   2043
  2118   5   2023   2035   2337
  2119   7   2043   2035   2041
  2120   7   2337   2035   2041
  2121   8   2043   2035   2337
  2122   3   2038   2036   2043
  2123   2   2038   2036   2044
  2124   2   2038   2036   2045
  2125   2   2043   2036   2044
  2126   2   2043   2036   2045
  2127   4   2044   2036   2045
  2128   9   2034   2037   2185
  2129  10   2034   2038   2036
  2130  11   2035   2041   2401
  2131   1   2060   2042   2061
  2132   9   2036   2043   2035
  2133   1   2066   2046   2067
  2134   1   2064   2047   2065
  2135   1   2068   2049   2069
  2136   2   2078   2074   2079
  2137   2   2078   2074   2080
  2138   3   2078   2074   2231
  2139   4   2079   2074   2080
  2140   2   2231   2074   2079
  2141   2   2231   2074   2080
  2142   7   2077   2075   2081
  2143   8   2077   2075   2083
  2144   5   2103   2075   2077
  2145   7   2083   2075   2081
  2146   6   2103   2075   2081
  2147   5   2103   2075   2083
  2148   3   2078   2076   2083
  2149   2   2078   2076   2084
  2150   2   2078   2076   2482
  2151   2   2083   2076   2084
  2152   2   2083   2076   2482
  2153   4   2084   2076   2482
  2154   9   1928   2077   2075
  2155  10   2074   2078   2076
  2156  11   2075   2081   2126
  2157   1   2129   2082   2130
  2158   9   2076   2083   2075
  2159   1   2131   2085   2132
  2160   1   2133   2087   2134
  2161   3   1947   2089   2092
  2162   2   1947   2089   2094
  2163   2   1947   2089   2095
  2164   2   2092   2089   2094
  2165   2   2092   2089   2095
  2166   4   2094   2089   2095
  2167   7   2092   2090   2097
  2168   8   2092   2090   2099
  2169   5   2113   2090   2092
  2170   7   2099   2090   2097
  2171   6   2113   2090   2097
  2172   5   2113   2090   2099
  2173   2   2099   2091   2100
  2174   2   2099   2091   2483
  2175   3   2099   2091   2093
  2176   4   2100   2091   2483
  2177   2   2093   2091   2100
  2178   2   2093   2091   2483
  2179   9   2089   2092   2090
  2180  10   2091   2093   2242
  2181  11   2090   2097   2124
  2182   1   2147   2098   2148
  2183   9   2091   2099   2090
  2184   1   2137   2101   2138
  2185   1   2127   2104   2128
  2186   3   2110   2107   2111
  2187   2   2110   2107   2112
  2188   2   2110   2107   2484
  2189   2   2111   2107   2112
  2190   2   2111   2107   2484
  2191   4   2112   2107   2484
  2192   5   2096   2108   1964
  2193   7   1964   2108   2114
  2194   8   1964   2108   2116
  2195   6   2096   2108   2114
  2196   5   2096   2108   2116
  2197   7   2116   2108   2114
  2198   3   2111   2109   2116
  2199   2   2111   2109   2117
  2200   2   2111   2109   2118
  2201   2   2116   2109   2117
  2202   2   2116   2109   2118
  2203   4   2117   2109   2118
  2204   9   2107   2110   2260
  2205  10   2107   2111   2109
  2206  11   2108   2114   2125
  2207   1   2135   2115   2136
  2208   9   2109   2116   2108
  2209   1   2143   2119   2144
  2210   1   2141   2120   2142
  2211   1   2139   2121   2140
  2212   1   2145   2123   2146
  2213   2   2155   2151   2156
  2214   2   2155   2151   2157
  2215   3   2155   2151   2306
  2216   4   2156   2151   2157
  2217   2   2306   2151   2156
  2218   2   2306   2151   2157
  2219   7   2154   2152   2158
  2220   8   2154   2152   2160
  2221   5   2180   2152   2154
  2222   7   2160   2152   2158
  2223   6   2180   2152   2158
  2224   5   2180   2152   2160
  2225   3   2155   2153   2160
  2226   2   2155   2153   2161
  2227   2   2155   2153   2485
  2228   2   2160   2153   2161
  2229   2   2160   2153   2485
  2230   4   2161   2153   2485
  2231   9   2001   2154   2152
  2232  10   2151   2155   2153
  2233  11   2152   2158   2203
  2234   1   2206   2159   2207
  2235   9   2153   2160   2152
  2236   1   2208   2162   2209
  2237   1   2210   2164   2211
  2238   3   2020   2166   2169
  2239   2   2020   2166   2171
  2240   2   2020   2166   2172
  2241   2   2169   2166   2171
  2242   2   2169   2166   2172
  2243   4   2171   2166   2172
  2244   7   2169   2167   2174
  2245   8   2169   2167   2176
  2246   5   2190   2167   2169
  2247   7   2176   2167   2174
  2248   6   2190   2167   2174
  2249   5   2190   2167   2176
  2250   2   2176   2168   2177
  2251   2   2176   2168   2486
  2252   3   2176   2168   2170
  2253   4   2177   2168   2486
  2254   2   2170   2168   2177
  2255   2   2170   2168   2486
  2256   9   2166   2169   2167
  2257  10   2168   2170   2317
  2258  11   2167   2174   2201
  2259   1   2224   2175   2225
  2260   9   2168   2176   2167
  2261   1   2214   2178   2215
  2262   1   2204   2181   2205
  2263   3   2187   2184   2188
  2264   2   2187   2184   2189
  2265   2   2187   2184   2487
  2266   2   2188   2184   2189
  2267   2   2188   2184   2487
  2268   4   2189   2184   2487
  2269   5   2173   2185   2037
  2270   7   2037   2185   2191
  2271   8   2037   2185   2193
  2272   6   2173   2185   2191
  2273   5   2173   2185   2193
  2274   7   2193   2185   2191
  2275   3   2188   2186   2193
  2276   2   2188   2186   2194
  2277   2   2188   2186   2195
  2278   2   2193   2186   2194
  2279   2   2193   2186   2195
  2280   4   2194   2186   2195
  2281   9   2184   2187   2335
  2282  10   2184   2188   2186
  2283  11   2185   2191   2202
  2284   1   2212   2192   2213
  2285   9   2186   2193   2185
  2286   1   2220   2196   2221
  2287   1   2218   2197   2219
  2288   1   2216   2198   2217
  2289   1   2222   2200   2223
  2290   2   2232   2228   2233
  2291   3   2232   2228   1931
  2292   2   2232   2228   2380
  2293   2   1931   2228   2233
  2294   4   2233   2228   2380
  2295   2   1931   2228   2380
  2296   7   2231   2229   2234
  2297   8   2231   2229   2236
  2298   5   2255   2229   2231
  2299   7   2236   2229   2234
  2300   6   2255   2229   2234
  2301   5   2255   2229   2236
  2302   3   2232   2230   2236
  2303   2   2232   2230   2237
  2304   2   2232   2230   2488
  2305   2   2236   2230   2237
  2306   2   2236   2230   2488
  2307   4   2237   2230   2488
  2308   9   2074   2231   2229
  2309  10   2228   2232   2230
  2310  11   2229   2234   2278
  2311   1   2281   2235   2282
  2312   9   2230   2236   2229
  2313   1   2283   2238   2284
  2314   1   2285   2240   2286
  2315   3   2093   2242   2245
  2316   2   2093   2242   2246
  2317   2   2093   2242   2247
  2318   2   2245   2242   2246
  2319   2   2245   2242   2247
  2320   4   2246   2242   2247
  2321   7   2245   2243   2249
  2322   8   2245   2243   2251
  2323   5   2265   2243   2245
  2324   7   2251   2243   2249
  2325   6   2265   2243   2249
  2326   5   2265   2243   2251
  2327   2   2251   2244   2252
  2328   2   2251   2244   2489
  2329   3   2251   2244   2381
  2330   4   2252   2244   2489
  2331   2   2381   2244   2252
  2332   2   2381   2244   2489
  2333   9   2242   2245   2243
  2334  11   2243   2249   2276
  2335   1   2299   2250   2300
  2336   9   2244   2251   2243
  2337   1   2289   2253   2290
  2338   1   2279   2256   2280
  2339   3   2262   2259   2263
  2340   2   2262   2259   2264
  2341   2   2262   2259   2490
  2342   2   2263   2259   2264
  2343   2   2263   2259   2490
  2344   4   2264   2259   2490
  2345   5   2248   2260   2110
  2346   7   2110   2260   2266
  2347   8   2110   2260   2268
  2348   6   2248   2260   2266
  2349   5   2248   2260   2268
  2350   7   2268   2260   2266
  2351   3   2263   2261   2268
  2352   2   2263   2261   2269
  2353   2   2263   2261   2270
  2354   2   2268   2261   2269
  2355   2   2268   2261   2270
  2356   4   2269   2261   2270
  2357   9   2259   2262   1962
  2358  10   2259   2263   2261
  2359  11   2260   2266   2277
  2360   1   2287   2267   2288
  2361   9   2261   2268   2260
  2362   1   2295   2271   2296
  2363   1   2293   2272   2294
  2364   1   2291   2273   2292
  2365   1   2297   2275   2298
  2366   2   2307   2303   2308
  2367   3   2307   2303   2004
  2368   2   2307   2303   2382
  2369   2   2004   2303   2308
  2370   4   2308   2303   2382
  2371   2   2004   2303   2382
  2372   7   2306   2304   2309
  2373   8   2306   2304   2311
  2374   5   2330   2304   2306
  2375   7   2311   2304   2309
  2376   6   2330   2304   2309
  2377   5   2330   2304   2311
  2378   3   2307   2305   2311
  2379   2   2307   2305   2312
  2380   2   2307   2305   2491
  2381   2   2311   2305   2312
  2382   2   2311   2305   2491
  2383   4   2312   2305   2491
  2384   9   2151   2306   2304
  2385  10   2303   2307   2305
  2386  11   2304   2309   2353
  2387   1   2356   2310   2357
  2388   9   2305   2311   2304
  2389   1   2358   2313   2359
  2390   1   2360   2315   2361
  2391   3   2170   2317   2320
  2392   2   2170   2317   2321
  2393   2   2170   2317   2322
  2394   2   2320   2317   2321
  2395   2   2320   2317   2322
  2396   4   2321   2317   2322
  2397   7   2320   2318   2324
  2398   8   2320   2318   2326
  2399   5   2340   2318   2320
  2400   7   2326   2318   2324
  2401   6   2340   2318   2324
  2402   5   2340   2318   2326
  2403   2   2326   2319   2327
  2404   2   2326   2319   2492
  2405   3   2326   2319   2383
  2406   4   2327   2319   2492
  2407   2   2383   2319   2327
  2408   2   2383   2319   2492
  2409   9   2317   2320   2318
  2410  11   2318   2324   2351
  2411   1   2374   2325   2375
  2412   9   2319   2326   2318
  2413   1   2364   2328   2365
  2414   1   2354   2331   2355
  2415   3   2337   2334   2338
  2416   2   2337   2334   2339
  2417   2   2337   2334   2493
  2418   2   2338   2334   2339
  2419   2   2338   2334   2493
  2420   4   2339   2334   2493
  2421   5   2323   2335   2187
  2422   7   2187   2335   2341
  2423   8   2187   2335   2343
  2424   6   2323   2335   2341
  2425   5   2323   2335   2343
  2426   7   2343   2335   2341
  2427   3   2338   2336   2343
  2428   2   2338   2336   2344
  2429   2   2338   2336   2345
  2430   2   2343   2336   2344
  2431   2   2343   2336   2345
  2432   4   2344   2336   2345
  2433   9   2334   2337   2035
  2434  10   2334   2338   2336
  2435  11   2335   2341   2352
  2436   1   2362   2342   2363
  2437   9   2336   2343   2335
  2438   1   2370   2346   2371
  2439   1   2368   2347   2369
  2440   1   2366   2348   2367
  2441   1   2372   2350   2373
  2442  10   1360   2377   1751
  2443  10   1455   2379   1849
  2444  10   1943   2381   2244
  2445  10   2016   2383   2319
  2446   1   2389   2387   2390
  2447   1   2394   2392   2395
  2448   1   2398   2396   2399
  2449   1   2402   2400   2403
  2450   1   2502   2500   2501
  2451   1   2505   2503   2504
  2452   1   2508   2506   2507
  2453   1   2511   2509   2510
  2454   1   2514   2512   2513
  2455   1   2517   2515   2516
  2456   1   2520   2518   2519
  2457   1   2523   2521   2522
  2458   1   2526   2524   2525
  2459   1   2529   2527   2528
  2460   1   2532   2530   2531
  2461   1   2535   2533   2534
  2462   1   2538   2536   2537
  2463   1   2541   2539   2540
  2464   1   2544   2542   2543
  2465   1   2547   2545   2546
  2466   1   2550   2548   2549
  2467   1   2553   2551   2552
  2468   1   2556   2554   2555
  2469   1   2559   2557   2558
  2470   1   2562   2560   2561
  2471   1   2565   2563   2564
  2472   1   2568   2566   2567
  2473   1   2571   2569   2570
  2474   1   2574   2572   2573
  2475   1   2577   2575   2576
  2476   1   2580   2578   2579
  2477   1   2583   2581   2582
  2478   1   2586   2584   2585
  2479   1   2589   2587   2588
  2480   1   2592   2590   2591
  2481   1   2595   2593   2594
  2482   1   2598   2596   2597
  2483   1   2601   2599   2600
  2484   1   2604   2602   2603
  2485   1   2607   2605   2606
  2486   1   2610   2608   2609
  2487   1   2613   2611   2612
  2488   1   2616   2614   2615
  2489   1   2619   2617   2618
  2490   1   2622   2620   2621
  2491   1   2625   2623   2624
  2492   1   2628   2626   2627
  2493   1   2631   2629   2630
  2494   1   2634   2632   2633
  2495   1   2637   2635   2636
  2496   1   2640   2638   2639
  2497   1   2643   2641   2642
  2498   1   2646   2644   2645
  2499   1   2649   2647   2648
  2500   1   2652   2650   2651
  2501   1   2655   2653   2654
  2502   1   2658   2656   2657
  2503   1   2661   2659   2660
  2504   1   2664   2662   2663
  2505   1   2667   2665   2666
  2506   1   2670   2668   2669
  2507   1   2673   2671   2672
  2508   1   2676   2674   2675
  2509   1   2679   2677   2678
  2510   1   2682   2680   2681
  2511   1   2685   2683   2684
  2512   1   2688   2686   2687
  2513   1   2691   2689   2690
  2514   1   2694   2692   2693
  2515   1   2697   2695   2696
  2516   1   2700   2698   2699
  2517   1   2703   2701   2702
  2518   1   2706   2704   2705
  2519   1   2709   2707   2708
  2520   1   2712   2710   2711
  2521   1   2715   2713   2714
  2522   1   2718   2716   2717
  2523   1   2721   2719   2720
  2524   1   2724   2722   2723
  2525   1   2727   2725   2726
  2526   1   2730   2728   2729
  2527   1   2733   2731   2732
  2528   1   2736   2734   2735
  2529   1   2739   2737   2738
  2530   1   2742   2740   2741
  2531   1   2745   2743   2744
  2532   1   2748   2746   2747
  2533   1   2751   2749   2750
  2534   1   2754   2752   2753
  2535   1   2757   2755   2756
  2536   1   2760   2758   2759
  2537   1   2763   2761   2762
  2538   1   2766   2764   2765
  2539   1   2769   2767   2768
  2540   1   2772   2770   2771
  2541   1   2775   2773   2774
  2542   1   2778   2776   2777
  2543   1   2781   2779   2780
  2544   1   2784   2782   2783
  2545   1   2787   2785   2786
  2546   1   2790   2788   2789
  2547   1   2793   2791   2792
  2548   1   2796   2794   2795
  2549   1   2799   2797   2798
  2550   1   2802   2800   2801
  2551   1   2805   2803   2804
  2552   1   2808   2806   2807
  2553   1   2811   2809   2810
  2554   1   2814   2812   2813
  2555   1   2817   2815   2816
  2556   1   2820   2818   2819
  2557   1   2823   2821   2822
  2558   1   2826   2824   2825
  2559   1   2829   2827   2828
  2560   1   2832   2830   2831
  2561   1   2835   2833   2834
  2562   1   2838   2836   2837
  2563   1   2841   2839   2840
  2564   1   2844   2842   2843
  2565   1   2847   2845   2846
  2566   1   2850   2848   2849
  2567   1   2853   2851   2852
  2568   1   2856   2854   2855
  2569   1   2859   2857   2858
  2570   1   2862   2860   2861
  2571   1   2865   2863   2864
  2572   1   2868   2866   2867
  2573   1   2871   2869   2870
  2574   1   2874   2872   2873
  2575   1   2877   2875   2876
  2576   1   2880   2878   2879
  2577   1   2883   2881   2882
  2578   1   2886   2884   2885
  2579   1   2889   2887   2888
  2580   1   2892   2890   2891
  2581   1   2895   2893   2894
  2582   1   2898   2896   2897
  2583   1   2901   2899   2900
  2584   1   2904   2902   2903
  2585   1   2907   2905   2906
  2586   1   2910   2908   2909
  2587   1   2913   2911   2912
  2588   1   2916   2914   2915
  2589   1   2919   2917   2918
  2590   1   2922   2920   2921
  2591   1   2925   2923   2924
  2592   1   2928   2926   2927
  2593   1   2931   2929   2930
  2594   1   2934   2932   2933
  2595   1   2937   2935   2936
  2596   1   2940   2938   2939
  2597   1   2943   2941   2942
  2598   1   2946   2944   2945
  2599   1   2949   2947   2948
  2600   1   2952   2950   2951
  2601   1   2955   2953   2954
  2602   1   2958   2956   2957
  2603   1   2961   2959   2960
  2604   1   2964   2962   2963
  2605   1   2967   2965   2966
  2606   1   2970   2968   2969
  2607   1   2973   2971   2972
  2608   1   2976   2974   2975
  2609   1   2979   2977   2978
  2610   1   2982   2980   2981
  2611   1   2985   2983   2984
  2612   1   2988   2986   2987
  2613   1   2991   2989   2990
  2614   1   2994   2992   2993
  2615   1   2997   2995   2996
  2616   1   3000   2998   2999
  2617   1   3003   3001   3002
  2618   1   3006   3004   3005
  2619   1   3009   3007   3008
  2620   1   3012   3010   3011
  2621   1   3015   3013   3014
  2622   1   3018   3016   3017
  2623   1   3021   3019   3020
  2624   1   3024   3022   3023
  2625   1   3027   3025   3026
  2626   1   3030   3028   3029
  2627   1   3033   3031   3032
  2628   1   3036   3034   3035
  2629   1   3039   3037   3038
  2630   1   3042   3040   3041
  2631   1   3045   3043   3044
  2632   1   3048   3046   3047
  2633   1   3051   3049   3050
  2634   1   3054   3052   3053
  2635   1   3057   3055   3056
  2636   1   3060   3058   3059
  2637   1   3063   3061   3062
  2638   1   3066   3064   3065
  2639   1   3069   3067   3068
  2640   1   3072   3070   3071
  2641   1   3075   3073   3074
  2642   1   3078   3076   3077
  2643   1   3081   3079   3080
  2644   1   3084   3082   3083
  2645   1   3087   3085   3086
  2646   1   3090   3088   3089
  2647   1   3093   3091   3092
  2648   1   3096   3094   3095
  2649   1   3099   3097   3098
  2650   1   3102   3100   3101
  2651   1   3105   3103   3104
  2652   1   3108   3106   3107
  2653   1   3111   3109   3110
  2654   1   3114   3112   3113
  2655   1   3117   3115   3116
  2656   1   3120   3118   3119
  2657   1   3123   3121   3122
  2658   1   3126   3124   3125
  2659   1   3129   3127   3128
  2660   1   3132   3130   3131
  2661   1   3135   3133   3134
  2662   1   3138   3136   3137
  2663   1   3141   3139   3140
  2664   1   3144   3142   3143
  2665   1   3147   3145   3146
  2666   1   3150   3148   3149
  2667   1   3153   3151   3152
  2668   1   3156   3154   3155
  2669   1   3159   3157   3158
  2670   1   3162   3160   3161
  2671   1   3165   3163   3164
  2672   1   3168   3166   3167
  2673   1   3171   3169   3170
  2674   1   3174   3172   3173
  2675   1   3177   3175   3176
  2676   1   3180   3178   3179
  2677   1   3183   3181   3182
  2678   1   3186   3184   3185
  2679   1   3189   3187   3188
  2680   1   3192   3190   3191
  2681   1   3195   3193   3194
  2682   1   3198   3196   3197
  2683   1   3201   3199   3200
  2684   1   3204   3202   3203
  2685   1   3207   3205   3206
  2686   1   3210   3208   3209
  2687   1   3213   3211   3212
  2688   1   3216   3214   3215
  2689   1   3219   3217   3218
  2690   1   3222   3220   3221
  2691   1   3225   3223   3224
  2692   1   3228   3226   3227
  2693   1   3231   3229   3230
  2694   1   3234   3232   3233
  2695   1   3237   3235   3236
  2696   1   3240   3238   3239
  2697   1   3243   3241   3242
  2698   1   3246   3244   3245
  2699   1   3249   3247   3248
  2700   1   3252   3250   3251
  2701   1   3255   3253   3254
  2702   1   3258   3256   3257
  2703   1   3261   3259   3260
  2704   1   3264   3262   3263
  2705   1   3267   3265   3266
  2706   1   3270   3268   3269
  2707   1   3273   3271   3272
  2708   1   3276   3274   3275
  2709   1   3279   3277   3278
  2710   1   3282   3280   3281
  2711   1   3285   3283   3284
  2712   1   3288   3286   3287
  2713   1   3291   3289   3290
  2714   1   3294   3292   3293
  2715   1   3297   3295   3296
  2716   1   3300   3298   3299
  2717   1   3303   3301   3302
  2718   1   3306   3304   3305
  2719   1   3309   3307   3308
  2720   1   3312   3310   3311
  2721   1   3315   3313   3314
  2722   1   3318   3316   3317
  2723   1   3321   3319   3320
  2724   1   3324   3322   3323
  2725   1   3327   3325   3326
  2726   1   3330   3328   3329
  2727   1   3333   3331   3332
  2728   1   3336   3334   3335
  2729   1   3339   3337   3338
  2730   1   3342   3340   3341
  2731   1   3345   3343   3344
  2732   1   3348   3346   3347
  2733   1   3351   3349   3350
  2734   1   3354   3352   3353
  2735   1   3357   3355   3356
  2736   1   3360   3358   3359
  2737   1   3363   3361   3362
  2738   1   3366   3364   3365
  2739   1   3369   3367   3368
  2740   1   3372   3370   3371
  2741   1   3375   3373   3374
  2742   1   3378   3376   3377
  2743   1   3381   3379   3380
  2744   1   3384   3382   3383
  2745   1   3387   3385   3386
  2746   1   3390   3388   3389
  2747   1   3393   3391   3392
  2748   1   3396   3394   3395
  2749   1   3399   3397   3398
  2750   1   3402   3400   3401
  2751   1   3405   3403   3404
  2752   1   3408   3406   3407
  2753   1   3411   3409   3410
  2754   1   3414   3412   3413
  2755   1   3417   3415   3416
  2756   1   3420   3418   3419
  2757   1   3423   3421   3422
  2758   1   3426   3424   3425
  2759   1   3429   3427   3428
  2760   1   3432   3430   3431
  2761   1   3435   3433   3434
  2762   1   3438   3436   3437
  2763   1   3441   3439   3440
  2764   1   3444   3442   3443
  2765   1   3447   3445   3446
  2766   1   3450   3448   3449
  2767   1   3453   3451   3452
  2768   1   3456   3454   3455
  2769   1   3459   3457   3458
  2770   1   3462   3460   3461
  2771   1   3465   3463   3464
  2772   1   3468   3466   3467
  2773   1   3471   3469   3470
  2774   1   3474   3472   3473
  2775   1   3477   3475   3476
  2776   1   3480   3478   3479
  2777   1   3483   3481   3482
  2778   1   3486   3484   3485
  2779   1   3489   3487   3488
  2780   1   3492   3490   3491
  2781   1   3495   3493   3494
  2782   1   3498   3496   3497
  2783   1   3501   3499   3500
  2784   1   3504   3502   3503
  2785   1   3507   3505   3506
  2786   1   3510   3508   3509
  2787   1   3513   3511   3512
  2788   1   3516   3514   3515
  2789   1   3519   3517   3518
  2790   1   3522   3520   3521
  2791   1   3525   3523   3524
  2792   1   3528   3526   3527
  2793   1   3531   3529   3530
  2794   1   3534   3532   3533
  2795   1   3537   3535   3536
  2796   1   3540   3538   3539
  2797   1   3543   3541   3542
  2798   1   3546   3544   3545
  2799   1   3549   3547   3548
  2800   1   3552   3550   3551
  2801   1   3555   3553   3554
  2802   1   3558   3556   3557
  2803   1   3561   3559   3560
  2804   1   3564   3562   3563
  2805   1   3567   3565   3566
  2806   1   3570   3568   3569
  2807   1   3573   3571   3572
  2808   1   3576   3574   3575
  2809   1   3579   3577   3578
  2810   1   3582   3580   3581
  2811   1   3585   3583   3584
  2812   1   3588   3586   3587
  2813   1   3591   3589   3590
  2814   1   3594   3592   3593
  2815   1   3597   3595   3596
  2816   1   3600   3598   3599
  2817   1   3603   3601   3602
  2818   1   3606   3604   3605
  2819   1   3609   3607   3608
  2820   1   3612   3610   3611
  2821   1   3615   3613   3614
  2822   1   3618   3616   3617
  2823   1   3621   3619   3620
  2824   1   3624   3622   3623
  2825   1   3627   3625   3626
  2826   1   3630   3628   3629
  2827   1   3633   3631   3632
  2828   1   3636   3634   3635
  2829   1   3639   3637   3638
  2830   1   3642   3640   3641
  2831   1   3645   3643   3644
  2832   1   3648   3646   3647
  2833   1   3651   3649   3650
  2834   1   3654   3652   3653
  2835   1   3657   3655   3656
  2836   1   3660   3658   3659
  2837   1   3663   3661   3662
  2838   1   3666   3664   3665
  2839   1   3669   3667   3668
  2840   1   3672   3670   3671
  2841   1   3675   3673   3674
  2842   1   3678   3676   3677
  2843   1   3681   3679   3680
  2844   1   3684   3682   3683
  2845   1   3687   3685   3686
  2846   1   3690   3688   3689
  2847   1   3693   3691   3692
  2848   1   3696   3694   3695
  2849   1   3699   3697   3698
  2850   1   3702   3700   3701
  2851   1   3705   3703   3704
  2852   1   3708   3706   3707
  2853   1   3711   3709   3710
  2854   1   3714   3712   3713
  2855   1   3717   3715   3716
  2856   1   3720   3718   3719
  2857   1   3723   3721   3722
  2858   1   3726   3724   3725
  2859   1   3729   3727   3728
  2860   1   3732   3730   3731
  2861   1   3735   3733   3734
  2862   1   3738   3736   3737
  2863   1   3741   3739   3740
  2864   1   3744   3742   3743
  2865   1   3747   3745   3746
  2866   1   3750   3748   3749
  2867   1   3753   3751   3752
  2868   1   3756   3754   3755
  2869   1   3759   3757   3758
  2870   1   3762   3760   3761
  2871   1   3765   3763   3764
  2872   1   3768   3766   3767
  2873   1   3771   3769   3770
  2874   1   3774   3772   3773
  2875   1   3777   3775   3776
  2876   1   3780   3778   3779
  2877   1   3783   3781   3782
  2878   1   3786   3784   3785
  2879   1   3789   3787   3788
  2880   1   3792   3790   3791
  2881   1   3795   3793   3794
  2882   1   3798   3796   3797
  2883   1   3801   3799   3800
  2884   1   3804   3802   3803
  2885   1   3807   3805   3806
  2886   1   3810   3808   3809
  2887   1   3813   3811   3812
  2888   1   3816   3814   3815
  2889   1   3819   3817   3818
  2890   1   3822   3820   3821
  2891   1   3825   3823   3824
  2892   1   3828   3826   3827
  2893   1   3831   3829   3830
  2894   1   3834   3832   3833
  2895   1   3837   3835   3836
  2896   1   3840   3838   3839
  2897   1   3843   3841   3842
  2898   1   3846   3844   3845
  2899   1   3849   3847   3848
  2900   1   3852   3850   3851
  2901   1   3855   3853   3854
  2902   1   3858   3856   3857
  2903   1   3861   3859   3860
  2904   1   3864   3862   3863
  2905   1   3867   3865   3866
  2906   1   3870   3868   3869
  2907   1   3873   3871   3872
  2908   1   3876   3874   3875
  2909   1   3879   3877   3878
  2910   1   3882   3880   3881
  2911   1   3885   3883   3884
  2912   1   3888   3886   3887
  2913   1   3891   3889   3890
  2914   1   3894   3892   3893
  2915   1   3897   3895   3896
  2916   1   3900   3898   3899
  2917   1   3903   3901   3902
  2918   1   3906   3904   3905
  2919   1   3909   3907   3908
  2920   1   3912   3910   3911
  2921   1   3915   3913   3914
  2922   1   3918   3916   3917
  2923   1   3921   3919   3920
  2924   1   3924   3922   3923
  2925   1   3927   3925   3926
  2926   1   3930   3928   3929
  2927   1   3933   3931   3932
  2928   1   3936   3934   3935
  2929   1   3939   3937   3938
  2930   1   3942   3940   3941
  2931   1   3945   3943   3944
  2932   1   3948   3946   3947
  2933   1   3951   3949   3950
  2934   1   3954   3952   3953
  2935   1   3957   3955   3956
  2936   1   3960   3958   3959
  2937   1   3963   3961   3962
  2938   1   3966   3964   3965
  2939   1   3969   3967   3968
  2940   1   3972   3970   3971
  2941   1   3975   3973   3974
  2942   1   3978   3976   3977
  2943   1   3981   3979   3980
  2944   1   3984   3982   3983
  2945   1   3987   3985   3986
  2946   1   3990   3988   3989
  2947   1   3993   3991   3992
  2948   1   3996   3994   3995
  2949   1   3999   3997   3998
  2950   1   4002   4000   4001
  2951   1   4005   4003   4004
  2952   1   4008   4006   4007
  2953   1   4011   4009   4010
  2954   1   4014   4012   4013
  2955   1   4017   4015   4016
  2956   1   4020   4018   4019
  2957   1   4023   4021   4022
  2958   1   4026   4024   4025
  2959   1   4029   4027   4028
  2960   1   4032   4030   4031
  2961   1   4035   4033   4034
  2962   1   4038   4036   4037
  2963   1   4041   4039   4040
  2964   1   4044   4042   4043
  2965   1   4047   4045   4046
  2966   1   4050   4048   4049
  2967   1   4053   4051   4052
  2968   1   4056   4054   4055
  2969   1   4059   4057   4058
  2970   1   4062   4060   4061
  2971   1   4065   4063   4064
  2972   1   4068   4066   4067
  2973   1   4071   4069   4070
  2974   1   4074   4072   4073
  2975   1   4077   4075   4076
  2976   1   4080   4078   4079
  2977   1   4083   4081   4082
  2978   1   4086   4084   4085
  2979   1   4089   4087   4088
  2980   1   4092   4090   4091
  2981   1   4095   4093   4094
  2982   1   4098   4096   4097
  2983   1   4101   4099   4100
  2984   1   4104   4102   4103
  2985   1   4107   4105   4106
  2986   1   4110   4108   4109
  2987   1   4113   4111   4112
  2988   1   4116   4114   4115
  2989   1   4119   4117   4118
  2990   1   4122   4120   4121
  2991   1   4125   4123   4124
  2992   1   4128   4126   4127
  2993   1   4131   4129   4130
  2994   1   4134   4132   4133
  2995   1   4137   4135   4136
  2996   1   4140   4138   4139
  2997   1   4143   4141   4142
  2998   1   4146   4144   4145
  2999   1   4149   4147   4148
  3000   1   4152   4150   4151
  3001   1   4155   4153   4154
  3002   1   4158   4156   4157
  3003   1   4161   4159   4160
  3004   1   4164   4162   4163
  3005   1   4167   4165   4166
  3006   1   4170   4168   4169
  3007   1   4173   4171   4172
  3008   1   4176   4174   4175
  3009   1   4179   4177   4178
  3010   1   4182   4180   4181
  3011   1   4185   4183   4184
  3012   1   4188   4186   4187
  3013   1   4191   4189   4190
  3014   1   4194   4192   4193
  3015   1   4197   4195   4196
  3016   1   4200   4198   4199
  3017   1   4203   4201   4202
  3018   1   4206   4204   4205
  3019   1   4209   4207   4208
  3020   1   4212   4210   4211
  3021   1   4215   4213   4214
  3022   1   4218   4216   4217
  3023   1   4221   4219   4220
  3024   1   4224   4222   4223
  3025   1   4227   4225   4226
  3026   1   4230   4228   4229
  3027   1   4233   4231   4232
  3028   1   4236   4234   4235
  3029   1   4239   4237   4238
  3030   1   4242   4240   4241
  3031   1   4245   4243   4244
  3032   1   4248   4246   4247
  3033   1   4251   4249   4250
  3034   1   4254   4252   4253
  3035   1   4257   4255   4256
  3036   1   4260   4258   4259
  3037   1   4263   4261   4262
  3038   1   4266   4264   4265
  3039   1   4269   4267   4268
  3040   1   4272   4270   4271
  3041   1   4275   4273   4274
  3042   1   4278   4276   4277
  3043   1   4281   4279   4280
  3044   1   4284   4282   4283
  3045   1   4287   4285   4286
  3046   1   4290   4288   4289
  3047   1   4293   4291   4292
  3048   1   4296   4294   4295
  3049   1   4299   4297   4298
  3050   1   4302   4300   4301
  3051   1   4305   4303   4304
  3052   1   4308   4306   4307
  3053   1   4311   4309   4310
  3054   1   4314   4312   4313
  3055   1   4317   4315   4316
  3056   1   4320   4318   4319
  3057   1   4323   4321   4322
  3058   1   4326   4324   4325
  3059   1   4329   4327   4328
  3060   1   4332   4330   4331
  3061   1   4335   4333   4334
  3062   1   4338   4336   4337
  3063   1   4341   4339   4340
  3064   1   4344   4342   4343
  3065   1   4347   4345   4346
  3066   1   4350   4348   4349
  3067   1   4353   4351   4352
  3068   1   4356   4354   4355
  3069   1   4359   4357   4358
  3070   1   4362   4360   4361
  3071   1   4365   4363   4364
  3072   1   4368   4366   4367
  3073   1   4371   4369   4370
  3074   1   4374   4372   4373
  3075   1   4377   4375   4376
  3076   1   4380   4378   4379
  3077   1   4383   4381   4382
  3078   1   4386   4384   4385
  3079   1   4389   4387   4388
  3080   1   4392   4390   4391
  3081   1   4395   4393   4394
  3082   1   4398   4396   4397
  3083   1   4401   4399   4400
  3084   1   4404   4402   4403
  3085   1   4407   4405   4406
  3086   1   4410   4408   4409
  3087   1   4413   4411   4412
  3088   1   4416   4414   4415
  3089   1   4419   4417   4418
  3090   1   4422   4420   4421
  3091   1   4425   4423   4424
  3092   1   4428   4426   4427
  3093   1   4431   4429   4430
  3094   1   4434   4432   4433
  3095   1   4437   4435   4436
  3096   1   4440   4438   4439
  3097   1   4443   4441   4442
  3098   1   4446   4444   4445
  3099   1   4449   4447   4448
  3100   1   4452   4450   4451
  3101   1   4455   4453   4454
  3102   1   4458   4456   4457
  3103   1   4461   4459   4460
  3104   1   4464   4462   4463
  3105   1   4467   4465   4466
  3106   1   4470   4468   4469
  3107   1   4473   4471   4472
  3108   1   4476   4474   4475
  3109   1   4479   4477   4478
  3110   1   4482   4480   4481
  3111   1   4485   4483   4484
  3112   1   4488   4486   4487
  3113   1   4491   4489   4490
  3114   1   4494   4492   4493
  3115   1   4497   4495   4496
  3116   1   4500   4498   4499
  3117   1   4503   4501   4502
  3118   1   4506   4504   4505
  3119   1   4509   4507   4508
  3120   1   4512   4510   4511
  3121   1   4515   4513   4514
  3122   1   4518   4516   4517
  3123   1   4521   4519   4520
  3124   1   4524   4522   4523
  3125   1   4527   4525   4526
  3126   1   4530   4528   4529
  3127   1   4533   4531   4532
  3128   1   4536   4534   4535
  3129   1   4539   4537   4538
  3130   1   4542   4540   4541
  3131   1   4545   4543   4544
  3132   1   4548   4546   4547
  3133   1   4551   4549   4550
  3134   1   4554   4552   4553
  3135   1   4557   4555   4556
  3136   1   4560   4558   4559
  3137   1   4563   4561   4562
  3138   1   4566   4564   4565
  3139   1   4569   4567   4568
  3140   1   4572   4570   4571
  3141   1   4575   4573   4574
  3142   1   4578   4576   4577
  3143   1   4581   4579   4580
  3144   1   4584   4582   4583
  3145   1   4587   4585   4586
  3146   1   4590   4588   4589
  3147   1   4593   4591   4592
  3148   1   4596   4594   4595
  3149   1   4599   4597   4598
  3150   1   4602   4600   4601
  3151   1   4605   4603   4604
  3152   1   4608   4606   4607
  3153   1   4611   4609   4610
  3154   1   4614   4612   4613
  3155   1   4617   4615   4616
  3156   1   4620   4618   4619
  3157   1   4623   4621   4622
  3158   1   4626   4624   4625
  3159   1   4629   4627   4628
  3160   1   4632   4630   4631
  3161   1   4635   4633   4634
  3162   1   4638   4636   4637
  3163   1   4641   4639   4640
  3164   1   4644   4642   4643
  3165   1   4647   4645   4646
  3166   1   4650   4648   4649
  3167   1   4653   4651   4652
  3168   1   4656   4654   4655
  3169   1   4659   4657   4658
  3170   1   4662   4660   4661
  3171   1   4665   4663   4664
  3172   1   4668   4666   4667
  3173   1   4671   4669   4670
  3174   1   4674   4672   4673
  3175   1   4677   4675   4676
  3176   1   4680   4678   4679
  3177   1   4683   4681   4682
  3178   1   4686   4684   4685
  3179   1   4689   4687   4688
  3180   1   4692   4690   4691
  3181   1   4695   4693   4694
  3182   1   4698   4696   4697
  3183   1   4701   4699   4700
  3184   1   4704   4702   4703
  3185   1   4707   4705   4706
  3186   1   4710   4708   4709
  3187   1   4713   4711   4712
  3188   1   4716   4714   4715
  3189   1   4719   4717   4718
  3190   1   4722   4720   4721
  3191   1   4725   4723   4724
  3192   1   4728   4726   4727
  3193   1   4731   4729   4730
  3194   1   4734   4732   4733
  3195   1   4737   4735   4736
  3196   1   4740   4738   4739
  3197   1   4743   4741   4742
  3198   1   4746   4744   4745
  3199   1   4749   4747   4748
  3200   1   4752   4750   4751
  3201   1   4755   4753   4754
  3202   1   4758   4756   4757
  3203   1   4761   4759   4760
  3204   1   4764   4762   4763
  3205   1   4767   4765   4766
  3206   1   4770   4768   4769
  3207   1   4773   4771   4772
  3208   1   4776   4774   4775
  3209   1   4779   4777   4778
  3210   1   4782   4780   4781
  3211   1   4785   4783   4784
  3212   1   4788   4786   4787
  3213   1   4791   4789   4790
  3214   1   4794   4792   4793
  3215   1   4797   4795   4796
  3216   1   4800   4798   4799
  3217   1   4803   4801   4802
  3218   1   4806   4804   4805
  3219   1   4809   4807   4808
  3220   1   4812   4810   4811
  3221   1   4815   4813   4814
  3222   1   4818   4816   4817
  3223   1   4821   4819   4820
  3224   1   4824   4822   4823
  3225   1   4827   4825   4826
  3226   1   4830   4828   4829
  3227   1   4833   4831   4832
  3228   1   4836   4834   4835
  3229   1   4839   4837   4838
  3230   1   4842   4840   4841
  3231   1   4845   4843   4844
  3232   1   4848   4846   4847
  3233   1   4851   4849   4850
  3234   1   4854   4852   4853
  3235   1   4857   4855   4856
  3236   1   4860   4858   4859
  3237   1   4863   4861   4862
  3238   1   4866   4864   4865
  3239   1   4869   4867   4868
  3240   1   4872   4870   4871
  3241   1   4875   4873   4874
  3242   1   4878   4876   4877
  3243   1   4881   4879   4880
  3244   1   4884   4882   4883
  3245   1   4887   4885   4886
  3246   1   4890   4888   4889
  3247   1   4893   4891   4892
  3248   1   4896   4894   4895

Dihedrals

     1   1     13      8     12     10
     2   1   2434      8     12     10
     3   2     57      8     12     10
     4   3     12      8     57     55
     5   4     13      8     57     55
     6   4   2434      8     57     55
     7   5      4      9     11    100
     8   6     14      9     11    100
     9   7     16      9     11    100
    10   8      4      9     14     20
    11   9     11      9     14     20
    12   9     16      9     14     20
    13   5      4      9     16     10
    14   7     11      9     16     10
    15   6     14      9     16     10
    16   2     16     10     12      8
    17   1     17     10     12      8
    18   1     18     10     12      8
    19   3     12     10     16      9
    20   4     17     10     16      9
    21   4     18     10     16      9
    22   3    104    100     11      9
    23   4    105    100     11      9
    24   4   2448    100     11      9
    25   1     36     31     35     33
    26   1   2435     31     35     33
    27   2     80     31     35     33
    28   3     35     31     80     78
    29   4     36     31     80     78
    30   4   2435     31     80     78
    31   5     27     32     34    120
    32   6     37     32     34    120
    33   7     39     32     34    120
    34   8     27     32     37     43
    35   9     34     32     37     43
    36   9     39     32     37     43
    37   5     27     32     39     33
    38   7     34     32     39     33
    39   6     37     32     39     33
    40   2     39     33     35     31
    41   1     40     33     35     31
    42   1     41     33     35     31
    43   3     35     33     39     32
    44   4     40     33     39     32
    45   4     41     33     39     32
    46   3    124    120     34     32
    47   4    125    120     34     32
    48   4   2449    120     34     32
    49   1     59     54     58     56
    50   1   2436     54     58     56
    51   2    103     54     58     56
    52   3     58     54    103    101
    53   4     59     54    103    101
    54   4   2436     54    103    101
    55   5     50     55     57      8
    56   6     60     55     57      8
    57   7     62     55     57      8
    58   8     50     55     60     66
    59   9     57     55     60     66
    60   9     62     55     60     66
    61   5     50     55     62     56
    62   7     57     55     62     56
    63   6     60     55     62     56
    64   2     62     56     58     54
    65   1     63     56     58     54
    66   1     64     56     58     54
    67   3     58     56     62     55
    68   4     63     56     62     55
    69   4     64     56     62     55
    70   1     82     77     81     79
    71   1   2437     77     81     79
    72   2    123     77     81     79
    73   3     81     77    123    121
    74   4     82     77    123    121
    75   4   2437     77    123    121
    76   5     73     78     80     31
    77   6     83     78     80     31
    78   7     85     78     80     31
    79   8     73     78     83     89
    80   9     80     78     83     89
    81   9     85     78     83     89
    82   5     73     78     85     79
    83   7     80     78     85     79
    84   6     83     78     85     79
    85   2     85     79     81     77
    86   1     86     79     81     77
    87   1     87     79     81     77
    88   3     81     79     85     78
    89   4     86     79     85     78
    90   4     87     79     85     78
    91   1    105    100    104    102
    92   2     11    100    104    102
    93   1   2448    100    104    102
    94   5     96    101    103     54
    95   6    106    101    103     54
    96   7    108    101    103     54
    97   8     96    101    106    111
    98   9    103    101    106    111
    99   9    108    101    106    111
   100   5     96    101    108    102
   101   7    103    101    108    102
   102   6    106    101    108    102
   103   2    108    102    104    100
   104   1    109    102    104    100
   105   1    110    102    104    100
   106   3    104    102    108    101
   107   4    109    102    108    101
   108   4    110    102    108    101
   109   1    125    120    124    122
   110   2     34    120    124    122
   111   1   2449    120    124    122
   112   5    116    121    123     77
   113   6    126    121    123     77
   114   7    128    121    123     77
   115   8    116    121    126    131
   116   9    123    121    126    131
   117   9    128    121    126    131
   118   5    116    121    128    122
   119   7    123    121    128    122
   120   6    126    121    128    122
   121   2    128    122    124    120
   122   1    129    122    124    120
   123   1    130    122    124    120
   124   3    124    122    128    121
   125   4    129    122    128    121
   126   4    130    122    128    121
   127   3    142    138    141    139
   128   4    143    138    141    139
   129   4    144    138    141    139
   130   2    141    138    142    140
   131   1    143    138    142    140
   132   1    144    138    142    140
   133   6    146    139    141    138
   134   7    148    139    141    138
   135   5    177    139    141    138
   136   9    141    139    146    207
   137   9    148    139    146    207
   138   8    177    139    146    207
   139   7    141    139    148    340
   140   6    146    139    148    340
   141   5    177    139    148    340
   142   1    149    140    142    138
   143   1   2418    140    142    138
   144   2    548    140    142    138
   145   3    142    140    548    539
   146   4    149    140    548    539
   147   4   2418    140    548    539
   148   3    342    340    148    139
   149   4    349    340    148    139
   150   4   2404    340    148    139
   151   3    160    156    159    157
   152   4    161    156    159    157
   153   4    162    156    159    157
   154   2    159    156    160    158
   155   1    161    156    160    158
   156   1    162    156    160    158
   157   6    164    157    159    156
   158   5    193    157    159    156
   159   7    366    157    159    156
   160   9    159    157    164    205
   161   8    193    157    164    205
   162   9    366    157    164    205
   163   7    159    157    366    358
   164   6    164    157    366    358
   165   5    193    157    366    358
   166   2    166    158    160    156
   167   1    167    158    160    156
   168   1   2438    158    160    156
   169   3    160    158    166   1158
   170   4    167    158    166   1158
   171   4   2438    158    166   1158
   172   6   1159   1158    166    158
   173   5   1165   1158    166    158
   174   7    558   1158    166    158
   175   1    176    171    175    173
   176   1   2439    171    175    173
   177   2    374    171    175    173
   178   3    175    171    374    372
   179   4    176    171    374    372
   180   4   2439    171    374    372
   181   5    145    172    174    567
   182   6    178    172    174    567
   183   7    180    172    174    567
   184   8    145    172    178    204
   185   9    174    172    178    204
   186   9    180    172    178    204
   187   5    145    172    180    173
   188   7    174    172    180    173
   189   6    178    172    180    173
   190   2    180    173    175    171
   191   1    181    173    175    171
   192   1    182    173    175    171
   193   3    175    173    180    172
   194   4    181    173    180    172
   195   4    182    173    180    172
   196   3    571    567    174    172
   197   4    572    567    174    172
   198   4   2450    567    174    172
   199   4    192    187    190    188
   200   4   2440    187    190    188
   201   3   1164    187    190    188
   202   2    190    187   1164    583
   203   1    192    187   1164    583
   204   1   2440    187   1164    583
   205   5    163    188    190    187
   206   6    194    188    190    187
   207   7    196    188    190    187
   208   8    163    188    194    206
   209   9    190    188    194    206
   210   9    196    188    194    206
   211   5    163    188    196    189
   212   7    190    188    196    189
   213   6    194    188    196    189
   214   2    196    189    191    387
   215   1    197    189    191    387
   216   1    198    189    191    387
   217   3    191    189    196    188
   218   4    197    189    196    188
   219   4    198    189    196    188
   220   2    390    387    191    189
   221   1    392    387    191    189
   222   1   2407    387    191    189
   223   3    242    238    241    239
   224   4    243    238    241    239
   225   4    244    238    241    239
   226   2    241    238    242    240
   227   1    243    238    242    240
   228   1    244    238    242    240
   229   6    246    239    241    238
   230   7    248    239    241    238
   231   5    277    239    241    238
   232   9    241    239    246    307
   233   9    248    239    246    307
   234   8    277    239    246    307
   235   7    241    239    248    440
   236   6    246    239    248    440
   237   5    277    239    248    440
   238   1    249    240    242    238
   239   1   2419    240    242    238
   240   2    635    240    242    238
   241   3    242    240    635    626
   242   4    249    240    635    626
   243   4   2419    240    635    626
   244   3    442    440    248    239
   245   4    449    440    248    239
   246   4   2408    440    248    239
   247   3    260    256    259    257
   248   4    261    256    259    257
   249   4    262    256    259    257
   250   2    259    256    260    258
   251   1    261    256    260    258
   252   1    262    256    260    258
   253   6    264    257    259    256
   254   5    293    257    259    256
   255   7    466    257    259    256
   256   9    259    257    264    305
   257   8    293    257    264    305
   258   9    466    257    264    305
   259   7    259    257    466    458
   260   6    264    257    466    458
   261   5    293    257    466    458
   262   2    266    258    260    256
   263   1    267    258    260    256
   264   1   2441    258    260    256
   265   3    260    258    266   1171
   266   4    267    258    266   1171
   267   4   2441    258    266   1171
   268   6   1172   1171    266    258
   269   5   1178   1171    266    258
   270   7    645   1171    266    258
   271   1    276    271    275    273
   272   1   2442    271    275    273
   273   2    474    271    275    273
   274   3    275    271    474    472
   275   4    276    271    474    472
   276   4   2442    271    474    472
   277   5    245    272    274    654
   278   6    278    272    274    654
   279   7    280    272    274    654
   280   8    245    272    278    304
   281   9    274    272    278    304
   282   9    280    272    278    304
   283   5    245    272    280    273
   284   7    274    272    280    273
   285   6    278    272    280    273
   286   2    280    273    275    271
   287   1    281    273    275    271
   288   1    282    273    275    271
   289   3    275    273    280    272
   290   4    281    273    280    272
   291   4    282    273    280    272
   292   3    658    654    274    272
   293   4    659    654    274    272
   294   4   2451    654    274    272
   295   4    292    287    290    288
   296   4   2443    287    290    288
   297   3   1177    287    290    288
   298   2    290    287   1177    670
   299   1    292    287   1177    670
   300   1   2443    287   1177    670
   301   5    263    288    290    287
   302   6    294    288    290    287
   303   7    296    288    290    287
   304   8    263    288    294    306
   305   9    290    288    294    306
   306   9    296    288    294    306
   307   5    263    288    296    289
   308   7    290    288    296    289
   309   6    294    288    296    289
   310   2    296    289    291    487
   311   1    297    289    291    487
   312   1    298    289    291    487
   313   3    291    289    296    288
   314   4    297    289    296    288
   315   4    298    289    296    288
   316   2    490    487    291    289
   317   1    492    487    291    289
   318   1   2411    487    291    289
   319   3    342    338    341    339
   320   4    343    338    341    339
   321   4    344    338    341    339
   322   2    341    338    342    340
   323   1    343    338    342    340
   324   1    344    338    342    340
   325   6    346    339    341    338
   326   7    348    339    341    338
   327   5    377    339    341    338
   328   9    341    339    346    407
   329   9    348    339    346    407
   330   8    377    339    346    407
   331   7    341    339    348    540
   332   6    346    339    348    540
   333   5    377    339    348    540
   334   2    148    340    342    338
   335   1    349    340    342    338
   336   1   2404    340    342    338
   337   3    542    540    348    339
   338   4    549    540    348    339
   339   4   2412    540    348    339
   340   3    360    356    359    357
   341   4    361    356    359    357
   342   4    362    356    359    357
   343   2    359    356    360    358
   344   1    361    356    360    358
   345   1    362    356    360    358
   346   6    364    357    359    356
   347   5    393    357    359    356
   348   7    564    357    359    356
   349   9    359    357    364    405
   350   8    393    357    364    405
   351   9    564    357    364    405
   352   7    359    357    564    557
   353   6    364    357    564    557
   354   5    393    357    564    557
   355   2    366    358    360    356
   356   1    367    358    360    356
   357   1   2405    358    360    356
   358   3    360    358    366    157
   359   4    367    358    366    157
   360   4   2405    358    366    157
   361   1    376    371    375    373
   362   1   2406    371    375    373
   363   2    570    371    375    373
   364   3    375    371    570    568
   365   4    376    371    570    568
   366   4   2406    371    570    568
   367   5    345    372    374    171
   368   6    378    372    374    171
   369   7    380    372    374    171
   370   8    345    372    378    404
   371   9    374    372    378    404
   372   9    380    372    378    404
   373   5    345    372    380    373
   374   7    374    372    380    373
   375   6    378    372    380    373
   376   2    380    373    375    371
   377   1    381    373    375    371
   378   1    382    373    375    371
   379   3    375    373    380    372
   380   4    381    373    380    372
   381   4    382    373    380    372
   382   3    191    387    390    388
   383   4    392    387    390    388
   384   4   2407    387    390    388
   385   5    363    388    390    387
   386   6    394    388    390    387
   387   7    396    388    390    387
   388   8    363    388    394    406
   389   9    390    388    394    406
   390   9    396    388    394    406
   391   5    363    388    396    389
   392   7    390    388    396    389
   393   6    394    388    396    389
   394   2    396    389    391    581
   395   1    397    389    391    581
   396   1    398    389    391    581
   397   3    391    389    396    388
   398   4    397    389    396    388
   399   4    398    389    396    388
   400   2    584    581    391    389
   401   1    585    581    391    389
   402   1   2414    581    391    389
   403   3    442    438    441    439
   404   4    443    438    441    439
   405   4    444    438    441    439
   406   2    441    438    442    440
   407   1    443    438    442    440
   408   1    444    438    442    440
   409   6    446    439    441    438
   410   7    448    439    441    438
   411   5    477    439    441    438
   412   9    441    439    446    507
   413   9    448    439    446    507
   414   8    477    439    446    507
   415   7    441    439    448    627
   416   6    446    439    448    627
   417   5    477    439    448    627
   418   2    248    440    442    438
   419   1    449    440    442    438
   420   1   2408    440    442    438
   421   3    629    627    448    439
   422   4    636    627    448    439
   423   4   2415    627    448    439
   424   3    460    456    459    457
   425   4    461    456    459    457
   426   4    462    456    459    457
   427   2    459    456    460    458
   428   1    461    456    460    458
   429   1    462    456    460    458
   430   6    464    457    459    456
   431   5    493    457    459    456
   432   7    651    457    459    456
   433   9    459    457    464    505
   434   8    493    457    464    505
   435   9    651    457    464    505
   436   7    459    457    651    644
   437   6    464    457    651    644
   438   5    493    457    651    644
   439   2    466    458    460    456
   440   1    467    458    460    456
   441   1   2409    458    460    456
   442   3    460    458    466    257
   443   4    467    458    466    257
   444   4   2409    458    466    257
   445   1    476    471    475    473
   446   1   2410    471    475    473
   447   2    657    471    475    473
   448   3    475    471    657    655
   449   4    476    471    657    655
   450   4   2410    471    657    655
   451   5    445    472    474    271
   452   6    478    472    474    271
   453   7    480    472    474    271
   454   8    445    472    478    504
   455   9    474    472    478    504
   456   9    480    472    478    504
   457   5    445    472    480    473
   458   7    474    472    480    473
   459   6    478    472    480    473
   460   2    480    473    475    471
   461   1    481    473    475    471
   462   1    482    473    475    471
   463   3    475    473    480    472
   464   4    481    473    480    472
   465   4    482    473    480    472
   466   3    291    487    490    488
   467   4    492    487    490    488
   468   4   2411    487    490    488
   469   5    463    488    490    487
   470   6    494    488    490    487
   471   7    496    488    490    487
   472   8    463    488    494    506
   473   9    490    488    494    506
   474   9    496    488    494    506
   475   5    463    488    496    489
   476   7    490    488    496    489
   477   6    494    488    496    489
   478   2    496    489    491    668
   479   1    497    489    491    668
   480   1    498    489    491    668
   481   3    491    489    496    488
   482   4    497    489    496    488
   483   4    498    489    496    488
   484   2    671    668    491    489
   485   1    672    668    491    489
   486   1   2417    668    491    489
   487   3    542    538    541    539
   488   4    543    538    541    539
   489   4    544    538    541    539
   490   2    541    538    542    540
   491   1    543    538    542    540
   492   1    544    538    542    540
   493   6    546    539    541    538
   494   7    548    539    541    538
   495   5    573    539    541    538
   496   9    541    539    546    598
   497   9    548    539    546    598
   498   8    573    539    546    598
   499   7    541    539    548    140
   500   6    546    539    548    140
   501   5    573    539    548    140
   502   2    348    540    542    538
   503   1    549    540    542    538
   504   1   2412    540    542    538
   505   3    559    556    558   1158
   506   4    560    556    558   1158
   507   4    561    556    558   1158
   508   2    558    556    559    557
   509   1    560    556    559    557
   510   1    561    556    559    557
   511   2    564    557    559    556
   512   1    565    557    559    556
   513   1   2413    557    559    556
   514   3    559    557    564    357
   515   4    565    557    564    357
   516   4   2413    557    564    357
   517   7    166   1158    558    556
   518   6   1159   1158    558    556
   519   5   1165   1158    558    556
   520   1    572    567    571    569
   521   2    174    567    571    569
   522   1   2450    567    571    569
   523   5    545    568    570    371
   524   6    574    568    570    371
   525   7    576    568    570    371
   526   8    545    568    574    596
   527   9    570    568    574    596
   528   9    576    568    574    596
   529   5    545    568    576    569
   530   7    570    568    576    569
   531   6    574    568    576    569
   532   2    576    569    571    567
   533   1    577    569    571    567
   534   1    578    569    571    567
   535   3    571    569    576    568
   536   4    577    569    576    568
   537   4    578    569    576    568
   538   3    391    581    584    582
   539   4    585    581    584    582
   540   4   2414    581    584    582
   541   5    562    582    584    581
   542   6    586    582    584    581
   543   7    588    582    584    581
   544   8    562    582    586    597
   545   9    584    582    586    597
   546   9    588    582    586    597
   547   5    562    582    588    583
   548   7    584    582    588    583
   549   6    586    582    588    583
   550   4    589    583    588    582
   551   4    590    583    588    582
   552   3   1164    583    588    582
   553   2    588    583   1164    187
   554   1    589    583   1164    187
   555   1    590    583   1164    187
   556   3    629    625    628    626
   557   4    630    625    628    626
   558   4    631    625    628    626
   559   2    628    625    629    627
   560   1    630    625    629    627
   561   1    631    625    629    627
   562   6    633    626    628    625
   563   7    635    626    628    625
   564   5    660    626    628    625
   565   9    628    626    633    685
   566   9    635    626    633    685
   567   8    660    626    633    685
   568   7    628    626    635    240
   569   6    633    626    635    240
   570   5    660    626    635    240
   571   2    448    627    629    625
   572   1    636    627    629    625
   573   1   2415    627    629    625
   574   3    646    643    645   1171
   575   4    647    643    645   1171
   576   4    648    643    645   1171
   577   2    645    643    646    644
   578   1    647    643    646    644
   579   1    648    643    646    644
   580   2    651    644    646    643
   581   1    652    644    646    643
   582   1   2416    644    646    643
   583   3    646    644    651    457
   584   4    652    644    651    457
   585   4   2416    644    651    457
   586   7    266   1171    645    643
   587   6   1172   1171    645    643
   588   5   1178   1171    645    643
   589   1    659    654    658    656
   590   2    274    654    658    656
   591   1   2451    654    658    656
   592   5    632    655    657    471
   593   6    661    655    657    471
   594   7    663    655    657    471
   595   8    632    655    661    683
   596   9    657    655    661    683
   597   9    663    655    661    683
   598   5    632    655    663    656
   599   7    657    655    663    656
   600   6    661    655    663    656
   601   2    663    656    658    654
   602   1    664    656    658    654
   603   1    665    656    658    654
   604   3    658    656    663    655
   605   4    664    656    663    655
   606   4    665    656    663    655
   607   3    491    668    671    669
   608   4    672    668    671    669
   609   4   2417    668    671    669
   610   5    649    669    671    668
   611   6    673    669    671    668
   612   7    675    669    671    668
   613   8    649    669    673    684
   614   9    671    669    673    684
   615   9    675    669    673    684
   616   5    649    669    675    670
   617   7    671    669    675    670
   618   6    673    669    675    670
   619   4    676    670    675    669
   620   4    677    670    675    669
   621   3   1177    670    675    669
   622   2    675    670   1177    287
   623   1    676    670   1177    287
   624   1    677    670   1177    287
   625   3    716    712    715    713
   626   4    717    712    715    713
   627   4    718    712    715    713
   628   2    715    712    716    714
   629   1    717    712    716    714
   630   1    718    712    716    714
   631   6    719    713    715    712
   632   7    721    713    715    712
   633   5    741    713    715    712
   634   9    715    713    719    764
   635   9    721    713    719    764
   636   8    741    713    719    764
   637   7    715    713    721    868
   638   6    719    713    721    868
   639   5    741    713    721    868
   640   1    722    714    716    712
   641   1   2432    714    716    712
   642   2   1029    714    716    712
   643   3    716    714   1029   1021
   644   4    722    714   1029   1021
   645   4   2432    714   1029   1021
   646   3    870    868    721    713
   647   4    876    868    721    713
   648   4   2420    868    721    713
   649   3    731    727    730    728
   650   4    732    727    730    728
   651   4    733    727    730    728
   652   2    730    727    731    729
   653   1    732    727    731    729
   654   1    733    727    731    729
   655   6    735    728    730    727
   656   5    751    728    730    727
   657   7    891    728    730    727
   658   9    730    728    735    762
   659   8    751    728    735    762
   660   9    891    728    735    762
   661   7    730    728    891    883
   662   6    735    728    891    883
   663   5    751    728    891    883
   664   2    737    729    731    727
   665   1    738    729    731    727
   666   1   2444    729    731    727
   667   3    731    729    737   1184
   668   4    738    729    737   1184
   669   4   2444    729    737   1184
   670   6   1185   1184    737    729
   671   5   1190   1184    737    729
   672   7   1037   1184    737    729
   673   4    750    745    748    746
   674   4   2445    745    748    746
   675   3   1189    745    748    746
   676   2    748    745   1189   1050
   677   1    750    745   1189   1050
   678   1   2445    745   1189   1050
   679   5    734    746    748    745
   680   6    752    746    748    745
   681   7    754    746    748    745
   682   8    734    746    752    763
   683   9    748    746    752    763
   684   9    754    746    752    763
   685   5    734    746    754    747
   686   7    748    746    754    747
   687   6    752    746    754    747
   688   2    754    747    749    899
   689   1    755    747    749    899
   690   1    756    747    749    899
   691   3    749    747    754    746
   692   4    755    747    754    746
   693   4    756    747    754    746
   694   2    902    899    749    747
   695   1    904    899    749    747
   696   1   2422    899    749    747
   697   3    793    789    792    790
   698   4    794    789    792    790
   699   4    795    789    792    790
   700   2    792    789    793    791
   701   1    794    789    793    791
   702   1    795    789    793    791
   703   6    796    790    792    789
   704   7    798    790    792    789
   705   5    818    790    792    789
   706   9    792    790    796    841
   707   9    798    790    796    841
   708   8    818    790    796    841
   709   7    792    790    798    945
   710   6    796    790    798    945
   711   5    818    790    798    945
   712   1    799    791    793    789
   713   1   2433    791    793    789
   714   2   1096    791    793    789
   715   3    793    791   1096   1088
   716   4    799    791   1096   1088
   717   4   2433    791   1096   1088
   718   3    947    945    798    790
   719   4    953    945    798    790
   720   4   2423    945    798    790
   721   3    808    804    807    805
   722   4    809    804    807    805
   723   4    810    804    807    805
   724   2    807    804    808    806
   725   1    809    804    808    806
   726   1    810    804    808    806
   727   6    812    805    807    804
   728   5    828    805    807    804
   729   7    968    805    807    804
   730   9    807    805    812    839
   731   8    828    805    812    839
   732   9    968    805    812    839
   733   7    807    805    968    960
   734   6    812    805    968    960
   735   5    828    805    968    960
   736   2    814    806    808    804
   737   1    815    806    808    804
   738   1   2446    806    808    804
   739   3    808    806    814   1194
   740   4    815    806    814   1194
   741   4   2446    806    814   1194
   742   6   1195   1194    814    806
   743   5   1200   1194    814    806
   744   7   1104   1194    814    806
   745   4    827    822    825    823
   746   4   2447    822    825    823
   747   3   1199    822    825    823
   748   2    825    822   1199   1117
   749   1    827    822   1199   1117
   750   1   2447    822   1199   1117
   751   5    811    823    825    822
   752   6    829    823    825    822
   753   7    831    823    825    822
   754   8    811    823    829    840
   755   9    825    823    829    840
   756   9    831    823    829    840
   757   5    811    823    831    824
   758   7    825    823    831    824
   759   6    829    823    831    824
   760   2    831    824    826    976
   761   1    832    824    826    976
   762   1    833    824    826    976
   763   3    826    824    831    823
   764   4    832    824    831    823
   765   4    833    824    831    823
   766   2    979    976    826    824
   767   1    981    976    826    824
   768   1   2425    976    826    824
   769   3    870    866    869    867
   770   4    871    866    869    867
   771   4    872    866    869    867
   772   2    869    866    870    868
   773   1    871    866    870    868
   774   1    872    866    870    868
   775   6    873    867    869    866
   776   7    875    867    869    866
   777   5    895    867    869    866
   778   9    869    867    873    918
   779   9    875    867    873    918
   780   8    895    867    873    918
   781   7    869    867    875   1022
   782   6    873    867    875   1022
   783   5    895    867    875   1022
   784   2    721    868    870    866
   785   1    876    868    870    866
   786   1   2420    868    870    866
   787   3   1024   1022    875    867
   788   4   1030   1022    875    867
   789   4   2426   1022    875    867
   790   3    885    881    884    882
   791   4    886    881    884    882
   792   4    887    881    884    882
   793   2    884    881    885    883
   794   1    886    881    885    883
   795   1    887    881    885    883
   796   6    889    882    884    881
   797   5    905    882    884    881
   798   7   1043    882    884    881
   799   9    884    882    889    916
   800   8    905    882    889    916
   801   9   1043    882    889    916
   802   7    884    882   1043   1036
   803   6    889    882   1043   1036
   804   5    905    882   1043   1036
   805   2    891    883    885    881
   806   1    892    883    885    881
   807   1   2421    883    885    881
   808   3    885    883    891    728
   809   4    892    883    891    728
   810   4   2421    883    891    728
   811   3    749    899    902    900
   812   4    904    899    902    900
   813   4   2422    899    902    900
   814   5    888    900    902    899
   815   6    906    900    902    899
   816   7    908    900    902    899
   817   8    888    900    906    917
   818   9    902    900    906    917
   819   9    908    900    906    917
   820   5    888    900    908    901
   821   7    902    900    908    901
   822   6    906    900    908    901
   823   2    908    901    903   1048
   824   1    909    901    903   1048
   825   1    910    901    903   1048
   826   3    903    901    908    900
   827   4    909    901    908    900
   828   4    910    901    908    900
   829   2   1051   1048    903    901
   830   1   1052   1048    903    901
   831   1   2428   1048    903    901
   832   3    947    943    946    944
   833   4    948    943    946    944
   834   4    949    943    946    944
   835   2    946    943    947    945
   836   1    948    943    947    945
   837   1    949    943    947    945
   838   6    950    944    946    943
   839   7    952    944    946    943
   840   5    972    944    946    943
   841   9    946    944    950    995
   842   9    952    944    950    995
   843   8    972    944    950    995
   844   7    946    944    952   1089
   845   6    950    944    952   1089
   846   5    972    944    952   1089
   847   2    798    945    947    943
   848   1    953    945    947    943
   849   1   2423    945    947    943
   850   3   1091   1089    952    944
   851   4   1097   1089    952    944
   852   4   2429   1089    952    944
   853   3    962    958    961    959
   854   4    963    958    961    959
   855   4    964    958    961    959
   856   2    961    958    962    960
   857   1    963    958    962    960
   858   1    964    958    962    960
   859   6    966    959    961    958
   860   5    982    959    961    958
   861   7   1110    959    961    958
   862   9    961    959    966    993
   863   8    982    959    966    993
   864   9   1110    959    966    993
   865   7    961    959   1110   1103
   866   6    966    959   1110   1103
   867   5    982    959   1110   1103
   868   2    968    960    962    958
   869   1    969    960    962    958
   870   1   2424    960    962    958
   871   3    962    960    968    805
   872   4    969    960    968    805
   873   4   2424    960    968    805
   874   3    826    976    979    977
   875   4    981    976    979    977
   876   4   2425    976    979    977
   877   5    965    977    979    976
   878   6    983    977    979    976
   879   7    985    977    979    976
   880   8    965    977    983    994
   881   9    979    977    983    994
   882   9    985    977    983    994
   883   5    965    977    985    978
   884   7    979    977    985    978
   885   6    983    977    985    978
   886   2    985    978    980   1115
   887   1    986    978    980   1115
   888   1    987    978    980   1115
   889   3    980    978    985    977
   890   4    986    978    985    977
   891   4    987    978    985    977
   892   2   1118   1115    980    978
   893   1   1119   1115    980    978
   894   1   2431   1115    980    978
   895   3   1024   1020   1023   1021
   896   4   1025   1020   1023   1021
   897   4   1026   1020   1023   1021
   898   2   1023   1020   1024   1022
   899   1   1025   1020   1024   1022
   900   1   1026   1020   1024   1022
   901   6   1027   1021   1023   1020
   902   7   1029   1021   1023   1020
   903   5   1045   1021   1023   1020
   904   9   1023   1021   1027   1064
   905   9   1029   1021   1027   1064
   906   8   1045   1021   1027   1064
   907   7   1023   1021   1029    714
   908   6   1027   1021   1029    714
   909   5   1045   1021   1029    714
   910   2    875   1022   1024   1020
   911   1   1030   1022   1024   1020
   912   1   2426   1022   1024   1020
   913   3   1038   1035   1037   1184
   914   4   1039   1035   1037   1184
   915   4   1040   1035   1037   1184
   916   2   1037   1035   1038   1036
   917   1   1039   1035   1038   1036
   918   1   1040   1035   1038   1036
   919   2   1043   1036   1038   1035
   920   1   1044   1036   1038   1035
   921   1   2427   1036   1038   1035
   922   3   1038   1036   1043    882
   923   4   1044   1036   1043    882
   924   4   2427   1036   1043    882
   925   7    737   1184   1037   1035
   926   6   1185   1184   1037   1035
   927   5   1190   1184   1037   1035
   928   3    903   1048   1051   1049
   929   4   1052   1048   1051   1049
   930   4   2428   1048   1051   1049
   931   5   1041   1049   1051   1048
   932   6   1053   1049   1051   1048
   933   7   1055   1049   1051   1048
   934   8   1041   1049   1053   1063
   935   9   1051   1049   1053   1063
   936   9   1055   1049   1053   1063
   937   5   1041   1049   1055   1050
   938   7   1051   1049   1055   1050
   939   6   1053   1049   1055   1050
   940   4   1056   1050   1055   1049
   941   4   1057   1050   1055   1049
   942   3   1189   1050   1055   1049
   943   2   1055   1050   1189    745
   944   1   1056   1050   1189    745
   945   1   1057   1050   1189    745
   946   3   1091   1087   1090   1088
   947   4   1092   1087   1090   1088
   948   4   1093   1087   1090   1088
   949   2   1090   1087   1091   1089
   950   1   1092   1087   1091   1089
   951   1   1093   1087   1091   1089
   952   6   1094   1088   1090   1087
   953   7   1096   1088   1090   1087
   954   5   1112   1088   1090   1087
   955   9   1090   1088   1094   1131
   956   9   1096   1088   1094   1131
   957   8   1112   1088   1094   1131
   958   7   1090   1088   1096    791
   959   6   1094   1088   1096    791
   960   5   1112   1088   1096    791
   961   2    952   1089   1091   1087
   962   1   1097   1089   1091   1087
   963   1   2429   1089   1091   1087
   964   3   1105   1102   1104   1194
   965   4   1106   1102   1104   1194
   966   4   1107   1102   1104   1194
   967   2   1104   1102   1105   1103
   968   1   1106   1102   1105   1103
   969   1   1107   1102   1105   1103
   970   2   1110   1103   1105   1102
   971   1   1111   1103   1105   1102
   972   1   2430   1103   1105   1102
   973   3   1105   1103   1110    959
   974   4   1111   1103   1110    959
   975   4   2430   1103   1110    959
   976   7    814   1194   1104   1102
   977   6   1195   1194   1104   1102
   978   5   1200   1194   1104   1102
   979   3    980   1115   1118   1116
   980   4   1119   1115   1118   1116
   981   4   2431   1115   1118   1116
   982   5   1108   1116   1118   1115
   983   6   1120   1116   1118   1115
   984   7   1122   1116   1118   1115
   985   8   1108   1116   1120   1130
   986   9   1118   1116   1120   1130
   987   9   1122   1116   1120   1130
   988   5   1108   1116   1122   1117
   989   7   1118   1116   1122   1117
   990   6   1120   1116   1122   1117
   991   4   1123   1117   1122   1116
   992   4   1124   1117   1122   1116
   993   3   1199   1117   1122   1116
   994   2   1122   1117   1199    822
   995   1   1123   1117   1199    822
   996   1   1124   1117   1199    822
   997   9    166   1158   1159   1166
   998   8   1165   1158   1159   1166
   999   9    558   1158   1159   1166
  1000   9    266   1171   1172   1179
  1001   8   1178   1171   1172   1179
  1002   9    645   1171   1172   1179
  1003   9    737   1184   1185   1191
  1004   8   1190   1184   1185   1191
  1005   9   1037   1184   1185   1191
  1006   9    814   1194   1195   1201
  1007   8   1200   1194   1195   1201
  1008   9   1104   1194   1195   1201
  1009   3   1212   1208   1211   1209
  1010   4   1213   1208   1211   1209
  1011   4   2494   1208   1211   1209
  1012   2   1211   1208   1212   1210
  1013   1   1213   1208   1212   1210
  1014   1   2494   1208   1212   1210
  1015   5   1204   1209   1211   1208
  1016   6   1214   1209   1211   1208
  1017   7   1216   1209   1211   1208
  1018   8   1204   1209   1214   1219
  1019   9   1211   1209   1214   1219
  1020   9   1216   1209   1214   1219
  1021   5   1204   1209   1216   1254
  1022   7   1211   1209   1216   1254
  1023   6   1214   1209   1216   1254
  1024   1   1217   1210   1212   1208
  1025   1   2384   1210   1212   1208
  1026   2   1306   1210   1212   1208
  1027   3   1212   1210   1306   1299
  1028   4   1217   1210   1306   1299
  1029   4   2384   1210   1306   1299
  1030   3   1256   1254   1216   1209
  1031   4   1261   1254   1216   1209
  1032   4   1262   1254   1216   1209
  1033   3   1234   1230   1233   1231
  1034   4   1235   1230   1233   1231
  1035   4   2495   1230   1233   1231
  1036   2   1233   1230   1234   1232
  1037   1   1235   1230   1234   1232
  1038   1   2495   1230   1234   1232
  1039   5   1226   1231   1233   1230
  1040   6   1236   1231   1233   1230
  1041   7   1238   1231   1233   1230
  1042   8   1226   1231   1236   1241
  1043   9   1233   1231   1236   1241
  1044   9   1238   1231   1236   1241
  1045   5   1226   1231   1238   1277
  1046   7   1233   1231   1238   1277
  1047   6   1236   1231   1238   1277
  1048   1   1239   1232   1234   1230
  1049   1   2385   1232   1234   1230
  1050   2   1329   1232   1234   1230
  1051   3   1234   1232   1329   1322
  1052   4   1239   1232   1329   1322
  1053   4   2385   1232   1329   1322
  1054   3   1279   1277   1238   1231
  1055   4   1284   1277   1238   1231
  1056   4   1285   1277   1238   1231
  1057   3   1256   1252   1255   1253
  1058   4   1257   1252   1255   1253
  1059   4   2496   1252   1255   1253
  1060   2   1255   1252   1256   1254
  1061   1   1257   1252   1256   1254
  1062   1   2496   1252   1256   1254
  1063   5   1248   1253   1255   1252
  1064   6   1258   1253   1255   1252
  1065   7   1260   1253   1255   1252
  1066   8   1248   1253   1258   1264
  1067   9   1255   1253   1258   1264
  1068   9   1260   1253   1258   1264
  1069   5   1248   1253   1260   1300
  1070   7   1255   1253   1260   1300
  1071   6   1258   1253   1260   1300
  1072   2   1216   1254   1256   1252
  1073   1   1261   1254   1256   1252
  1074   1   1262   1254   1256   1252
  1075   3   1302   1300   1260   1253
  1076   4   1307   1300   1260   1253
  1077   4   1308   1300   1260   1253
  1078   3   1279   1275   1278   1276
  1079   4   1280   1275   1278   1276
  1080   4   2497   1275   1278   1276
  1081   2   1278   1275   1279   1277
  1082   1   1280   1275   1279   1277
  1083   1   2497   1275   1279   1277
  1084   5   1271   1276   1278   1275
  1085   6   1281   1276   1278   1275
  1086   7   1283   1276   1278   1275
  1087   8   1271   1276   1281   1287
  1088   9   1278   1276   1281   1287
  1089   9   1283   1276   1281   1287
  1090   5   1271   1276   1283   1323
  1091   7   1278   1276   1283   1323
  1092   6   1281   1276   1283   1323
  1093   2   1238   1277   1279   1275
  1094   1   1284   1277   1279   1275
  1095   1   1285   1277   1279   1275
  1096   3   1325   1323   1283   1276
  1097   4   1330   1323   1283   1276
  1098   4   1331   1323   1283   1276
  1099   3   1302   1298   1301   1299
  1100   4   1303   1298   1301   1299
  1101   4   2498   1298   1301   1299
  1102   2   1301   1298   1302   1300
  1103   1   1303   1298   1302   1300
  1104   1   2498   1298   1302   1300
  1105   5   1294   1299   1301   1298
  1106   6   1304   1299   1301   1298
  1107   7   1306   1299   1301   1298
  1108   8   1294   1299   1304   1310
  1109   9   1301   1299   1304   1310
  1110   9   1306   1299   1304   1310
  1111   5   1294   1299   1306   1210
  1112   7   1301   1299   1306   1210
  1113   6   1304   1299   1306   1210
  1114   2   1260   1300   1302   1298
  1115   1   1307   1300   1302   1298
  1116   1   1308   1300   1302   1298
  1117   3   1325   1321   1324   1322
  1118   4   1326   1321   1324   1322
  1119   4   2499   1321   1324   1322
  1120   2   1324   1321   1325   1323
  1121   1   1326   1321   1325   1323
  1122   1   2499   1321   1325   1323
  1123   5   1317   1322   1324   1321
  1124   6   1327   1322   1324   1321
  1125   7   1329   1322   1324   1321
  1126   8   1317   1322   1327   1333
  1127   9   1324   1322   1327   1333
  1128   9   1329   1322   1327   1333
  1129   5   1317   1322   1329   1232
  1130   7   1324   1322   1329   1232
  1131   6   1327   1322   1329   1232
  1132   2   1283   1323   1325   1321
  1133   1   1330   1323   1325   1321
  1134   1   1331   1323   1325   1321
  1135   1   1347   1342   1346   1344
  1136   1   1348   1342   1346   1344
  1137   2   1535   1342   1346   1344
  1138   3   1346   1342   1535   1533
  1139   4   1347   1342   1535   1533
  1140   4   1348   1342   1535   1533
  1141   6   1350   1343   1345   1732
  1142   7   1352   1343   1345   1732
  1143   5   1381   1343   1345   1732
  1144   9   1345   1343   1350   1408
  1145   9   1352   1343   1350   1408
  1146   8   1381   1343   1350   1408
  1147   7   1345   1343   1352   1344
  1148   6   1350   1343   1352   1344
  1149   5   1381   1343   1352   1344
  1150   2   1352   1344   1346   1342
  1151   1   1353   1344   1346   1342
  1152   1   2452   1344   1346   1342
  1153   3   1346   1344   1352   1343
  1154   4   1353   1344   1352   1343
  1155   4   2452   1344   1352   1343
  1156   3   1736   1732   1345   1343
  1157   4   1737   1732   1345   1343
  1158   4   2376   1732   1345   1343
  1159   4   1365   1360   1363   1361
  1160   4   1366   1360   1363   1361
  1161   3   2377   1360   1363   1361
  1162   2   1363   1360   2377   1751
  1163   1   1365   1360   2377   1751
  1164   1   1366   1360   2377   1751
  1165   6   1368   1361   1363   1360
  1166   7   1370   1361   1363   1360
  1167   5   1396   1361   1363   1360
  1168   9   1363   1361   1368   1407
  1169   9   1370   1361   1368   1407
  1170   8   1396   1361   1368   1407
  1171   7   1363   1361   1370   1362
  1172   6   1368   1361   1370   1362
  1173   5   1396   1361   1370   1362
  1174   4   1371   1362   1370   1361
  1175   4   2453   1362   1370   1361
  1176   3   1364   1362   1370   1361
  1177   2   1370   1362   1364   1550
  1178   1   1371   1362   1364   1550
  1179   1   2453   1362   1364   1550
  1180   2   1553   1550   1364   1362
  1181   1   1555   1550   1364   1362
  1182   1   1556   1550   1364   1362
  1183   3   1379   1375   1378   1376
  1184   4   1380   1375   1378   1376
  1185   4   2454   1375   1378   1376
  1186   2   1378   1375   1379   1377
  1187   1   1380   1375   1379   1377
  1188   1   2454   1375   1379   1377
  1189   5   1349   1376   1378   1375
  1190   6   1382   1376   1378   1375
  1191   7   1384   1376   1378   1375
  1192   8   1349   1376   1382   1406
  1193   9   1378   1376   1382   1406
  1194   9   1384   1376   1382   1406
  1195   5   1349   1376   1384   1567
  1196   7   1378   1376   1384   1567
  1197   6   1382   1376   1384   1567
  1198   1   1385   1377   1379   1375
  1199   1   2386   1377   1379   1375
  1200   2   1772   1377   1379   1375
  1201   3   1379   1377   1772   1764
  1202   4   1385   1377   1772   1764
  1203   4   2386   1377   1772   1764
  1204   3   1569   1567   1384   1376
  1205   4   1575   1567   1384   1376
  1206   4   1576   1567   1384   1376
  1207   3   1394   1390   1393   1582
  1208   4   1395   1390   1393   1582
  1209   4   2455   1390   1393   1582
  1210   2   1393   1390   1394   1392
  1211   1   1395   1390   1394   1392
  1212   1   2455   1390   1394   1392
  1213   8   1367   1391   1397   2388
  1214   9   1399   1391   1397   2388
  1215   9   1782   1391   1397   2388
  1216   5   1367   1391   1399   1392
  1217   6   1397   1391   1399   1392
  1218   7   1782   1391   1399   1392
  1219   5   1367   1391   1782   1779
  1220   6   1397   1391   1782   1779
  1221   7   1399   1391   1782   1779
  1222   2   1399   1392   1394   1390
  1223   1   1400   1392   1394   1390
  1224   1   1401   1392   1394   1390
  1225   3   1394   1392   1399   1391
  1226   4   1400   1392   1399   1391
  1227   4   1401   1392   1399   1391
  1228   5   1557   1582   1393   1390
  1229   6   1588   1582   1393   1390
  1230   7   1590   1582   1393   1390
  1231   1   1442   1437   1441   1439
  1232   1   1443   1437   1441   1439
  1233   2   1635   1437   1441   1439
  1234   3   1441   1437   1635   1633
  1235   4   1442   1437   1635   1633
  1236   4   1443   1437   1635   1633
  1237   6   1445   1438   1440   1830
  1238   7   1447   1438   1440   1830
  1239   5   1476   1438   1440   1830
  1240   9   1440   1438   1445   1503
  1241   9   1447   1438   1445   1503
  1242   8   1476   1438   1445   1503
  1243   7   1440   1438   1447   1439
  1244   6   1445   1438   1447   1439
  1245   5   1476   1438   1447   1439
  1246   2   1447   1439   1441   1437
  1247   1   1448   1439   1441   1437
  1248   1   2456   1439   1441   1437
  1249   3   1441   1439   1447   1438
  1250   4   1448   1439   1447   1438
  1251   4   2456   1439   1447   1438
  1252   3   1834   1830   1440   1438
  1253   4   1835   1830   1440   1438
  1254   4   2378   1830   1440   1438
  1255   4   1460   1455   1458   1456
  1256   4   1461   1455   1458   1456
  1257   3   2379   1455   1458   1456
  1258   2   1458   1455   2379   1849
  1259   1   1460   1455   2379   1849
  1260   1   1461   1455   2379   1849
  1261   6   1463   1456   1458   1455
  1262   7   1465   1456   1458   1455
  1263   5   1491   1456   1458   1455
  1264   9   1458   1456   1463   1502
  1265   9   1465   1456   1463   1502
  1266   8   1491   1456   1463   1502
  1267   7   1458   1456   1465   1457
  1268   6   1463   1456   1465   1457
  1269   5   1491   1456   1465   1457
  1270   4   1466   1457   1465   1456
  1271   4   2457   1457   1465   1456
  1272   3   1459   1457   1465   1456
  1273   2   1465   1457   1459   1650
  1274   1   1466   1457   1459   1650
  1275   1   2457   1457   1459   1650
  1276   2   1653   1650   1459   1457
  1277   1   1655   1650   1459   1457
  1278   1   1656   1650   1459   1457
  1279   3   1474   1470   1473   1471
  1280   4   1475   1470   1473   1471
  1281   4   2458   1470   1473   1471
  1282   2   1473   1470   1474   1472
  1283   1   1475   1470   1474   1472
  1284   1   2458   1470   1474   1472
  1285   5   1444   1471   1473   1470
  1286   6   1477   1471   1473   1470
  1287   7   1479   1471   1473   1470
  1288   8   1444   1471   1477   1501
  1289   9   1473   1471   1477   1501
  1290   9   1479   1471   1477   1501
  1291   5   1444   1471   1479   1667
  1292   7   1473   1471   1479   1667
  1293   6   1477   1471   1479   1667
  1294   1   1480   1472   1474   1470
  1295   1   2391   1472   1474   1470
  1296   2   1870   1472   1474   1470
  1297   3   1474   1472   1870   1862
  1298   4   1480   1472   1870   1862
  1299   4   2391   1472   1870   1862
  1300   3   1669   1667   1479   1471
  1301   4   1675   1667   1479   1471
  1302   4   1676   1667   1479   1471
  1303   3   1489   1485   1488   1682
  1304   4   1490   1485   1488   1682
  1305   4   2459   1485   1488   1682
  1306   2   1488   1485   1489   1487
  1307   1   1490   1485   1489   1487
  1308   1   2459   1485   1489   1487
  1309   8   1462   1486   1492   2393
  1310   9   1494   1486   1492   2393
  1311   9   1880   1486   1492   2393
  1312   5   1462   1486   1494   1487
  1313   6   1492   1486   1494   1487
  1314   7   1880   1486   1494   1487
  1315   5   1462   1486   1880   1877
  1316   6   1492   1486   1880   1877
  1317   7   1494   1486   1880   1877
  1318   2   1494   1487   1489   1485
  1319   1   1495   1487   1489   1485
  1320   1   1496   1487   1489   1485
  1321   3   1489   1487   1494   1486
  1322   4   1495   1487   1494   1486
  1323   4   1496   1487   1494   1486
  1324   5   1657   1682   1488   1485
  1325   6   1688   1682   1488   1485
  1326   7   1690   1682   1488   1485
  1327   1   1537   1532   1536   1534
  1328   1   1538   1532   1536   1534
  1329   2   1735   1532   1536   1534
  1330   3   1536   1532   1735   1733
  1331   4   1537   1532   1735   1733
  1332   4   1538   1532   1735   1733
  1333   6   1540   1533   1535   1342
  1334   7   1542   1533   1535   1342
  1335   5   1571   1533   1535   1342
  1336   9   1535   1533   1540   1601
  1337   9   1542   1533   1540   1601
  1338   8   1571   1533   1540   1601
  1339   7   1535   1533   1542   1534
  1340   6   1540   1533   1542   1534
  1341   5   1571   1533   1542   1534
  1342   2   1542   1534   1536   1532
  1343   1   1543   1534   1536   1532
  1344   1   2460   1534   1536   1532
  1345   3   1536   1534   1542   1533
  1346   4   1543   1534   1542   1533
  1347   4   2460   1534   1542   1533
  1348   3   1364   1550   1553   1551
  1349   4   1555   1550   1553   1551
  1350   4   1556   1550   1553   1551
  1351   6   1558   1551   1553   1550
  1352   7   1560   1551   1553   1550
  1353   5   1587   1551   1553   1550
  1354   9   1553   1551   1558   1599
  1355   9   1560   1551   1558   1599
  1356   8   1587   1551   1558   1599
  1357   7   1553   1551   1560   1552
  1358   6   1558   1551   1560   1552
  1359   5   1587   1551   1560   1552
  1360   4   1561   1552   1560   1551
  1361   4   2461   1552   1560   1551
  1362   3   1554   1552   1560   1551
  1363   2   1560   1552   1554   1749
  1364   1   1561   1552   1554   1749
  1365   1   2461   1552   1554   1749
  1366   2   1752   1749   1554   1552
  1367   1   1753   1749   1554   1552
  1368   1   1754   1749   1554   1552
  1369   3   1569   1565   1568   1566
  1370   4   1570   1565   1568   1566
  1371   4   2462   1565   1568   1566
  1372   2   1568   1565   1569   1567
  1373   1   1570   1565   1569   1567
  1374   1   2462   1565   1569   1567
  1375   5   1539   1566   1568   1565
  1376   6   1572   1566   1568   1565
  1377   7   1574   1566   1568   1565
  1378   8   1539   1566   1572   1598
  1379   9   1568   1566   1572   1598
  1380   9   1574   1566   1572   1598
  1381   5   1539   1566   1574   1765
  1382   7   1568   1566   1574   1765
  1383   6   1572   1566   1574   1765
  1384   2   1384   1567   1569   1565
  1385   1   1575   1567   1569   1565
  1386   1   1576   1567   1569   1565
  1387   3   1767   1765   1574   1566
  1388   4   1773   1765   1574   1566
  1389   4   1774   1765   1574   1566
  1390   3   1585   1581   1584   1780
  1391   4   1586   1581   1584   1780
  1392   4   2463   1581   1584   1780
  1393   2   1584   1581   1585   1583
  1394   1   1586   1581   1585   1583
  1395   1   2463   1581   1585   1583
  1396   9   1393   1582   1588   1600
  1397   8   1557   1582   1588   1600
  1398   9   1590   1582   1588   1600
  1399   7   1393   1582   1590   1583
  1400   5   1557   1582   1590   1583
  1401   6   1588   1582   1590   1583
  1402   2   1590   1583   1585   1581
  1403   1   1591   1583   1585   1581
  1404   1   1592   1583   1585   1581
  1405   3   1585   1583   1590   1582
  1406   4   1591   1583   1590   1582
  1407   4   1592   1583   1590   1582
  1408   5   1755   1780   1584   1581
  1409   6   1786   1780   1584   1581
  1410   7   1788   1780   1584   1581
  1411   1   1637   1632   1636   1634
  1412   1   1638   1632   1636   1634
  1413   2   1833   1632   1636   1634
  1414   3   1636   1632   1833   1831
  1415   4   1637   1632   1833   1831
  1416   4   1638   1632   1833   1831
  1417   6   1640   1633   1635   1437
  1418   7   1642   1633   1635   1437
  1419   5   1671   1633   1635   1437
  1420   9   1635   1633   1640   1701
  1421   9   1642   1633   1640   1701
  1422   8   1671   1633   1640   1701
  1423   7   1635   1633   1642   1634
  1424   6   1640   1633   1642   1634
  1425   5   1671   1633   1642   1634
  1426   2   1642   1634   1636   1632
  1427   1   1643   1634   1636   1632
  1428   1   2464   1634   1636   1632
  1429   3   1636   1634   1642   1633
  1430   4   1643   1634   1642   1633
  1431   4   2464   1634   1642   1633
  1432   3   1459   1650   1653   1651
  1433   4   1655   1650   1653   1651
  1434   4   1656   1650   1653   1651
  1435   6   1658   1651   1653   1650
  1436   7   1660   1651   1653   1650
  1437   5   1687   1651   1653   1650
  1438   9   1653   1651   1658   1699
  1439   9   1660   1651   1658   1699
  1440   8   1687   1651   1658   1699
  1441   7   1653   1651   1660   1652
  1442   6   1658   1651   1660   1652
  1443   5   1687   1651   1660   1652
  1444   4   1661   1652   1660   1651
  1445   4   2465   1652   1660   1651
  1446   3   1654   1652   1660   1651
  1447   2   1660   1652   1654   1847
  1448   1   1661   1652   1654   1847
  1449   1   2465   1652   1654   1847
  1450   2   1850   1847   1654   1652
  1451   1   1851   1847   1654   1652
  1452   1   1852   1847   1654   1652
  1453   3   1669   1665   1668   1666
  1454   4   1670   1665   1668   1666
  1455   4   2466   1665   1668   1666
  1456   2   1668   1665   1669   1667
  1457   1   1670   1665   1669   1667
  1458   1   2466   1665   1669   1667
  1459   5   1639   1666   1668   1665
  1460   6   1672   1666   1668   1665
  1461   7   1674   1666   1668   1665
  1462   8   1639   1666   1672   1698
  1463   9   1668   1666   1672   1698
  1464   9   1674   1666   1672   1698
  1465   5   1639   1666   1674   1863
  1466   7   1668   1666   1674   1863
  1467   6   1672   1666   1674   1863
  1468   2   1479   1667   1669   1665
  1469   1   1675   1667   1669   1665
  1470   1   1676   1667   1669   1665
  1471   3   1865   1863   1674   1666
  1472   4   1871   1863   1674   1666
  1473   4   1872   1863   1674   1666
  1474   3   1685   1681   1684   1878
  1475   4   1686   1681   1684   1878
  1476   4   2467   1681   1684   1878
  1477   2   1684   1681   1685   1683
  1478   1   1686   1681   1685   1683
  1479   1   2467   1681   1685   1683
  1480   9   1488   1682   1688   1700
  1481   8   1657   1682   1688   1700
  1482   9   1690   1682   1688   1700
  1483   7   1488   1682   1690   1683
  1484   5   1657   1682   1690   1683
  1485   6   1688   1682   1690   1683
  1486   2   1690   1683   1685   1681
  1487   1   1691   1683   1685   1681
  1488   1   1692   1683   1685   1681
  1489   3   1685   1683   1690   1682
  1490   4   1691   1683   1690   1682
  1491   4   1692   1683   1690   1682
  1492   5   1853   1878   1684   1681
  1493   6   1884   1878   1684   1681
  1494   7   1886   1878   1684   1681
  1495   1   1737   1732   1736   1734
  1496   2   1345   1732   1736   1734
  1497   1   2376   1732   1736   1734
  1498   6   1739   1733   1735   1532
  1499   7   1741   1733   1735   1532
  1500   5   1769   1733   1735   1532
  1501   9   1735   1733   1739   1799
  1502   9   1741   1733   1739   1799
  1503   8   1769   1733   1739   1799
  1504   7   1735   1733   1741   1734
  1505   6   1739   1733   1741   1734
  1506   5   1769   1733   1741   1734
  1507   2   1741   1734   1736   1732
  1508   1   1742   1734   1736   1732
  1509   1   2468   1734   1736   1732
  1510   3   1736   1734   1741   1733
  1511   4   1742   1734   1741   1733
  1512   4   2468   1734   1741   1733
  1513   3   1554   1749   1752   1750
  1514   4   1753   1749   1752   1750
  1515   4   1754   1749   1752   1750
  1516   6   1756   1750   1752   1749
  1517   7   1758   1750   1752   1749
  1518   5   1785   1750   1752   1749
  1519   9   1752   1750   1756   1797
  1520   9   1758   1750   1756   1797
  1521   8   1785   1750   1756   1797
  1522   7   1752   1750   1758   1751
  1523   6   1756   1750   1758   1751
  1524   5   1785   1750   1758   1751
  1525   4   1759   1751   1758   1750
  1526   4   2469   1751   1758   1750
  1527   3   2377   1751   1758   1750
  1528   2   1758   1751   2377   1360
  1529   1   1759   1751   2377   1360
  1530   1   2469   1751   2377   1360
  1531   3   1767   1763   1766   1764
  1532   4   1768   1763   1766   1764
  1533   4   2470   1763   1766   1764
  1534   2   1766   1763   1767   1765
  1535   1   1768   1763   1767   1765
  1536   1   2470   1763   1767   1765
  1537   5   1738   1764   1766   1763
  1538   6   1770   1764   1766   1763
  1539   7   1772   1764   1766   1763
  1540   8   1738   1764   1770   1796
  1541   9   1766   1764   1770   1796
  1542   9   1772   1764   1770   1796
  1543   5   1738   1764   1772   1377
  1544   7   1766   1764   1772   1377
  1545   6   1770   1764   1772   1377
  1546   2   1574   1765   1767   1763
  1547   1   1773   1765   1767   1763
  1548   1   1774   1765   1767   1763
  1549   3   1783   1779   1782   1391
  1550   4   1784   1779   1782   1391
  1551   4   2471   1779   1782   1391
  1552   2   1782   1779   1783   1781
  1553   1   1784   1779   1783   1781
  1554   1   2471   1779   1783   1781
  1555   9   1584   1780   1786   1798
  1556   8   1755   1780   1786   1798
  1557   9   1788   1780   1786   1798
  1558   7   1584   1780   1788   1781
  1559   5   1755   1780   1788   1781
  1560   6   1786   1780   1788   1781
  1561   2   1788   1781   1783   1779
  1562   1   1789   1781   1783   1779
  1563   1   1790   1781   1783   1779
  1564   3   1783   1781   1788   1780
  1565   4   1789   1781   1788   1780
  1566   4   1790   1781   1788   1780
  1567   1   1835   1830   1834   1832
  1568   2   1440   1830   1834   1832
  1569   1   2378   1830   1834   1832
  1570   6   1837   1831   1833   1632
  1571   7   1839   1831   1833   1632
  1572   5   1867   1831   1833   1632
  1573   9   1833   1831   1837   1897
  1574   9   1839   1831   1837   1897
  1575   8   1867   1831   1837   1897
  1576   7   1833   1831   1839   1832
  1577   6   1837   1831   1839   1832
  1578   5   1867   1831   1839   1832
  1579   2   1839   1832   1834   1830
  1580   1   1840   1832   1834   1830
  1581   1   2472   1832   1834   1830
  1582   3   1834   1832   1839   1831
  1583   4   1840   1832   1839   1831
  1584   4   2472   1832   1839   1831
  1585   3   1654   1847   1850   1848
  1586   4   1851   1847   1850   1848
  1587   4   1852   1847   1850   1848
  1588   6   1854   1848   1850   1847
  1589   7   1856   1848   1850   1847
  1590   5   1883   1848   1850   1847
  1591   9   1850   1848   1854   1895
  1592   9   1856   1848   1854   1895
  1593   8   1883   1848   1854   1895
  1594   7   1850   1848   1856   1849
  1595   6   1854   1848   1856   1849
  1596   5   1883   1848   1856   1849
  1597   4   1857   1849   1856   1848
  1598   4   2473   1849   1856   1848
  1599   3   2379   1849   1856   1848
  1600   2   1856   1849   2379   1455
  1601   1   1857   1849   2379   1455
  1602   1   2473   1849   2379   1455
  1603   3   1865   1861   1864   1862
  1604   4   1866   1861   1864   1862
  1605   4   2474   1861   1864   1862
  1606   2   1864   1861   1865   1863
  1607   1   1866   1861   1865   1863
  1608   1   2474   1861   1865   1863
  1609   5   1836   1862   1864   1861
  1610   6   1868   1862   1864   1861
  1611   7   1870   1862   1864   1861
  1612   8   1836   1862   1868   1894
  1613   9   1864   1862   1868   1894
  1614   9   1870   1862   1868   1894
  1615   5   1836   1862   1870   1472
  1616   7   1864   1862   1870   1472
  1617   6   1868   1862   1870   1472
  1618   2   1674   1863   1865   1861
  1619   1   1871   1863   1865   1861
  1620   1   1872   1863   1865   1861
  1621   3   1881   1877   1880   1486
  1622   4   1882   1877   1880   1486
  1623   4   2475   1877   1880   1486
  1624   2   1880   1877   1881   1879
  1625   1   1882   1877   1881   1879
  1626   1   2475   1877   1881   1879
  1627   9   1684   1878   1884   1896
  1628   8   1853   1878   1884   1896
  1629   9   1886   1878   1884   1896
  1630   7   1684   1878   1886   1879
  1631   5   1853   1878   1886   1879
  1632   6   1884   1878   1886   1879
  1633   2   1886   1879   1881   1877
  1634   1   1887   1879   1881   1877
  1635   1   1888   1879   1881   1877
  1636   3   1881   1879   1886   1878
  1637   4   1887   1879   1886   1878
  1638   4   1888   1879   1886   1878
  1639   1   1933   1928   1932   1930
  1640   1   1934   1928   1932   1930
  1641   2   2077   1928   1932   1930
  1642   3   1932   1928   2077   2075
  1643   4   1933   1928   2077   2075
  1644   4   1934   1928   2077   2075
  1645   6   1935   1929   1931   2228
  1646   7   1937   1929   1931   2228
  1647   5   1957   1929   1931   2228
  1648   9   1931   1929   1935   1978
  1649   9   1937   1929   1935   1978
  1650   8   1957   1929   1935   1978
  1651   7   1931   1929   1937   1930
  1652   6   1935   1929   1937   1930
  1653   5   1957   1929   1937   1930
  1654   2   1937   1930   1932   1928
  1655   1   1938   1930   1932   1928
  1656   1   2476   1930   1932   1928
  1657   3   1932   1930   1937   1929
  1658   4   1938   1930   1937   1929
  1659   4   2476   1930   1937   1929
  1660   3   2232   2228   1931   1929
  1661   4   2233   2228   1931   1929
  1662   4   2380   2228   1931   1929
  1663   4   1948   1943   1946   1944
  1664   4   1949   1943   1946   1944
  1665   3   2381   1943   1946   1944
  1666   2   1946   1943   2381   2244
  1667   1   1948   1943   2381   2244
  1668   1   1949   1943   2381   2244
  1669   6   1951   1944   1946   1943
  1670   7   1953   1944   1946   1943
  1671   5   1967   1944   1946   1943
  1672   9   1946   1944   1951   1977
  1673   9   1953   1944   1951   1977
  1674   8   1967   1944   1951   1977
  1675   7   1946   1944   1953   1945
  1676   6   1951   1944   1953   1945
  1677   5   1967   1944   1953   1945
  1678   4   1954   1945   1953   1944
  1679   4   2477   1945   1953   1944
  1680   3   1947   1945   1953   1944
  1681   2   1953   1945   1947   2089
  1682   1   1954   1945   1947   2089
  1683   1   2477   1945   1947   2089
  1684   2   2092   2089   1947   1945
  1685   1   2094   2089   1947   1945
  1686   1   2095   2089   1947   1945
  1687   3   1965   1961   1964   2108
  1688   4   1966   1961   1964   2108
  1689   4   2478   1961   1964   2108
  1690   2   1964   1961   1965   1963
  1691   1   1966   1961   1965   1963
  1692   1   2478   1961   1965   1963
  1693   8   1950   1962   1968   2397
  1694   9   1970   1962   1968   2397
  1695   9   2262   1962   1968   2397
  1696   5   1950   1962   1970   1963
  1697   6   1968   1962   1970   1963
  1698   7   2262   1962   1970   1963
  1699   5   1950   1962   2262   2259
  1700   6   1968   1962   2262   2259
  1701   7   1970   1962   2262   2259
  1702   2   1970   1963   1965   1961
  1703   1   1971   1963   1965   1961
  1704   1   1972   1963   1965   1961
  1705   3   1965   1963   1970   1962
  1706   4   1971   1963   1970   1962
  1707   4   1972   1963   1970   1962
  1708   5   2096   2108   1964   1961
  1709   6   2114   2108   1964   1961
  1710   7   2116   2108   1964   1961
  1711   1   2006   2001   2005   2003
  1712   1   2007   2001   2005   2003
  1713   2   2154   2001   2005   2003
  1714   3   2005   2001   2154   2152
  1715   4   2006   2001   2154   2152
  1716   4   2007   2001   2154   2152
  1717   6   2008   2002   2004   2303
  1718   7   2010   2002   2004   2303
  1719   5   2030   2002   2004   2303
  1720   9   2004   2002   2008   2051
  1721   9   2010   2002   2008   2051
  1722   8   2030   2002   2008   2051
  1723   7   2004   2002   2010   2003
  1724   6   2008   2002   2010   2003
  1725   5   2030   2002   2010   2003
  1726   2   2010   2003   2005   2001
  1727   1   2011   2003   2005   2001
  1728   1   2479   2003   2005   2001
  1729   3   2005   2003   2010   2002
  1730   4   2011   2003   2010   2002
  1731   4   2479   2003   2010   2002
  1732   3   2307   2303   2004   2002
  1733   4   2308   2303   2004   2002
  1734   4   2382   2303   2004   2002
  1735   4   2021   2016   2019   2017
  1736   4   2022   2016   2019   2017
  1737   3   2383   2016   2019   2017
  1738   2   2019   2016   2383   2319
  1739   1   2021   2016   2383   2319
  1740   1   2022   2016   2383   2319
  1741   6   2024   2017   2019   2016
  1742   7   2026   2017   2019   2016
  1743   5   2040   2017   2019   2016
  1744   9   2019   2017   2024   2050
  1745   9   2026   2017   2024   2050
  1746   8   2040   2017   2024   2050
  1747   7   2019   2017   2026   2018
  1748   6   2024   2017   2026   2018
  1749   5   2040   2017   2026   2018
  1750   4   2027   2018   2026   2017
  1751   4   2480   2018   2026   2017
  1752   3   2020   2018   2026   2017
  1753   2   2026   2018   2020   2166
  1754   1   2027   2018   2020   2166
  1755   1   2480   2018   2020   2166
  1756   2   2169   2166   2020   2018
  1757   1   2171   2166   2020   2018
  1758   1   2172   2166   2020   2018
  1759   3   2038   2034   2037   2185
  1760   4   2039   2034   2037   2185
  1761   4   2481   2034   2037   2185
  1762   2   2037   2034   2038   2036
  1763   1   2039   2034   2038   2036
  1764   1   2481   2034   2038   2036
  1765   8   2023   2035   2041   2401
  1766   9   2043   2035   2041   2401
  1767   9   2337   2035   2041   2401
  1768   5   2023   2035   2043   2036
  1769   6   2041   2035   2043   2036
  1770   7   2337   2035   2043   2036
  1771   5   2023   2035   2337   2334
  1772   6   2041   2035   2337   2334
  1773   7   2043   2035   2337   2334
  1774   2   2043   2036   2038   2034
  1775   1   2044   2036   2038   2034
  1776   1   2045   2036   2038   2034
  1777   3   2038   2036   2043   2035
  1778   4   2044   2036   2043   2035
  1779   4   2045   2036   2043   2035
  1780   5   2173   2185   2037   2034
  1781   6   2191   2185   2037   2034
  1782   7   2193   2185   2037   2034
  1783   1   2079   2074   2078   2076
  1784   1   2080   2074   2078   2076
  1785   2   2231   2074   2078   2076
  1786   3   2078   2074   2231   2229
  1787   4   2079   2074   2231   2229
  1788   4   2080   2074   2231   2229
  1789   6   2081   2075   2077   1928
  1790   7   2083   2075   2077   1928
  1791   5   2103   2075   2077   1928
  1792   9   2077   2075   2081   2126
  1793   9   2083   2075   2081   2126
  1794   8   2103   2075   2081   2126
  1795   7   2077   2075   2083   2076
  1796   6   2081   2075   2083   2076
  1797   5   2103   2075   2083   2076
  1798   2   2083   2076   2078   2074
  1799   1   2084   2076   2078   2074
  1800   1   2482   2076   2078   2074
  1801   3   2078   2076   2083   2075
  1802   4   2084   2076   2083   2075
  1803   4   2482   2076   2083   2075
  1804   3   1947   2089   2092   2090
  1805   4   2094   2089   2092   2090
  1806   4   2095   2089   2092   2090
  1807   6   2097   2090   2092   2089
  1808   7   2099   2090   2092   2089
  1809   5   2113   2090   2092   2089
  1810   9   2092   2090   2097   2124
  1811   9   2099   2090   2097   2124
  1812   8   2113   2090   2097   2124
  1813   7   2092   2090   2099   2091
  1814   6   2097   2090   2099   2091
  1815   5   2113   2090   2099   2091
  1816   4   2100   2091   2099   2090
  1817   4   2483   2091   2099   2090
  1818   3   2093   2091   2099   2090
  1819   2   2099   2091   2093   2242
  1820   1   2100   2091   2093   2242
  1821   1   2483   2091   2093   2242
  1822   2   2245   2242   2093   2091
  1823   1   2246   2242   2093   2091
  1824   1   2247   2242   2093   2091
  1825   3   2111   2107   2110   2260
  1826   4   2112   2107   2110   2260
  1827   4   2484   2107   2110   2260
  1828   2   2110   2107   2111   2109
  1829   1   2112   2107   2111   2109
  1830   1   2484   2107   2111   2109
  1831   9   1964   2108   2114   2125
  1832   8   2096   2108   2114   2125
  1833   9   2116   2108   2114   2125
  1834   7   1964   2108   2116   2109
  1835   5   2096   2108   2116   2109
  1836   6   2114   2108   2116   2109
  1837   2   2116   2109   2111   2107
  1838   1   2117   2109   2111   2107
  1839   1   2118   2109   2111   2107
  1840   3   2111   2109   2116   2108
  1841   4   2117   2109   2116   2108
  1842   4   2118   2109   2116   2108
  1843   5   2248   2260   2110   2107
  1844   6   2266   2260   2110   2107
  1845   7   2268   2260   2110   2107
  1846   1   2156   2151   2155   2153
  1847   1   2157   2151   2155   2153
  1848   2   2306   2151   2155   2153
  1849   3   2155   2151   2306   2304
  1850   4   2156   2151   2306   2304
  1851   4   2157   2151   2306   2304
  1852   6   2158   2152   2154   2001
  1853   7   2160   2152   2154   2001
  1854   5   2180   2152   2154   2001
  1855   9   2154   2152   2158   2203
  1856   9   2160   2152   2158   2203
  1857   8   2180   2152   2158   2203
  1858   7   2154   2152   2160   2153
  1859   6   2158   2152   2160   2153
  1860   5   2180   2152   2160   2153
  1861   2   2160   2153   2155   2151
  1862   1   2161   2153   2155   2151
  1863   1   2485   2153   2155   2151
  1864   3   2155   2153   2160   2152
  1865   4   2161   2153   2160   2152
  1866   4   2485   2153   2160   2152
  1867   3   2020   2166   2169   2167
  1868   4   2171   2166   2169   2167
  1869   4   2172   2166   2169   2167
  1870   6   2174   2167   2169   2166
  1871   7   2176   2167   2169   2166
  1872   5   2190   2167   2169   2166
  1873   9   2169   2167   2174   2201
  1874   9   2176   2167   2174   2201
  1875   8   2190   2167   2174   2201
  1876   7   2169   2167   2176   2168
  1877   6   2174   2167   2176   2168
  1878   5   2190   2167   2176   2168
  1879   4   2177   2168   2176   2167
  1880   4   2486   2168   2176   2167
  1881   3   2170   2168   2176   2167
  1882   2   2176   2168   2170   2317
  1883   1   2177   2168   2170   2317
  1884   1   2486   2168   2170   2317
  1885   2   2320   2317   2170   2168
  1886   1   2321   2317   2170   2168
  1887   1   2322   2317   2170   2168
  1888   3   2188   2184   2187   2335
  1889   4   2189   2184   2187   2335
  1890   4   2487   2184   2187   2335
  1891   2   2187   2184   2188   2186
  1892   1   2189   2184   2188   2186
  1893   1   2487   2184   2188   2186
  1894   9   2037   2185   2191   2202
  1895   8   2173   2185   2191   2202
  1896   9   2193   2185   2191   2202
  1897   7   2037   2185   2193   2186
  1898   5   2173   2185   2193   2186
  1899   6   2191   2185   2193   2186
  1900   2   2193   2186   2188   2184
  1901   1   2194   2186   2188   2184
  1902   1   2195   2186   2188   2184
  1903   3   2188   2186   2193   2185
  1904   4   2194   2186   2193   2185
  1905   4   2195   2186   2193   2185
  1906   5   2323   2335   2187   2184
  1907   6   2341   2335   2187   2184
  1908   7   2343   2335   2187   2184
  1909   1   2233   2228   2232   2230
  1910   2   1931   2228   2232   2230
  1911   1   2380   2228   2232   2230
  1912   6   2234   2229   2231   2074
  1913   7   2236   2229   2231   2074
  1914   5   2255   2229   2231   2074
  1915   9   2231   2229   2234   2278
  1916   9   2236   2229   2234   2278
  1917   8   2255   2229   2234   2278
  1918   7   2231   2229   2236   2230
  1919   6   2234   2229   2236   2230
  1920   5   2255   2229   2236   2230
  1921   2   2236   2230   2232   2228
  1922   1   2237   2230   2232   2228
  1923   1   2488   2230   2232   2228
  1924   3   2232   2230   2236   2229
  1925   4   2237   2230   2236   2229
  1926   4   2488   2230   2236   2229
  1927   3   2093   2242   2245   2243
  1928   4   2246   2242   2245   2243
  1929   4   2247   2242   2245   2243
  1930   6   2249   2243   2245   2242
  1931   7   2251   2243   2245   2242
  1932   5   2265   2243   2245   2242
  1933   9   2245   2243   2249   2276
  1934   9   2251   2243   2249   2276
  1935   8   2265   2243   2249   2276
  1936   7   2245   2243   2251   2244
  1937   6   2249   2243   2251   2244
  1938   5   2265   2243   2251   2244
  1939   4   2252   2244   2251   2243
  1940   4   2489   2244   2251   2243
  1941   3   2381   2244   2251   2243
  1942   2   2251   2244   2381   1943
  1943   1   2252   2244   2381   1943
  1944   1   2489   2244   2381   1943
  1945   3   2263   2259   2262   1962
  1946   4   2264   2259   2262   1962
  1947   4   2490   2259   2262   1962
  1948   2   2262   2259   2263   2261
  1949   1   2264   2259   2263   2261
  1950   1   2490   2259   2263   2261
  1951   9   2110   2260   2266   2277
  1952   8   2248   2260   2266   2277
  1953   9   2268   2260   2266   2277
  1954   7   2110   2260   2268   2261
  1955   5   2248   2260   2268   2261
  1956   6   2266   2260   2268   2261
  1957   2   2268   2261   2263   2259
  1958   1   2269   2261   2263   2259
  1959   1   2270   2261   2263   2259
  1960   3   2263   2261   2268   2260
  1961   4   2269   2261   2268   2260
  1962   4   2270   2261   2268   2260
  1963   1   2308   2303   2307   2305
  1964   2   2004   2303   2307   2305
  1965   1   2382   2303   2307   2305
  1966   6   2309   2304   2306   2151
  1967   7   2311   2304   2306   2151
  1968   5   2330   2304   2306   2151
  1969   9   2306   2304   2309   2353
  1970   9   2311   2304   2309   2353
  1971   8   2330   2304   2309   2353
  1972   7   2306   2304   2311   2305
  1973   6   2309   2304   2311   2305
  1974   5   2330   2304   2311   2305
  1975   2   2311   2305   2307   2303
  1976   1   2312   2305   2307   2303
  1977   1   2491   2305   2307   2303
  1978   3   2307   2305   2311   2304
  1979   4   2312   2305   2311   2304
  1980   4   2491   2305   2311   2304
  1981   3   2170   2317   2320   2318
  1982   4   2321   2317   2320   2318
  1983   4   2322   2317   2320   2318
  1984   6   2324   2318   2320   2317
  1985   7   2326   2318   2320   2317
  1986   5   2340   2318   2320   2317
  1987   9   2320   2318   2324   2351
  1988   9   2326   2318   2324   2351
  1989   8   2340   2318   2324   2351
  1990   7   2320   2318   2326   2319
  1991   6   2324   2318   2326   2319
  1992   5   2340   2318   2326   2319
  1993   4   2327   2319   2326   2318
  1994   4   2492   2319   2326   2318
  1995   3   2383   2319   2326   2318
  1996   2   2326   2319   2383   2016
  1997   1   2327   2319   2383   2016
  1998   1   2492   2319   2383   2016
  1999   3   2338   2334   2337   2035
  2000   4   2339   2334   2337   2035
  2001   4   2493   2334   2337   2035
  2002   2   2337   2334   2338   2336
  2003   1   2339   2334   2338   2336
  2004   1   2493   2334   2338   2336
  2005   9   2187   2335   2341   2352
  2006   8   2323   2335   2341   2352
  2007   9   2343   2335   2341   2352
  2008   7   2187   2335   2343   2336
  2009   5   2323   2335   2343   2336
  2010   6   2341   2335   2343   2336
  2011   2   2343   2336   2338   2334
  2012   1   2344   2336   2338   2334
  2013   1   2345   2336   2338   2334
  2014   3   2338   2336   2343   2335
  2015   4   2344   2336   2343   2335
  2016   4   2345   2336   2343   2335

