LAMMPS data file. msi2lmp v3.9.11 / 6 Sep 2024 / CGCMM for <generated-by-msi2lmp>/Tob9_car_mdf/tob9_122

    248 atoms
    208 bonds
    352 angles
    336 dihedrals
    192 impropers

   9 atom types
   6 bond types
  10 angle types
   9 dihedral types
   5 improper types

    -0.559738672    10.596261328 xlo xhi
    -1.897118729    12.708880381 ylo yhi
     0.000000000    18.751663734 zlo zhi
     0.005098456    -0.944599199    -3.676447142 xy xz yz

Masses

   1  40.080000 # ca+t
   2  40.080000 # casl
   3  28.086000 # sc29
   4  28.086000 # sc39
   5  15.999400 # o129
   6  15.999400 # oc13
   7  15.999400 # oc14
   8  15.999400 # oc22
   9   1.008000 # hoy

Pair Coeffs # lj/class2/coul/long

   1   0.2400000000   3.6500000000 # ca+t
   2   0.2400000000   3.4500000000 # casl
   3   0.2200000000   4.5000000000 # sc29
   4   0.2200000000   4.5000000000 # sc39
   5   0.0600000000   3.4500000000 # o129
   6   0.0600000000   3.5500000000 # oc13
   7   0.1200000000   3.6000000000 # oc14
   8   0.1600000000   3.8500000000 # oc22
   9   0.0130000000   1.0980000000 # hoy

Bond Coeffs # class2

   1     1.7000   350.0000     0.0000     0.0000 # sc29-o129
   2     1.6200   350.0000     0.0000     0.0000 # sc29-oc13
   3     1.7000   350.0000     0.0000     0.0000 # sc39-o129
   4     1.6800   350.0000     0.0000     0.0000 # sc39-oc14
   5     1.5900   350.0000     0.0000     0.0000 # sc39-oc22
   6     0.9450   495.0000     0.0000     0.0000 # oc14-hoy

Angle Coeffs # class2

   1   111.5000   100.0000     0.0000     0.0000 # o129-sc29-oc13
   2   100.2000   100.0000     0.0000     0.0000 # o129-sc29-o129
   3   112.5000   100.0000     0.0000     0.0000 # oc13-sc29-oc13
   4   111.0000   100.0000     0.0000     0.0000 # o129-sc39-oc14
   5   107.0000   100.0000     0.0000     0.0000 # o129-sc39-o129
   6   107.0000   100.0000     0.0000     0.0000 # o129-sc39-oc22
   7   111.0000   100.0000     0.0000     0.0000 # oc14-sc39-oc22
   8   139.0000   100.0000     0.0000     0.0000 # sc29-o129-sc39
   9   144.0000   100.0000     0.0000     0.0000 # sc29-o129-sc29
  10   115.0000    50.0000     0.0000     0.0000 # sc39-oc14-hoy

Dihedral Coeffs # class2

   1     0.0000     0.0000     0.0000     0.0000     0.0000     0.0000 # oc13-sc29-o129-sc39
   2     0.0000     0.0000     0.0000     0.0000     0.0000     0.0000 # o129-sc29-o129-sc39
   3     0.0000     0.0000     0.0000     0.0000     0.0000     0.0000 # o129-sc29-o129-sc29
   4     0.0000     0.0000     0.0000     0.0000     0.0000     0.0000 # oc13-sc29-o129-sc29
   5     0.0000     0.0000     0.0000     0.0000     0.0000     0.0000 # oc14-sc39-o129-sc29
   6     0.0000     0.0000     0.0000     0.0000     0.0000     0.0000 # o129-sc39-o129-sc29
   7     0.0000     0.0000     0.0000     0.0000     0.0000     0.0000 # oc22-sc39-o129-sc29
   8     0.0000     0.0000     0.0000     0.0000     0.0000     0.0000 # o129-sc39-oc14-hoy
   9     0.0000     0.0000     0.0000     0.0000     0.0000     0.0000 # oc22-sc39-oc14-hoy

Improper Coeffs # class2

  1     0.0000     0.0000 
  2     0.0000     0.0000 
  3     0.0000     0.0000 
  4     0.0000     0.0000 
  5     0.0000     0.0000 

BondBond Coeffs

  1     0.0000     1.7000     1.6200 
  2     0.0000     1.7000     1.7000 
  3     0.0000     1.6200     1.6200 
  4     0.0000     1.7000     1.6800 
  5     0.0000     1.7000     1.7000 
  6     0.0000     1.7000     1.5900 
  7     0.0000     1.6800     1.5900 
  8     0.0000     1.7000     1.7000 
  9     0.0000     1.7000     1.7000 
 10     0.0000     1.6800     0.9450 

BondAngle Coeffs

  1     0.0000     0.0000     1.7000     1.6200 
  2     0.0000     0.0000     1.7000     1.7000 
  3     0.0000     0.0000     1.6200     1.6200 
  4     0.0000     0.0000     1.7000     1.6800 
  5     0.0000     0.0000     1.7000     1.7000 
  6     0.0000     0.0000     1.7000     1.5900 
  7     0.0000     0.0000     1.6800     1.5900 
  8     0.0000     0.0000     1.7000     1.7000 
  9     0.0000     0.0000     1.7000     1.7000 
 10     0.0000     0.0000     1.6800     0.9450 

AngleAngle Coeffs

  1     0.0000     0.0000     0.0000   111.5000   112.5000   111.5000 
  2     0.0000     0.0000     0.0000   100.2000   111.5000   111.5000 
  3     0.0000     0.0000     0.0000   107.0000   111.0000   111.0000 
  4     0.0000     0.0000     0.0000   111.0000   111.0000   107.0000 
  5     0.0000     0.0000     0.0000   107.0000   107.0000   107.0000 

AngleAngleTorsion Coeffs

  1     0.0000   111.5000   139.0000 
  2     0.0000   100.2000   139.0000 
  3     0.0000   100.2000   144.0000 
  4     0.0000   111.5000   144.0000 
  5     0.0000   111.0000   139.0000 
  6     0.0000   107.0000   139.0000 
  7     0.0000   107.0000   139.0000 
  8     0.0000   111.0000   115.0000 
  9     0.0000   111.0000   115.0000 

EndBondTorsion Coeffs

1     0.0000     0.0000     0.0000     0.0000     0.0000     0.0000     1.6200     1.7000 
2     0.0000     0.0000     0.0000     0.0000     0.0000     0.0000     1.7000     1.7000 
3     0.0000     0.0000     0.0000     0.0000     0.0000     0.0000     1.7000     1.7000 
4     0.0000     0.0000     0.0000     0.0000     0.0000     0.0000     1.6200     1.7000 
5     0.0000     0.0000     0.0000     0.0000     0.0000     0.0000     1.6800     1.7000 
6     0.0000     0.0000     0.0000     0.0000     0.0000     0.0000     1.7000     1.7000 
7     0.0000     0.0000     0.0000     0.0000     0.0000     0.0000     1.5900     1.7000 
8     0.0000     0.0000     0.0000     0.0000     0.0000     0.0000     1.7000     0.9450 
9     0.0000     0.0000     0.0000     0.0000     0.0000     0.0000     1.5900     0.9450 

MiddleBondTorsion Coeffs

  1     0.0000     0.0000     0.0000     1.7000 
  2     0.0000     0.0000     0.0000     1.7000 
  3     0.0000     0.0000     0.0000     1.7000 
  4     0.0000     0.0000     0.0000     1.7000 
  5     0.0000     0.0000     0.0000     1.7000 
  6     0.0000     0.0000     0.0000     1.7000 
  7     0.0000     0.0000     0.0000     1.7000 
  8     0.0000     0.0000     0.0000     1.6800 
  9     0.0000     0.0000     0.0000     1.6800 

BondBond13 Coeffs

  1     0.0000     1.6200     1.7000 
  2     0.0000     1.7000     1.7000 
  3     0.0000     1.7000     1.7000 
  4     0.0000     1.6200     1.7000 
  5     0.0000     1.6800     1.7000 
  6     0.0000     1.7000     1.7000 
  7     0.0000     1.5900     1.7000 
  8     0.0000     1.7000     0.9450 
  9     0.0000     1.5900     0.9450 

AngleTorsion Coeffs

  1     0.0000     0.0000     0.0000     0.0000     0.0000     0.0000   111.5000   139.0000 
  2     0.0000     0.0000     0.0000     0.0000     0.0000     0.0000   100.2000   139.0000 
  3     0.0000     0.0000     0.0000     0.0000     0.0000     0.0000   100.2000   144.0000 
  4     0.0000     0.0000     0.0000     0.0000     0.0000     0.0000   111.5000   144.0000 
  5     0.0000     0.0000     0.0000     0.0000     0.0000     0.0000   111.0000   139.0000 
  6     0.0000     0.0000     0.0000     0.0000     0.0000     0.0000   107.0000   139.0000 
  7     0.0000     0.0000     0.0000     0.0000     0.0000     0.0000   107.0000   139.0000 
  8     0.0000     0.0000     0.0000     0.0000     0.0000     0.0000   111.0000   115.0000 
  9     0.0000     0.0000     0.0000     0.0000     0.0000     0.0000   111.0000   115.0000 

Atoms # full

      1      1   1  1.500000     3.719292438    -0.930624063     8.400745353   0   0   0 # ca+t
      2      1   2  1.700000     5.330922246     2.436591563     4.706667597   0   0   0 # casl
      3      1   1  1.500000     3.653309673     2.734737233     8.274171622   0   0   0 # ca+t
      4      1   3  1.000000     4.200138793     1.165328158     2.094560839   0   0   0 # sc29
      5      1   4  1.000000     3.346103912     6.363711167     4.071923780   0   0   0 # sc39
      6      1   3  1.000000     4.230879682     4.286158533     2.037368265   0   0   0 # sc29
      7      1   5 -0.620000     4.173165435     0.402439647     3.534688614   0   0   0 # o129
      8      1   5 -0.620000     4.177633288     5.094691703     3.478433623   0   0   0 # o129
      9      1   6 -0.930000     5.511385887     4.619463653     1.134475656   0   0   0 # oc13
     10      1   6 -0.930000     5.536466737     0.860057527     1.275113134   0   0   0 # oc13
     11      1   6 -0.930000     2.935731096     4.522736330     1.106348160   0   0   0 # oc13
     12      1   6 -0.930000     2.916251677     0.945905193     1.246985638   0   0   0 # oc13
     13      1   5 -0.620000     4.366165220     2.711434875     2.597105427   0   0   0 # o129
     14      1   7 -0.690000     1.818008212     6.305001722     3.600319437   0   0   0 # oc14
     15      1   8 -1.000000     1.512759179     2.846956590     3.656574428   0   0   0 # oc22
     16      1   9  0.420000     1.183240899    -0.442641857     4.324184102   0   0   0 # hoy
     17      1   1  1.500000     9.298567052     2.720875714     8.400745353   0   0   0 # ca+t
     18      1   1  1.500000     9.230035059    -0.916762544     8.274171622   0   0   0 # ca+t
     19      1   3  1.000000     9.779413407     4.816827936     2.094560839   0   0   0 # sc29
     20      1   4  1.000000     8.922829298     2.712211389     4.071923780   0   0   0 # sc39
     21      1   3  1.000000     9.807605068     0.634658755     2.037368265   0   0   0 # sc29
     22      1   5 -0.620000     9.752440049     4.053939425     3.534688614   0   0   0 # o129
     23      1   5 -0.620000     9.754358674     1.443191926     3.478433623   0   0   0 # o129
     24      1   6 -0.930000    -0.067888727     0.967963875     1.134475656   1   0   0 # oc13
     25      1   6 -0.930000    -0.040258649     4.511557304     1.275113134   1   0   0 # oc13
     26      1   6 -0.930000     8.512456482     0.871236552     1.106348160   0   0   0 # oc13
     27      1   6 -0.930000     8.495526291     4.597404970     1.246985638   0   0   0 # oc13
     28      1   5 -0.620000     9.945439834     6.362934652     2.597105427   0   0   0 # o129
     29      1   7 -0.690000     7.394733599     2.653501944     3.600319437   0   0   0 # oc14
     30      1   8 -1.000000     7.092033793     6.498456368     3.656574428   0   0   0 # oc22
     31      1   9  0.420000     6.762515513     3.208857920     4.324184102   0   0   0 # hoy
     32      1   1  1.500000     6.966957190     6.395400047     0.975086514   0   0   0 # ca+t
     33      1   1  1.500000     7.032939956     2.730038751     1.101660244   0   0   0 # ca+t
     34      1   3  1.000000     6.486110835     4.299447826     7.281271028   0   0   0 # sc29
     35      1   4  1.000000     7.340145717    -0.898935183     5.303908087   0   0   0 # sc39
     36      1   3  1.000000     6.455369947     1.178617452     7.338463602   0   0   0 # sc29
     37      1   5 -0.620000     6.513084193     5.062336337     5.841143253   0   0   0 # o129
     38      1   5 -0.620000     6.508616340     0.370084281     5.897398244   0   0   0 # o129
     39      1   6 -0.930000     5.174863742     0.845312331     8.241356211   0   0   0 # oc13
     40      1   6 -0.930000     5.149782891     4.604718457     8.100718733   0   0   0 # oc13
     41      1   6 -0.930000     7.750518532     0.942039654     8.269483706   0   0   0 # oc13
     42      1   6 -0.930000     7.769997951     4.518870792     8.128846228   0   0   0 # oc13
     43      1   5 -0.620000     6.320084408     2.753341110     6.778726440   0   0   0 # o129
     44      1   7 -0.690000     8.868241416    -0.840225737     5.775512430   0   0   0 # oc14
     45      1   8 -1.000000     9.173490449     2.617819394     5.719257439   0   0   0 # oc22
     46      1   9  0.420000     9.503008729     5.907417841     5.051647765   0   0   0 # hoy
     47      1   1  1.500000     1.387682576     2.743900270     0.975086514   0   0   0 # ca+t
     48      1   2  1.700000    -0.223947232    -0.623315356     4.669164270   0   0   0 # casl
     49      1   1  1.500000     1.456214569     6.381538528     1.101660244   0   0   0 # ca+t
     50      1   3  1.000000     0.906836221     0.647948048     7.281271028   0   0   0 # sc29
     51      1   4  1.000000     1.763420330     2.752564595     5.303908087   0   0   0 # sc39
     52      1   3  1.000000     0.878644560     4.830117229     7.338463602   0   0   0 # sc29
     53      1   5 -0.620000     0.933809579     1.410836560     5.841143253   0   0   0 # o129
     54      1   5 -0.620000     0.931890954     4.021584058     5.897398244   0   0   0 # o129
     55      1   6 -0.930000    -0.401861644     4.496812109     8.241356211   0   0   0 # oc13
     56      1   6 -0.930000    -0.429491723     0.953218680     8.100718733   0   0   0 # oc13
     57      1   6 -0.930000     2.173793146     4.593539432     8.269483706   0   0   0 # oc13
     58      1   6 -0.930000     2.190723337     0.867371014     8.128846228   0   0   0 # oc13
     59      1   5 -0.620000     0.740809794    -0.898158668     6.778726440   0   0   0 # o129
     60      1   7 -0.690000     3.291516030     2.811274040     5.775512430   0   0   0 # oc14
     61      1   8 -1.000000     3.594215835    -1.033680384     5.719257439   0   0   0 # oc22
     62      1   9  0.420000     3.923734115     2.255918064     5.051647765   0   0   0 # hoy
     63      2   1  1.500000     3.721841666     6.372375492     8.400745353   0   0   0 # ca+t
     64      2   2  1.700000     5.333471474     9.739591118     4.706667597   0   0   0 # casl
     65      2   1  1.500000     3.655858901    10.037736788     8.274171622   0   0   0 # ca+t
     66      2   3  1.000000     4.202688021     8.468327713     2.094560839   0   0   0 # sc29
     67      2   4  1.000000     3.343554684    -0.939288388     4.071923780   0   1   0 # sc39
     68      2   3  1.000000     4.233428910    11.589158088     2.037368265   0   0   0 # sc29
     69      2   5 -0.620000     4.175714663     7.705439202     3.534688614   0   0   0 # o129
     70      2   5 -0.620000     4.175084060    -2.208307852     3.478433623   0   1   0 # o129
     71      2   6 -0.930000     5.513935115    11.922463208     1.134475656   0   0   0 # oc13
     72      2   6 -0.930000     5.539015965     8.163057082     1.275113134   0   0   0 # oc13
     73      2   6 -0.930000     2.938280324    11.825735885     1.106348160   0   0   0 # oc13
     74      2   6 -0.930000     2.918800905     8.248904748     1.246985638   0   0   0 # oc13
     75      2   5 -0.620000     4.368714448    10.014434430     2.597105427   0   0   0 # o129
     76      2   7 -0.690000     1.815458984    -0.997997833     3.600319437   0   1   0 # oc14
     77      2   8 -1.000000     1.515308407    10.149956145     3.656574428   0   0   0 # oc22
     78      2   9  0.420000     1.185790127     6.860357698     4.324184102   0   0   0 # hoy
     79      2   1  1.500000     9.301116280    10.023875269     8.400745353   0   0   0 # ca+t
     80      2   1  1.500000     9.232584287     6.386237011     8.274171622   0   0   0 # ca+t
     81      2   3  1.000000     9.781962635    12.119827491     2.094560839   0   0   0 # sc29
     82      2   4  1.000000     8.925378526    10.015210944     4.071923780   0   0   0 # sc39
     83      2   3  1.000000     9.810154296     7.937658310     2.037368265   0   0   0 # sc29
     84      2   5 -0.620000     9.754989277    11.356938980     3.534688614   0   0   0 # o129
     85      2   5 -0.620000     9.756907902     8.746191481     3.478433623   0   0   0 # o129
     86      2   6 -0.930000    -0.065339499     8.270963430     1.134475656   1   0   0 # oc13
     87      2   6 -0.930000    -0.037709421    11.814556859     1.275113134   1   0   0 # oc13
     88      2   6 -0.930000     8.515005710     8.174236107     1.106348160   0   0   0 # oc13
     89      2   6 -0.930000     8.498075519    11.900404525     1.246985638   0   0   0 # oc13
     90      2   5 -0.620000     9.942890606    -0.940064903     2.597105427   0   1   0 # o129
     91      2   7 -0.690000     7.397282827     9.956501499     3.600319437   0   0   0 # oc14
     92      2   8 -1.000000     7.089484565    -0.804543187     3.656574428   0   1   0 # oc22
     93      2   9  0.420000     6.765064741    10.511857475     4.324184102   0   0   0 # hoy
     94      2   1  1.500000     6.964407962    -0.907599508     0.975086514   0   1   0 # ca+t
     95      2   1  1.500000     7.035489184    10.033038306     1.101660244   0   0   0 # ca+t
     96      2   3  1.000000     6.483561607    -3.003551729     7.281271028   0   1   0 # sc29
     97      2   4  1.000000     7.342694945     6.404064372     5.303908087   0   0   0 # sc39
     98      2   3  1.000000     6.457919175     8.481617007     7.338463602   0   0   0 # sc29
     99      2   5 -0.620000     6.510534965    -2.240663218     5.841143253   0   1   0 # o129
    100      2   5 -0.620000     6.511165568     7.673083836     5.897398244   0   0   0 # o129
    101      2   6 -0.930000     5.177412970     8.148311886     8.241356211   0   0   0 # oc13
    102      2   6 -0.930000     5.147233663    -2.698281098     8.100718733   0   1   0 # oc13
    103      2   6 -0.930000     7.753067760     8.245039209     8.269483706   0   0   0 # oc13
    104      2   6 -0.930000     7.767448723    -2.784128763     8.128846228   0   1   0 # oc13
    105      2   5 -0.620000     6.322633636    10.056340665     6.778726440   0   0   0 # o129
    106      2   7 -0.690000     8.870790644     6.462773818     5.775512430   0   0   0 # oc14
    107      2   8 -1.000000     9.176039677     9.920818949     5.719257439   0   0   0 # oc22
    108      2   9  0.420000     9.500459501    -1.395581714     5.051647765   0   1   0 # hoy
    109      2   1  1.500000     1.390231804    10.046899825     0.975086514   0   0   0 # ca+t
    110      2   2  1.700000    -0.221398004     6.679684199     4.669164270   0   0   0 # casl
    111      2   1  1.500000     1.453665341    -0.921461027     1.101660244   0   1   0 # ca+t
    112      2   3  1.000000     0.909385449     7.950947603     7.281271028   0   0   0 # sc29
    113      2   4  1.000000     1.765969558    10.055564150     5.303908087   0   0   0 # sc39
    114      2   3  1.000000     0.876095332    -2.472882326     7.338463602   0   1   0 # sc29
    115      2   5 -0.620000     0.936358807     8.713836115     5.841143253   0   0   0 # o129
    116      2   5 -0.620000     0.934440182    11.324583613     5.897398244   0   0   0 # o129
    117      2   6 -0.930000    -0.404410872    -2.806187446     8.241356211   0   1   0 # oc13
    118      2   6 -0.930000    -0.426942495     8.256218235     8.100718733   0   0   0 # oc13
    119      2   6 -0.930000     2.171243918    -2.709460123     8.269483706   0   1   0 # oc13
    120      2   6 -0.930000     2.193272565     8.170370569     8.128846228   0   0   0 # oc13
    121      2   5 -0.620000     0.743359022     6.404840887     6.778726440   0   0   0 # o129
    122      2   7 -0.690000     3.294065258    10.114273595     5.775512430   0   0   0 # oc14
    123      2   8 -1.000000     3.596765063     6.269319171     5.719257439   0   0   0 # oc22
    124      2   9  0.420000     3.926283343     9.558917619     5.051647765   0   0   0 # hoy
    125      3   1  1.500000     3.246992838    -2.768847634    17.776577220   0   0   0 # ca+t
    126      3   2  1.700000     4.858622646     0.598367992    14.082499464   0   0   0 # casl
    127      3   1  1.500000     3.181010073     0.896513662    17.650003489   0   0   0 # ca+t
    128      3   3  1.000000     3.727839193    -0.672895413    11.470392706   0   0   0 # sc29
    129      3   4  1.000000     2.873804312     4.525487596    13.447755647   0   0   0 # sc39
    130      3   3  1.000000     3.758580082     2.447934962    11.413200132   0   0   0 # sc29
    131      3   5 -0.620000     3.700865835    -1.435783924    12.910520481   0   0   0 # o129
    132      3   5 -0.620000     3.705333688     3.256468132    12.854265490   0   0   0 # o129
    133      3   6 -0.930000     5.039086287     2.781240082    10.510307523   0   0   0 # oc13
    134      3   6 -0.930000     5.064167137    -0.978166044    10.650945001   0   0   0 # oc13
    135      3   6 -0.930000     2.463431496     2.684512759    10.482180027   0   0   0 # oc13
    136      3   6 -0.930000     2.443952077    -0.892318378    10.622817505   0   0   0 # oc13
    137      3   5 -0.620000     3.893865620     0.873211304    11.972937294   0   0   0 # o129
    138      3   7 -0.690000     1.345708612     4.466778151    12.976151304   0   0   0 # oc14
    139      3   8 -1.000000     1.040459579     1.008733019    13.032406295   0   0   0 # oc22
    140      3   9  0.420000     0.710941299    -2.280865428    13.700015969   0   0   0 # hoy
    141      3   1  1.500000     8.826267452     0.882652143    17.776577220   0   0   0 # ca+t
    142      3   1  1.500000     8.757735459    -2.754986115    17.650003489   0   0   0 # ca+t
    143      3   3  1.000000     9.307113807     2.978604365    11.470392706   0   0   0 # sc29
    144      3   4  1.000000     8.450529698     0.873987818    13.447755647   0   0   0 # sc39
    145      3   3  1.000000     9.335305468    -1.203564816    11.413200132   0   0   0 # sc29
    146      3   5 -0.620000     9.280140449     2.215715854    12.910520481   0   0   0 # o129
    147      3   5 -0.620000     9.282059074    -0.395031645    12.854265490   0   0   0 # o129
    148      3   6 -0.930000    -0.540188327    -0.870259696    10.510307523   1   0   0 # oc13
    149      3   6 -0.930000    -0.512558249     2.673333733    10.650945001   1   0   0 # oc13
    150      3   6 -0.930000     8.040156882    -0.966987019    10.482180027   0   0   0 # oc13
    151      3   6 -0.930000     8.023226691     2.759181399    10.622817505   0   0   0 # oc13
    152      3   5 -0.620000     9.473140234     4.524711081    11.972937294   0   0   0 # o129
    153      3   7 -0.690000     6.922433999     0.815278373    12.976151304   0   0   0 # oc14
    154      3   8 -1.000000     6.619734193     4.660232797    13.032406295   0   0   0 # oc22
    155      3   9  0.420000     6.290215913     1.370634349    13.700015969   0   0   0 # hoy
    156      3   1  1.500000     6.494657590     4.557176476    10.350918381   0   0   0 # ca+t
    157      3   1  1.500000     6.560640356     0.891815180    10.477492111   0   0   0 # ca+t
    158      3   3  1.000000     6.013811235     2.461224255    16.657102895   0   0   0 # sc29
    159      3   4  1.000000     6.867846117    -2.737158754    14.679739954   0   0   0 # sc39
    160      3   3  1.000000     5.983070347    -0.659606119    16.714295469   0   0   0 # sc29
    161      3   5 -0.620000     6.040784593     3.224112766    15.216975120   0   0   0 # o129
    162      3   5 -0.620000     6.036316740    -1.468139290    15.273230111   0   0   0 # o129
    163      3   6 -0.930000     4.702564142    -0.992911240    17.617188078   0   0   0 # oc13
    164      3   6 -0.930000     4.677483291     2.766494886    17.476550600   0   0   0 # oc13
    165      3   6 -0.930000     7.278218932    -0.896183917    17.645315573   0   0   0 # oc13
    166      3   6 -0.930000     7.297698351     2.680647221    17.504678095   0   0   0 # oc13
    167      3   5 -0.620000     5.847784808     0.915117539    16.154558307   0   0   0 # o129
    168      3   7 -0.690000     8.395941816    -2.678449308    15.151344297   0   0   0 # oc14
    169      3   8 -1.000000     8.701190849     0.779595823    15.095089306   0   0   0 # oc22
    170      3   9  0.420000     9.030709129     4.069194270    14.427479632   0   0   0 # hoy
    171      3   1  1.500000     0.915382976     0.905676699    10.350918381   0   0   0 # ca+t
    172      3   2  1.700000    -0.696246832    -2.461538927    14.044996137   0   0   0 # casl
    173      3   1  1.500000     0.983914969     4.543314957    10.477492111   0   0   0 # ca+t
    174      3   3  1.000000     0.434536621    -1.190275523    16.657102895   0   0   0 # sc29
    175      3   4  1.000000     1.291120730     0.914341024    14.679739954   0   0   0 # sc39
    176      3   3  1.000000     0.406344960     2.991893658    16.714295469   0   0   0 # sc29
    177      3   5 -0.620000     0.461509979    -0.427387011    15.216975120   0   0   0 # o129
    178      3   5 -0.620000     0.459591354     2.183360487    15.273230111   0   0   0 # o129
    179      3   6 -0.930000    -0.874161244     2.658588538    17.617188078   0   0   0 # oc13
    180      3   6 -0.930000    -0.901791323    -0.885004891    17.476550600   0   0   0 # oc13
    181      3   6 -0.930000     1.701493546     2.755315861    17.645315573   0   0   0 # oc13
    182      3   6 -0.930000     1.718423737    -0.970852557    17.504678095   0   0   0 # oc13
    183      3   5 -0.620000     0.268510194    -2.736382239    16.154558307   0   0   0 # o129
    184      3   7 -0.690000     2.819216430     0.973050469    15.151344297   0   0   0 # oc14
    185      3   8 -1.000000     3.121916235    -2.871903955    15.095089306   0   0   0 # oc22
    186      3   9  0.420000     3.451434515     0.417694493    14.427479632   0   0   0 # hoy
    187      4   1  1.500000     3.249542066     4.534151921    17.776577220   0   0   0 # ca+t
    188      4   2  1.700000     4.861171874     7.901367547    14.082499464   0   0   0 # casl
    189      4   1  1.500000     3.183559301     8.199513217    17.650003489   0   0   0 # ca+t
    190      4   3  1.000000     3.730388421     6.630104142    11.470392706   0   0   0 # sc29
    191      4   4  1.000000     2.871255084    -2.777511959    13.447755647   0   1   0 # sc39
    192      4   3  1.000000     3.761129310     9.750934517    11.413200132   0   0   0 # sc29
    193      4   5 -0.620000     3.703415063     5.867215631    12.910520481   0   0   0 # o129
    194      4   5 -0.620000     3.702784460    -4.046531423    12.854265490   0   1   0 # o129
    195      4   6 -0.930000     5.041635515    10.084239637    10.510307523   0   0   0 # oc13
    196      4   6 -0.930000     5.066716365     6.324833511    10.650945001   0   0   0 # oc13
    197      4   6 -0.930000     2.465980724     9.987512314    10.482180027   0   0   0 # oc13
    198      4   6 -0.930000     2.446501305     6.410681177    10.622817505   0   0   0 # oc13
    199      4   5 -0.620000     3.896414848     8.176210859    11.972937294   0   0   0 # o129
    200      4   7 -0.690000     1.343159384    -2.836221404    12.976151304   0   1   0 # oc14
    201      4   8 -1.000000     1.043008807     8.311732574    13.032406295   0   0   0 # oc22
    202      4   9  0.420000     0.713490527     5.022134127    13.700015969   0   0   0 # hoy
    203      4   1  1.500000     8.828816680     8.185651698    17.776577220   0   0   0 # ca+t
    204      4   1  1.500000     8.760284687     4.548013440    17.650003489   0   0   0 # ca+t
    205      4   3  1.000000     9.309663035    10.281603920    11.470392706   0   0   0 # sc29
    206      4   4  1.000000     8.453078926     8.176987373    13.447755647   0   0   0 # sc39
    207      4   3  1.000000     9.337854696     6.099434739    11.413200132   0   0   0 # sc29
    208      4   5 -0.620000     9.282689677     9.518715409    12.910520481   0   0   0 # o129
    209      4   5 -0.620000     9.284608302     6.907967910    12.854265490   0   0   0 # o129
    210      4   6 -0.930000    -0.537639099     6.432739859    10.510307523   1   0   0 # oc13
    211      4   6 -0.930000    -0.510009021     9.976333288    10.650945001   1   0   0 # oc13
    212      4   6 -0.930000     8.042706110     6.336012536    10.482180027   0   0   0 # oc13
    213      4   6 -0.930000     8.025775919    10.062180954    10.622817505   0   0   0 # oc13
    214      4   5 -0.620000     9.470591006    -2.778288474    11.972937294   0   1   0 # o129
    215      4   7 -0.690000     6.924983227     8.118277928    12.976151304   0   0   0 # oc14
    216      4   8 -1.000000     6.617184965    -2.642766758    13.032406295   0   1   0 # oc22
    217      4   9  0.420000     6.292765141     8.673633904    13.700015969   0   0   0 # hoy
    218      4   1  1.500000     6.492108362    -2.745823079    10.350918381   0   1   0 # ca+t
    219      4   1  1.500000     6.563189584     8.194814735    10.477492111   0   0   0 # ca+t
    220      4   3  1.000000     6.011262007    -4.841775300    16.657102895   0   1   0 # sc29
    221      4   4  1.000000     6.870395345     4.565840801    14.679739954   0   0   0 # sc39
    222      4   3  1.000000     5.985619575     6.643393436    16.714295469   0   0   0 # sc29
    223      4   5 -0.620000     6.038235365    -4.078886789    15.216975120   0   1   0 # o129
    224      4   5 -0.620000     6.038865968     5.834860265    15.273230111   0   0   0 # o129
    225      4   6 -0.930000     4.705113370     6.310088315    17.617188078   0   0   0 # oc13
    226      4   6 -0.930000     4.674934063    -4.536504669    17.476550600   0   1   0 # oc13
    227      4   6 -0.930000     7.280768160     6.406815638    17.645315573   0   0   0 # oc13
    228      4   6 -0.930000     7.295149123    -4.622352334    17.504678095   0   1   0 # oc13
    229      4   5 -0.620000     5.850334036     8.218117094    16.154558307   0   0   0 # o129
    230      4   7 -0.690000     8.398491044     4.624550247    15.151344297   0   0   0 # oc14
    231      4   8 -1.000000     8.703740077     8.082595378    15.095089306   0   0   0 # oc22
    232      4   9  0.420000     9.028159901    -3.233805285    14.427479632   0   1   0 # hoy
    233      4   1  1.500000     0.917932204     8.208676254    10.350918381   0   0   0 # ca+t
    234      4   2  1.700000    -0.693697604     4.841460628    14.044996137   0   0   0 # casl
    235      4   1  1.500000     0.981365741    -2.759684598    10.477492111   0   1   0 # ca+t
    236      4   3  1.000000     0.437085849     6.112724032    16.657102895   0   0   0 # sc29
    237      4   4  1.000000     1.293669958     8.217340579    14.679739954   0   0   0 # sc39
    238      4   3  1.000000     0.403795732    -4.311105897    16.714295469   0   1   0 # sc29
    239      4   5 -0.620000     0.464059207     6.875612544    15.216975120   0   0   0 # o129
    240      4   5 -0.620000     0.462140582     9.486360042    15.273230111   0   0   0 # o129
    241      4   6 -0.930000    -0.876710472    -4.644411017    17.617188078   0   1   0 # oc13
    242      4   6 -0.930000    -0.899242095     6.417994664    17.476550600   0   0   0 # oc13
    243      4   6 -0.930000     1.698944318    -4.547683694    17.645315573   0   1   0 # oc13
    244      4   6 -0.930000     1.720972965     6.332146998    17.504678095   0   0   0 # oc13
    245      4   5 -0.620000     0.271059422     4.566617316    16.154558307   0   0   0 # o129
    246      4   7 -0.690000     2.821765658     8.276050024    15.151344297   0   0   0 # oc14
    247      4   8 -1.000000     3.124465463     4.431095600    15.095089306   0   0   0 # oc22
    248      4   9  0.420000     3.453983743     7.720694048    14.427479632   0   0   0 # hoy

Bonds

     1   1      4      7
     2   2      4     10
     3   2      4     12
     4   1      4     13
     5   3      5      8
     6   4      5     14
     7   3      5     69
     8   5      5    123
     9   1      6      8
    10   2      6      9
    11   2      6     11
    12   1      6     13
    13   3     67      7
    14   6     14     78
    15   5     51     15
    16   6     76     16
    17   1     19     22
    18   2     19     25
    19   2     19     27
    20   1     19     28
    21   3     20     22
    22   3     20     23
    23   4     20     29
    24   5     20     45
    25   1     21     23
    26   2     21     24
    27   2     21     26
    28   1     21     90
    29   1     83     28
    30   6     29     31
    31   5     97     30
    32   1     34     37
    33   2     34     40
    34   2     34     42
    35   1     34     43
    36   3     35     38
    37   4     35     44
    38   5     35     92
    39   3     35     99
    40   1     36     38
    41   2     36     39
    42   2     36     41
    43   1     36     43
    44   3     97     37
    45   6     44    108
    46   6    106     46
    47   1     50     53
    48   2     50     56
    49   2     50     58
    50   1     50     59
    51   3     51     53
    52   3     51     54
    53   4     51     60
    54   1     52     54
    55   2     52     55
    56   2     52     57
    57   1     52    121
    58   1    114     59
    59   6     60     62
    60   5     67     61
    61   1     66     69
    62   2     66     72
    63   2     66     74
    64   1     66     75
    65   3     67     70
    66   4     67     76
    67   1     68     70
    68   2     68     71
    69   2     68     73
    70   1     68     75
    71   5    113     77
    72   1     81     84
    73   2     81     87
    74   2     81     89
    75   1     81     90
    76   3     82     84
    77   3     82     85
    78   4     82     91
    79   5     82    107
    80   1     83     85
    81   2     83     86
    82   2     83     88
    83   6     91     93
    84   1     96     99
    85   2     96    102
    86   2     96    104
    87   1     96    105
    88   3     97    100
    89   4     97    106
    90   1     98    100
    91   2     98    101
    92   2     98    103
    93   1     98    105
    94   1    112    115
    95   2    112    118
    96   2    112    120
    97   1    112    121
    98   3    113    115
    99   3    113    116
   100   4    113    122
   101   1    114    116
   102   2    114    117
   103   2    114    119
   104   6    122    124
   105   1    128    131
   106   2    128    134
   107   2    128    136
   108   1    128    137
   109   3    129    132
   110   4    129    138
   111   3    129    193
   112   5    129    247
   113   1    130    132
   114   2    130    133
   115   2    130    135
   116   1    130    137
   117   3    191    131
   118   6    138    202
   119   5    175    139
   120   6    200    140
   121   1    143    146
   122   2    143    149
   123   2    143    151
   124   1    143    152
   125   3    144    146
   126   3    144    147
   127   4    144    153
   128   5    144    169
   129   1    145    147
   130   2    145    148
   131   2    145    150
   132   1    145    214
   133   1    207    152
   134   6    153    155
   135   5    221    154
   136   1    158    161
   137   2    158    164
   138   2    158    166
   139   1    158    167
   140   3    159    162
   141   4    159    168
   142   5    159    216
   143   3    159    223
   144   1    160    162
   145   2    160    163
   146   2    160    165
   147   1    160    167
   148   3    221    161
   149   6    168    232
   150   6    230    170
   151   1    174    177
   152   2    174    180
   153   2    174    182
   154   1    174    183
   155   3    175    177
   156   3    175    178
   157   4    175    184
   158   1    176    178
   159   2    176    179
   160   2    176    181
   161   1    176    245
   162   1    238    183
   163   6    184    186
   164   5    191    185
   165   1    190    193
   166   2    190    196
   167   2    190    198
   168   1    190    199
   169   3    191    194
   170   4    191    200
   171   1    192    194
   172   2    192    195
   173   2    192    197
   174   1    192    199
   175   5    237    201
   176   1    205    208
   177   2    205    211
   178   2    205    213
   179   1    205    214
   180   3    206    208
   181   3    206    209
   182   4    206    215
   183   5    206    231
   184   1    207    209
   185   2    207    210
   186   2    207    212
   187   6    215    217
   188   1    220    223
   189   2    220    226
   190   2    220    228
   191   1    220    229
   192   3    221    224
   193   4    221    230
   194   1    222    224
   195   2    222    225
   196   2    222    227
   197   1    222    229
   198   1    236    239
   199   2    236    242
   200   2    236    244
   201   1    236    245
   202   3    237    239
   203   3    237    240
   204   4    237    246
   205   1    238    240
   206   2    238    241
   207   2    238    243
   208   6    246    248

Angles

     1   1      7      4     10
     2   1      7      4     12
     3   2      7      4     13
     4   3     10      4     12
     5   1     13      4     10
     6   1     13      4     12
     7   4      8      5     14
     8   5      8      5     69
     9   6      8      5    123
    10   4     69      5     14
    11   7     14      5    123
    12   6     69      5    123
    13   1      8      6      9
    14   1      8      6     11
    15   2      8      6     13
    16   3      9      6     11
    17   1     13      6      9
    18   1     13      6     11
    19   8      4      7     67
    20   8      6      8      5
    21   9      4     13      6
    22  10      5     14     78
    23   1     22     19     25
    24   1     22     19     27
    25   2     22     19     28
    26   3     25     19     27
    27   1     28     19     25
    28   1     28     19     27
    29   5     22     20     23
    30   4     22     20     29
    31   6     22     20     45
    32   4     23     20     29
    33   6     23     20     45
    34   7     29     20     45
    35   1     23     21     24
    36   1     23     21     26
    37   2     23     21     90
    38   3     24     21     26
    39   1     90     21     24
    40   1     90     21     26
    41   8     19     22     20
    42   8     21     23     20
    43   9     19     28     83
    44  10     20     29     31
    45   1     37     34     40
    46   1     37     34     42
    47   2     37     34     43
    48   3     40     34     42
    49   1     43     34     40
    50   1     43     34     42
    51   4     38     35     44
    52   6     38     35     92
    53   5     38     35     99
    54   7     44     35     92
    55   4     99     35     44
    56   6     99     35     92
    57   1     38     36     39
    58   1     38     36     41
    59   2     38     36     43
    60   3     39     36     41
    61   1     43     36     39
    62   1     43     36     41
    63   8     34     37     97
    64   8     36     38     35
    65   9     34     43     36
    66  10     35     44    108
    67   1     53     50     56
    68   1     53     50     58
    69   2     53     50     59
    70   3     56     50     58
    71   1     59     50     56
    72   1     59     50     58
    73   6     53     51     15
    74   6     54     51     15
    75   7     60     51     15
    76   5     53     51     54
    77   4     53     51     60
    78   4     54     51     60
    79   1     54     52     55
    80   1     54     52     57
    81   2     54     52    121
    82   3     55     52     57
    83   1    121     52     55
    84   1    121     52     57
    85   8     50     53     51
    86   8     52     54     51
    87   9     50     59    114
    88  10     51     60     62
    89   1     69     66     72
    90   1     69     66     74
    91   2     69     66     75
    92   3     72     66     74
    93   1     75     66     72
    94   1     75     66     74
    95   4     70     67     76
    96   5     70     67      7
    97   6     70     67     61
    98   4      7     67     76
    99   7     76     67     61
   100   6      7     67     61
   101   1     70     68     71
   102   1     70     68     73
   103   2     70     68     75
   104   3     71     68     73
   105   1     75     68     71
   106   1     75     68     73
   107   8     66     69      5
   108   8     68     70     67
   109   9     66     75     68
   110  10     67     76     16
   111   1     84     81     87
   112   1     84     81     89
   113   2     84     81     90
   114   3     87     81     89
   115   1     90     81     87
   116   1     90     81     89
   117   5     84     82     85
   118   4     84     82     91
   119   6     84     82    107
   120   4     85     82     91
   121   6     85     82    107
   122   7     91     82    107
   123   1     85     83     86
   124   1     85     83     88
   125   2     85     83     28
   126   3     86     83     88
   127   1     28     83     86
   128   1     28     83     88
   129   8     81     84     82
   130   8     83     85     82
   131   9     81     90     21
   132  10     82     91     93
   133   1     99     96    102
   134   1     99     96    104
   135   2     99     96    105
   136   3    102     96    104
   137   1    105     96    102
   138   1    105     96    104
   139   4    100     97    106
   140   6    100     97     30
   141   5    100     97     37
   142   7    106     97     30
   143   4     37     97    106
   144   6     37     97     30
   145   1    100     98    101
   146   1    100     98    103
   147   2    100     98    105
   148   3    101     98    103
   149   1    105     98    101
   150   1    105     98    103
   151   8     96     99     35
   152   8     98    100     97
   153   9     96    105     98
   154  10     97    106     46
   155   1    115    112    118
   156   1    115    112    120
   157   2    115    112    121
   158   3    118    112    120
   159   1    121    112    118
   160   1    121    112    120
   161   6    115    113     77
   162   6    116    113     77
   163   7    122    113     77
   164   5    115    113    116
   165   4    115    113    122
   166   4    116    113    122
   167   1    116    114    117
   168   1    116    114    119
   169   2    116    114     59
   170   3    117    114    119
   171   1     59    114    117
   172   1     59    114    119
   173   8    112    115    113
   174   8    114    116    113
   175   9    112    121     52
   176  10    113    122    124
   177   1    131    128    134
   178   1    131    128    136
   179   2    131    128    137
   180   3    134    128    136
   181   1    137    128    134
   182   1    137    128    136
   183   4    132    129    138
   184   5    132    129    193
   185   6    132    129    247
   186   4    193    129    138
   187   7    138    129    247
   188   6    193    129    247
   189   1    132    130    133
   190   1    132    130    135
   191   2    132    130    137
   192   3    133    130    135
   193   1    137    130    133
   194   1    137    130    135
   195   8    128    131    191
   196   8    130    132    129
   197   9    128    137    130
   198  10    129    138    202
   199   1    146    143    149
   200   1    146    143    151
   201   2    146    143    152
   202   3    149    143    151
   203   1    152    143    149
   204   1    152    143    151
   205   5    146    144    147
   206   4    146    144    153
   207   6    146    144    169
   208   4    147    144    153
   209   6    147    144    169
   210   7    153    144    169
   211   1    147    145    148
   212   1    147    145    150
   213   2    147    145    214
   214   3    148    145    150
   215   1    214    145    148
   216   1    214    145    150
   217   8    143    146    144
   218   8    145    147    144
   219   9    143    152    207
   220  10    144    153    155
   221   1    161    158    164
   222   1    161    158    166
   223   2    161    158    167
   224   3    164    158    166
   225   1    167    158    164
   226   1    167    158    166
   227   4    162    159    168
   228   6    162    159    216
   229   5    162    159    223
   230   7    168    159    216
   231   4    223    159    168
   232   6    223    159    216
   233   1    162    160    163
   234   1    162    160    165
   235   2    162    160    167
   236   3    163    160    165
   237   1    167    160    163
   238   1    167    160    165
   239   8    158    161    221
   240   8    160    162    159
   241   9    158    167    160
   242  10    159    168    232
   243   1    177    174    180
   244   1    177    174    182
   245   2    177    174    183
   246   3    180    174    182
   247   1    183    174    180
   248   1    183    174    182
   249   6    177    175    139
   250   6    178    175    139
   251   7    184    175    139
   252   5    177    175    178
   253   4    177    175    184
   254   4    178    175    184
   255   1    178    176    179
   256   1    178    176    181
   257   2    178    176    245
   258   3    179    176    181
   259   1    245    176    179
   260   1    245    176    181
   261   8    174    177    175
   262   8    176    178    175
   263   9    174    183    238
   264  10    175    184    186
   265   1    193    190    196
   266   1    193    190    198
   267   2    193    190    199
   268   3    196    190    198
   269   1    199    190    196
   270   1    199    190    198
   271   4    194    191    200
   272   5    194    191    131
   273   6    194    191    185
   274   4    131    191    200
   275   7    200    191    185
   276   6    131    191    185
   277   1    194    192    195
   278   1    194    192    197
   279   2    194    192    199
   280   3    195    192    197
   281   1    199    192    195
   282   1    199    192    197
   283   8    190    193    129
   284   8    192    194    191
   285   9    190    199    192
   286  10    191    200    140
   287   1    208    205    211
   288   1    208    205    213
   289   2    208    205    214
   290   3    211    205    213
   291   1    214    205    211
   292   1    214    205    213
   293   5    208    206    209
   294   4    208    206    215
   295   6    208    206    231
   296   4    209    206    215
   297   6    209    206    231
   298   7    215    206    231
   299   1    209    207    210
   300   1    209    207    212
   301   2    209    207    152
   302   3    210    207    212
   303   1    152    207    210
   304   1    152    207    212
   305   8    205    208    206
   306   8    207    209    206
   307   9    205    214    145
   308  10    206    215    217
   309   1    223    220    226
   310   1    223    220    228
   311   2    223    220    229
   312   3    226    220    228
   313   1    229    220    226
   314   1    229    220    228
   315   4    224    221    230
   316   6    224    221    154
   317   5    224    221    161
   318   7    230    221    154
   319   4    161    221    230
   320   6    161    221    154
   321   1    224    222    225
   322   1    224    222    227
   323   2    224    222    229
   324   3    225    222    227
   325   1    229    222    225
   326   1    229    222    227
   327   8    220    223    159
   328   8    222    224    221
   329   9    220    229    222
   330  10    221    230    170
   331   1    239    236    242
   332   1    239    236    244
   333   2    239    236    245
   334   3    242    236    244
   335   1    245    236    242
   336   1    245    236    244
   337   6    239    237    201
   338   6    240    237    201
   339   7    246    237    201
   340   5    239    237    240
   341   4    239    237    246
   342   4    240    237    246
   343   1    240    238    241
   344   1    240    238    243
   345   2    240    238    183
   346   3    241    238    243
   347   1    183    238    241
   348   1    183    238    243
   349   8    236    239    237
   350   8    238    240    237
   351   9    236    245    176
   352  10    237    246    248

Dihedrals

     1   1     10      4      7     67
     2   1     12      4      7     67
     3   2     13      4      7     67
     4   3      7      4     13      6
     5   4     10      4     13      6
     6   4     12      4     13      6
     7   5     14      5      8      6
     8   6     69      5      8      6
     9   7    123      5      8      6
    10   8      8      5     14     78
    11   8     69      5     14     78
    12   9    123      5     14     78
    13   6      8      5     69     66
    14   5     14      5     69     66
    15   7    123      5     69     66
    16   1      9      6      8      5
    17   1     11      6      8      5
    18   2     13      6      8      5
    19   3      8      6     13      4
    20   4      9      6     13      4
    21   4     11      6     13      4
    22   6     70     67      7      4
    23   5     76     67      7      4
    24   7     61     67      7      4
    25   1     25     19     22     20
    26   1     27     19     22     20
    27   2     28     19     22     20
    28   3     22     19     28     83
    29   4     25     19     28     83
    30   4     27     19     28     83
    31   6     23     20     22     19
    32   5     29     20     22     19
    33   7     45     20     22     19
    34   6     22     20     23     21
    35   5     29     20     23     21
    36   7     45     20     23     21
    37   8     22     20     29     31
    38   8     23     20     29     31
    39   9     45     20     29     31
    40   1     24     21     23     20
    41   1     26     21     23     20
    42   2     90     21     23     20
    43   3     23     21     90     81
    44   4     24     21     90     81
    45   4     26     21     90     81
    46   3     85     83     28     19
    47   4     86     83     28     19
    48   4     88     83     28     19
    49   1     40     34     37     97
    50   1     42     34     37     97
    51   2     43     34     37     97
    52   3     37     34     43     36
    53   4     40     34     43     36
    54   4     42     34     43     36
    55   5     44     35     38     36
    56   7     92     35     38     36
    57   6     99     35     38     36
    58   8     38     35     44    108
    59   9     92     35     44    108
    60   8     99     35     44    108
    61   6     38     35     99     96
    62   5     44     35     99     96
    63   7     92     35     99     96
    64   1     39     36     38     35
    65   1     41     36     38     35
    66   2     43     36     38     35
    67   3     38     36     43     34
    68   4     39     36     43     34
    69   4     41     36     43     34
    70   6    100     97     37     34
    71   5    106     97     37     34
    72   7     30     97     37     34
    73   1     56     50     53     51
    74   1     58     50     53     51
    75   2     59     50     53     51
    76   3     53     50     59    114
    77   4     56     50     59    114
    78   4     58     50     59    114
    79   7     15     51     53     50
    80   6     54     51     53     50
    81   5     60     51     53     50
    82   7     15     51     54     52
    83   6     53     51     54     52
    84   5     60     51     54     52
    85   9     15     51     60     62
    86   8     53     51     60     62
    87   8     54     51     60     62
    88   1     55     52     54     51
    89   1     57     52     54     51
    90   2    121     52     54     51
    91   3     54     52    121    112
    92   4     55     52    121    112
    93   4     57     52    121    112
    94   3    116    114     59     50
    95   4    117    114     59     50
    96   4    119    114     59     50
    97   1     72     66     69      5
    98   1     74     66     69      5
    99   2     75     66     69      5
   100   3     69     66     75     68
   101   4     72     66     75     68
   102   4     74     66     75     68
   103   5     76     67     70     68
   104   6      7     67     70     68
   105   7     61     67     70     68
   106   8     70     67     76     16
   107   8      7     67     76     16
   108   9     61     67     76     16
   109   1     71     68     70     67
   110   1     73     68     70     67
   111   2     75     68     70     67
   112   3     70     68     75     66
   113   4     71     68     75     66
   114   4     73     68     75     66
   115   1     87     81     84     82
   116   1     89     81     84     82
   117   2     90     81     84     82
   118   3     84     81     90     21
   119   4     87     81     90     21
   120   4     89     81     90     21
   121   6     85     82     84     81
   122   5     91     82     84     81
   123   7    107     82     84     81
   124   6     84     82     85     83
   125   5     91     82     85     83
   126   7    107     82     85     83
   127   8     84     82     91     93
   128   8     85     82     91     93
   129   9    107     82     91     93
   130   1     86     83     85     82
   131   1     88     83     85     82
   132   2     28     83     85     82
   133   1    102     96     99     35
   134   1    104     96     99     35
   135   2    105     96     99     35
   136   3     99     96    105     98
   137   4    102     96    105     98
   138   4    104     96    105     98
   139   5    106     97    100     98
   140   7     30     97    100     98
   141   6     37     97    100     98
   142   8    100     97    106     46
   143   9     30     97    106     46
   144   8     37     97    106     46
   145   1    101     98    100     97
   146   1    103     98    100     97
   147   2    105     98    100     97
   148   3    100     98    105     96
   149   4    101     98    105     96
   150   4    103     98    105     96
   151   1    118    112    115    113
   152   1    120    112    115    113
   153   2    121    112    115    113
   154   3    115    112    121     52
   155   4    118    112    121     52
   156   4    120    112    121     52
   157   7     77    113    115    112
   158   6    116    113    115    112
   159   5    122    113    115    112
   160   7     77    113    116    114
   161   6    115    113    116    114
   162   5    122    113    116    114
   163   9     77    113    122    124
   164   8    115    113    122    124
   165   8    116    113    122    124
   166   1    117    114    116    113
   167   1    119    114    116    113
   168   2     59    114    116    113
   169   1    134    128    131    191
   170   1    136    128    131    191
   171   2    137    128    131    191
   172   3    131    128    137    130
   173   4    134    128    137    130
   174   4    136    128    137    130
   175   5    138    129    132    130
   176   6    193    129    132    130
   177   7    247    129    132    130
   178   8    132    129    138    202
   179   8    193    129    138    202
   180   9    247    129    138    202
   181   6    132    129    193    190
   182   5    138    129    193    190
   183   7    247    129    193    190
   184   1    133    130    132    129
   185   1    135    130    132    129
   186   2    137    130    132    129
   187   3    132    130    137    128
   188   4    133    130    137    128
   189   4    135    130    137    128
   190   6    194    191    131    128
   191   5    200    191    131    128
   192   7    185    191    131    128
   193   1    149    143    146    144
   194   1    151    143    146    144
   195   2    152    143    146    144
   196   3    146    143    152    207
   197   4    149    143    152    207
   198   4    151    143    152    207
   199   6    147    144    146    143
   200   5    153    144    146    143
   201   7    169    144    146    143
   202   6    146    144    147    145
   203   5    153    144    147    145
   204   7    169    144    147    145
   205   8    146    144    153    155
   206   8    147    144    153    155
   207   9    169    144    153    155
   208   1    148    145    147    144
   209   1    150    145    147    144
   210   2    214    145    147    144
   211   3    147    145    214    205
   212   4    148    145    214    205
   213   4    150    145    214    205
   214   3    209    207    152    143
   215   4    210    207    152    143
   216   4    212    207    152    143
   217   1    164    158    161    221
   218   1    166    158    161    221
   219   2    167    158    161    221
   220   3    161    158    167    160
   221   4    164    158    167    160
   222   4    166    158    167    160
   223   5    168    159    162    160
   224   7    216    159    162    160
   225   6    223    159    162    160
   226   8    162    159    168    232
   227   9    216    159    168    232
   228   8    223    159    168    232
   229   6    162    159    223    220
   230   5    168    159    223    220
   231   7    216    159    223    220
   232   1    163    160    162    159
   233   1    165    160    162    159
   234   2    167    160    162    159
   235   3    162    160    167    158
   236   4    163    160    167    158
   237   4    165    160    167    158
   238   6    224    221    161    158
   239   5    230    221    161    158
   240   7    154    221    161    158
   241   1    180    174    177    175
   242   1    182    174    177    175
   243   2    183    174    177    175
   244   3    177    174    183    238
   245   4    180    174    183    238
   246   4    182    174    183    238
   247   7    139    175    177    174
   248   6    178    175    177    174
   249   5    184    175    177    174
   250   7    139    175    178    176
   251   6    177    175    178    176
   252   5    184    175    178    176
   253   9    139    175    184    186
   254   8    177    175    184    186
   255   8    178    175    184    186
   256   1    179    176    178    175
   257   1    181    176    178    175
   258   2    245    176    178    175
   259   3    178    176    245    236
   260   4    179    176    245    236
   261   4    181    176    245    236
   262   3    240    238    183    174
   263   4    241    238    183    174
   264   4    243    238    183    174
   265   1    196    190    193    129
   266   1    198    190    193    129
   267   2    199    190    193    129
   268   3    193    190    199    192
   269   4    196    190    199    192
   270   4    198    190    199    192
   271   5    200    191    194    192
   272   6    131    191    194    192
   273   7    185    191    194    192
   274   8    194    191    200    140
   275   8    131    191    200    140
   276   9    185    191    200    140
   277   1    195    192    194    191
   278   1    197    192    194    191
   279   2    199    192    194    191
   280   3    194    192    199    190
   281   4    195    192    199    190
   282   4    197    192    199    190
   283   1    211    205    208    206
   284   1    213    205    208    206
   285   2    214    205    208    206
   286   3    208    205    214    145
   287   4    211    205    214    145
   288   4    213    205    214    145
   289   6    209    206    208    205
   290   5    215    206    208    205
   291   7    231    206    208    205
   292   6    208    206    209    207
   293   5    215    206    209    207
   294   7    231    206    209    207
   295   8    208    206    215    217
   296   8    209    206    215    217
   297   9    231    206    215    217
   298   1    210    207    209    206
   299   1    212    207    209    206
   300   2    152    207    209    206
   301   1    226    220    223    159
   302   1    228    220    223    159
   303   2    229    220    223    159
   304   3    223    220    229    222
   305   4    226    220    229    222
   306   4    228    220    229    222
   307   5    230    221    224    222
   308   7    154    221    224    222
   309   6    161    221    224    222
   310   8    224    221    230    170
   311   9    154    221    230    170
   312   8    161    221    230    170
   313   1    225    222    224    221
   314   1    227    222    224    221
   315   2    229    222    224    221
   316   3    224    222    229    220
   317   4    225    222    229    220
   318   4    227    222    229    220
   319   1    242    236    239    237
   320   1    244    236    239    237
   321   2    245    236    239    237
   322   3    239    236    245    176
   323   4    242    236    245    176
   324   4    244    236    245    176
   325   7    201    237    239    236
   326   6    240    237    239    236
   327   5    246    237    239    236
   328   7    201    237    240    238
   329   6    239    237    240    238
   330   5    246    237    240    238
   331   9    201    237    246    248
   332   8    239    237    246    248
   333   8    240    237    246    248
   334   1    241    238    240    237
   335   1    243    238    240    237
   336   2    183    238    240    237

Impropers

     1   1      7      4     10     12 
     2   2      7      4     13     10 
     3   2      7      4     13     12 
     4   1     13      4     12     10 
     5   3      8      5     69     14 
     6   4      8      5     14    123 
     7   5      8      5     69    123 
     8   4     69      5     14    123 
     9   1      8      6      9     11 
    10   2      8      6     13      9 
    11   2      8      6     13     11 
    12   1     13      6     11      9 
    13   1     22     19     25     27 
    14   2     22     19     28     25 
    15   2     22     19     28     27 
    16   1     28     19     27     25 
    17   3     22     20     23     29 
    18   5     22     20     23     45 
    19   4     22     20     29     45 
    20   4     23     20     29     45 
    21   1     23     21     24     26 
    22   2     23     21     90     24 
    23   2     23     21     90     26 
    24   1     90     21     26     24 
    25   1     37     34     40     42 
    26   2     37     34     43     40 
    27   2     37     34     43     42 
    28   1     43     34     42     40 
    29   4     38     35     44     92 
    30   3     38     35     99     44 
    31   5     38     35     99     92 
    32   4     99     35     44     92 
    33   1     38     36     39     41 
    34   2     38     36     43     39 
    35   2     38     36     43     41 
    36   1     43     36     41     39 
    37   1     53     50     56     58 
    38   2     53     50     59     56 
    39   2     53     50     59     58 
    40   1     59     50     58     56 
    41   5     53     51     54     15 
    42   4     53     51     60     15 
    43   4     54     51     60     15 
    44   3     53     51     54     60 
    45   1     54     52     55     57 
    46   2     54     52    121     55 
    47   2     54     52    121     57 
    48   1    121     52     57     55 
    49   1     69     66     72     74 
    50   2     69     66     75     72 
    51   2     69     66     75     74 
    52   1     75     66     74     72 
    53   3     70     67      7     76 
    54   4     70     67     76     61 
    55   5     70     67      7     61 
    56   4      7     67     76     61 
    57   1     70     68     71     73 
    58   2     70     68     75     71 
    59   2     70     68     75     73 
    60   1     75     68     73     71 
    61   1     84     81     87     89 
    62   2     84     81     90     87 
    63   2     84     81     90     89 
    64   1     90     81     89     87 
    65   3     84     82     85     91 
    66   5     84     82     85    107 
    67   4     84     82     91    107 
    68   4     85     82     91    107 
    69   1     85     83     86     88 
    70   2     85     83     28     86 
    71   2     85     83     28     88 
    72   1     28     83     88     86 
    73   1     99     96    102    104 
    74   2     99     96    105    102 
    75   2     99     96    105    104 
    76   1    105     96    104    102 
    77   4    100     97    106     30 
    78   3    100     97     37    106 
    79   5    100     97     37     30 
    80   4     37     97    106     30 
    81   1    100     98    101    103 
    82   2    100     98    105    101 
    83   2    100     98    105    103 
    84   1    105     98    103    101 
    85   1    115    112    118    120 
    86   2    115    112    121    118 
    87   2    115    112    121    120 
    88   1    121    112    120    118 
    89   5    115    113    116     77 
    90   4    115    113    122     77 
    91   4    116    113    122     77 
    92   3    115    113    116    122 
    93   1    116    114    117    119 
    94   2    116    114     59    117 
    95   2    116    114     59    119 
    96   1     59    114    119    117 
    97   1    131    128    134    136 
    98   2    131    128    137    134 
    99   2    131    128    137    136 
   100   1    137    128    136    134 
   101   3    132    129    193    138 
   102   4    132    129    138    247 
   103   5    132    129    193    247 
   104   4    193    129    138    247 
   105   1    132    130    133    135 
   106   2    132    130    137    133 
   107   2    132    130    137    135 
   108   1    137    130    135    133 
   109   1    146    143    149    151 
   110   2    146    143    152    149 
   111   2    146    143    152    151 
   112   1    152    143    151    149 
   113   3    146    144    147    153 
   114   5    146    144    147    169 
   115   4    146    144    153    169 
   116   4    147    144    153    169 
   117   1    147    145    148    150 
   118   2    147    145    214    148 
   119   2    147    145    214    150 
   120   1    214    145    150    148 
   121   1    161    158    164    166 
   122   2    161    158    167    164 
   123   2    161    158    167    166 
   124   1    167    158    166    164 
   125   4    162    159    168    216 
   126   3    162    159    223    168 
   127   5    162    159    223    216 
   128   4    223    159    168    216 
   129   1    162    160    163    165 
   130   2    162    160    167    163 
   131   2    162    160    167    165 
   132   1    167    160    165    163 
   133   1    177    174    180    182 
   134   2    177    174    183    180 
   135   2    177    174    183    182 
   136   1    183    174    182    180 
   137   5    177    175    178    139 
   138   4    177    175    184    139 
   139   4    178    175    184    139 
   140   3    177    175    178    184 
   141   1    178    176    179    181 
   142   2    178    176    245    179 
   143   2    178    176    245    181 
   144   1    245    176    181    179 
   145   1    193    190    196    198 
   146   2    193    190    199    196 
   147   2    193    190    199    198 
   148   1    199    190    198    196 
   149   3    194    191    131    200 
   150   4    194    191    200    185 
   151   5    194    191    131    185 
   152   4    131    191    200    185 
   153   1    194    192    195    197 
   154   2    194    192    199    195 
   155   2    194    192    199    197 
   156   1    199    192    197    195 
   157   1    208    205    211    213 
   158   2    208    205    214    211 
   159   2    208    205    214    213 
   160   1    214    205    213    211 
   161   3    208    206    209    215 
   162   5    208    206    209    231 
   163   4    208    206    215    231 
   164   4    209    206    215    231 
   165   1    209    207    210    212 
   166   2    209    207    152    210 
   167   2    209    207    152    212 
   168   1    152    207    212    210 
   169   1    223    220    226    228 
   170   2    223    220    229    226 
   171   2    223    220    229    228 
   172   1    229    220    228    226 
   173   4    224    221    230    154 
   174   3    224    221    161    230 
   175   5    224    221    161    154 
   176   4    161    221    230    154 
   177   1    224    222    225    227 
   178   2    224    222    229    225 
   179   2    224    222    229    227 
   180   1    229    222    227    225 
   181   1    239    236    242    244 
   182   2    239    236    245    242 
   183   2    239    236    245    244 
   184   1    245    236    244    242 
   185   5    239    237    240    201 
   186   4    239    237    246    201 
   187   4    240    237    246    201 
   188   3    239    237    240    246 
   189   1    240    238    241    243 
   190   2    240    238    183    241 
   191   2    240    238    183    243 
   192   1    183    238    243    241 

