LAMMPS data file. msi2lmp v3.9.6 / 11 Sep 2014 / CGCMM for Tob14_100_Bulk_cV07_r00

   1248 atoms
    960 bonds
   1224 angles
   1008 dihedrals
      0 impropers

  11 atom types
   7 bond types
  11 angle types
   9 dihedral types

    -0.554033026    21.975566974 xlo xhi
    -0.326111290    21.948888710 ylo yhi
    -0.530924459    27.456075541 zlo zhi

Masses

   1  40.080000 # ca+t
   2  28.086000 # sc2
   3  28.086000 # sc3
   4  15.999400 # oc12
   5  15.999400 # oc13
   6  15.999400 # oc22
   7  15.999400 # oc14
   8  15.999400 # o*
   9  40.080000 # casl
  10   1.008000 # hoy
  11   1.007970 # h*

Pair Coeffs # lj/cut/coul/long

   1   0.2899999992   3.0290556424 # ca+t
   2   0.5099999995   4.0535891679 # sc2
   3   0.5099999995   4.0535891679 # sc3
   4   0.1599999980   3.0290556449 # oc12
   5   0.1400000021   2.7796039973 # oc13
   6   0.1900000014   3.3854151269 # oc22
   7   0.1199999991   3.0914185538 # oc14
   8   0.1554164124   3.1655200879 # o*
   9   0.2900000032   2.8954208313 # casl
  10   0.0159969724   0.9666649776 # hoy
  11   0.0000000000   0.0000000000 # h*

Bond Coeffs # harmonic

   1   300.0000     1.7100 # sc2-oc12
   2   300.0000     1.6200 # sc2-oc13
   3   300.0000     1.6700 # sc3-oc12
   4   430.0000     1.6800 # sc3-oc14
   5   430.0000     1.5900 # sc3-oc22
   6   495.0000     0.9450 # oc14-hoy
   7   540.6336     0.9600 # o*-h*

Angle Coeffs # harmonic

   1   170.0000   100.2000 # oc12-sc2-oc12
   2   170.0000   111.5000 # oc12-sc2-oc13
   3   170.0000   112.5000 # oc13-sc2-oc13
   4   170.0000   111.0000 # oc12-sc3-oc14
   5   170.0000   107.0000 # oc12-sc3-oc12
   6   170.0000   107.0000 # oc12-sc3-oc22
   7   170.0000   111.0000 # oc22-sc3-oc14
   8   170.0000   139.0000 # sc2-oc12-sc3
   9   170.0000   144.0000 # sc2-oc12-sc2
  10    50.0000   115.0000 # sc3-oc14-hoy
  11    50.0000   104.5000 # h*-o*-h*

Dihedral Coeffs # harmonic

  1     0.0000   1   3 # oc12-sc2-oc12-sc3
  2     0.0000   1   3 # oc13-sc2-oc12-sc3
  3     0.0000   1   3 # oc12-sc2-oc12-sc2
  4     0.0000   1   3 # oc13-sc2-oc12-sc2
  5     0.0000   1   3 # oc14-sc3-oc12-sc2
  6     0.0000   1   3 # oc12-sc3-oc12-sc2
  7     0.0000   1   3 # oc22-sc3-oc12-sc2
  8     0.0000   1   3 # oc12-sc3-oc14-hoy
  9     0.0000   1   3 # oc22-sc3-oc14-hoy

Atoms # full

      1      1   1  1.500000     3.067016863     3.790430048     7.981892395   0   0   0 # ca+t
      2      1   1  1.500000     0.329676647     5.607383869     6.008808858   0   0   0 # ca+t
      3      1   2  1.000000     3.140237962     3.452849158     4.903322411   0   0   0 # sc2
      4      1   3  1.000000     3.956934007     5.620099712     2.913446599   0   0   0 # sc3
      5      1   2  1.000000     3.100811088     0.323073683     4.900523664   0   0   0 # sc2
      6      1   4 -0.580000     3.151502591     4.381013869     3.492777505   0   0   0 # oc12
      7      1   4 -0.580000     3.196561780     1.953196556     4.315595471   0   0   0 # oc12
      8      1   5 -0.940000     4.390627950     3.880457653     5.793309063   0   0   0 # oc13
      9      1   5 -0.940000     1.833524156     3.678443208     5.779315327   0   0   0 # oc13
     10      1   6 -1.080000     3.911896777     1.937133043    26.638026598   0   0   0 # oc22
     11      1   7 -0.670000     5.573441978     5.584933985     3.288472492   0   0   0 # oc14
     12      1   8 -0.820000     0.560604573     5.582205810     3.627115294   0   0   0 # o*
     13      1   4 -0.580000     3.190929466     6.939064403     3.503972495   0   0   0 # oc12
     14      1   5 -0.940000     1.737773462     0.199495128     5.784912821   0   0   0 # oc13
     15      1   8 -0.820000     4.266715410     5.558073079    26.419727952   0   0   0 # o*
     16      1   8 -0.820000     0.588766483     3.833717087     0.083961001   0   0   0 # o*
     17      1   9  1.700000     3.866815964     0.065883821     0.053175301   0   0   0 # casl
     18      1   8 -0.820000     3.044487269     3.834900936    -0.000000000   0   0   0 # o*
     19      1   1  1.500000     0.250823234     5.636807498    21.975392395   0   0   0 # ca+t
     20      1   1  1.500000     3.145870277     3.761006418    20.002308858   0   0   0 # ca+t
     21      1   2  1.000000     0.324044332     5.299226608    18.896822411   0   0   0 # sc2
     22      1   3  1.000000     1.140740378     7.466477163    16.906946599   0   0   0 # sc3
     23      1   2  1.000000     0.284617458     2.169451133    18.894023664   0   0   0 # sc2
     24      1   4 -0.580000     0.335308962     6.227391319    17.486277505   0   0   0 # oc12
     25      1   4 -0.580000     0.380368151     3.799574007    18.309095471   0   0   0 # oc12
     26      1   5 -0.940000     1.574434320     5.726835103    19.786809063   0   0   0 # oc13
     27      1   5 -0.940000    21.546930526     5.524820658    19.772815327  -1   0   0 # oc13
     28      1   6 -1.080000     1.095703147     3.783510494    12.644526598   0   0   0 # oc22
     29      1   7 -0.670000     2.757248348     7.431311435    17.281972492   0   0   0 # oc14
     30      1   8 -0.820000     3.376798202     3.735828360    17.620615294   0   0   0 # o*
     31      1   4 -0.580000     0.374735836     1.360441853    17.497472495   0   0   0 # oc12
     32      1   5 -0.940000    21.451179833     2.045872578    19.778412821  -1   0   0 # oc13
     33      1   8 -0.820000     1.450521780     7.404450529    12.426227952   0   0   0 # o*
     34      1   1  1.500000     3.067016863     7.502930047    20.005107605   0   0   0 # ca+t
     35      1   1  1.500000     0.329676647     1.894883868    21.978191142   0   0   0 # ca+t
     36      1   2  1.000000     3.140237962     7.165349157    23.083677589   0   0   0 # sc2
     37      1   3  1.000000     3.956934007     1.907599713    25.073553401   0   0   0 # sc3
     38      1   2  1.000000     3.100811088     4.035573682    23.086476336   0   0   0 # sc2
     39      1   4 -0.580000     3.151502591     0.668513868    24.494222495   0   0   0 # oc12
     40      1   4 -0.580000     3.196561781     5.665696556    23.671404529   0   0   0 # oc12
     41      1   5 -0.940000     1.833524155     7.390943209    22.207684673   0   0   0 # oc13
     42      1   6 -1.080000     3.911875153     5.649641591     1.348973402   0   0   0 # oc22
     43      1   7 -0.670000     5.573441977     1.872433985    24.698527508   0   0   0 # oc14
     44      1   8 -0.820000     0.560604573     1.869705810    24.359884706   0   0   0 # o*
     45      1   4 -0.580000     3.190929466     3.226564402    24.483027505   0   0   0 # oc12
     46      1   5 -0.940000     1.737773462     3.911995128    22.202087179   0   0   0 # oc13
     47      1   5 -0.940000     4.446973392     3.687596441    22.196489684   0   0   0 # oc13
     48      1   8 -0.820000     4.266715410     1.845573079     1.567272048   0   0   0 # o*
     49      1   8 -0.820000     0.588766482     7.546217088    -0.083961001   0   0   1 # o*
     50      1   1  1.500000     0.250823233     1.924307498     6.011607605   0   0   0 # ca+t
     51      1   1  1.500000     3.145870277     7.473506418     7.984691142   0   0   0 # ca+t
     52      1   2  1.000000     0.324044332     1.586726608     9.090177589   0   0   0 # sc2
     53      1   3  1.000000     1.140740377     3.753977163    11.080053401   0   0   0 # sc3
     54      1   2  1.000000     0.284617458     5.881951132     9.092976336   0   0   0 # sc2
     55      1   4 -0.580000     0.335308962     2.514891319    10.500722495   0   0   0 # oc12
     56      1   4 -0.580000     0.380368151     7.512074007     9.677904529   0   0   0 # oc12
     57      1   5 -0.940000    21.546930526     1.812320659     8.214184673  -1   0   0 # oc13
     58      1   6 -1.080000     1.095681524     7.496019042    15.342473402   0   0   0 # oc22
     59      1   7 -0.670000     2.757248348     3.718811435    10.705027508   0   0   0 # oc14
     60      1   8 -0.820000     3.376798203     7.448328360    10.366384706   0   0   0 # o*
     61      1   4 -0.580000     0.374735836     5.072941853    10.489527505   0   0   0 # oc12
     62      1   5 -0.940000    21.451179832     5.758372578     8.208587179  -1   0   0 # oc13
     63      1   5 -0.940000     1.630779762     5.533973891     8.202989684   0   0   0 # oc13
     64      1   8 -0.820000     1.450521780     3.691950530    15.560772048   0   0   0 # o*
     65      1   8 -0.820000     4.328650025     1.938611388    14.077461001   0   0   0 # o*
     66      1   8 -0.820000     3.404960112     5.699839637    13.909538999   0   0   0 # o*
     67      1   9  1.700000     1.050622335     5.624761272    13.940324699   0   0   0 # casl
     68      1   8 -0.820000     0.228293638     1.968778386    13.993500000   0   0   0 # o*
     69      1  10  0.400000     6.169308951     1.938259743    25.423346563   0   0   0 # hoy
     70      1  10  0.400000     3.349567651     7.509707637    16.556567616   0   0   0 # hoy
     71      1  10  0.400000     3.331162360     3.326299589    11.336226581   0   0   0 # hoy
     72      1  10  0.400000     6.158543087     5.588902590     2.550392443   0   0   0 # hoy
     73      1  11  0.410000     4.573547827     1.710600388     2.498299190   0   0   0 # h*
     74      1  11  0.410000     3.743426762     2.667070694     1.712690205   0   0   0 # h*
     75      1  11  0.410000     0.916872849     6.393231589     3.197921326   0   0   0 # h*
     76      1  11  0.410000     1.282310188     4.950500267     3.386507348   0   0   0 # h*
     77      1  11  0.410000     1.075428987     4.530331695     0.576324689   0   0   0 # h*
     78      1  11  0.410000     1.403765989     3.384572219    -0.248548595   0   0   0 # h*
     79      1  11  0.410000     3.612625865     3.131760414    -0.412339625   0   0   0 # h*
     80      1  11  0.410000     3.656151694     4.430991258     0.507734712   0   0   0 # h*
     81      1  11  0.410000     2.932396853     7.454692146    11.240697981   0   0   0 # h*
     82      1  11  0.410000     4.289869549     7.182930692    10.628428401   0   0   0 # h*
     83      1  11  0.410000     1.020318043     8.249469415    12.704850912   0   0   0 # h*
     84      1  11  0.410000     1.068293224     7.347345940    11.510968959   0   0   0 # h*
     85      1  11  0.410000     3.865062602     5.713603070    13.042448887   0   0   0 # h*
     86      1  11  0.410000     4.235284732     5.642759124    14.441054179   0   0   0 # h*
     87      1  11  0.410000     3.704222495     1.192805367    13.947312897   0   0   0 # h*
     88      1  11  0.410000     3.699357709     2.648424903    14.334808815   0   0   0 # h*
     89      1  11  0.410000     0.826150897     2.938884248    15.649539152   0   0   0 # h*
     90      1  11  0.410000     1.720045715     3.769139513    16.507602957   0   0   0 # h*
     91      1  11  0.410000     0.816959553     1.357194081    14.515919081   0   0   0 # h*
     92      1  11  0.410000     0.827842309     2.661992304    13.603581679   0   0   0 # h*
     93      1  11  0.410000     3.789624343     4.534065679    17.219969855   0   0   0 # h*
     94      1  11  0.410000     4.058040234     3.068576163    17.360758008   0   0   0 # h*
     95      1  11  0.410000     0.905817796     2.665259016    24.823259273   0   0   0 # h*
     96      1  11  0.410000     1.239829011     1.216075447    24.654904704   0   0   0 # h*
     97      1  11  0.410000    -0.039390835     6.814559718    -0.258153482   0   0   1 # h*
     98      1  11  0.410000     0.030946601     8.319963065    -0.320048786   0   0   1 # h*
     99      1  11  0.410000     3.628887509     4.807082073    26.448947827   0   0   0 # h*
    100      1  11  0.410000     4.440281346     5.570545761    25.446882538   0   0   0 # h*
    101      2   1  1.500000    14.331816863     3.790430048     7.981892395   0   0   0 # ca+t
    102      2   1  1.500000    11.594476647     5.607383869     6.008808858   0   0   0 # ca+t
    103      2   2  1.000000    14.405037962     3.452849158     4.903322411   0   0   0 # sc2
    104      2   3  1.000000    15.221734007     5.620099712     2.913446599   0   0   0 # sc3
    105      2   2  1.000000    14.365611088     0.323073683     4.900523664   0   0   0 # sc2
    106      2   4 -0.580000    14.416302591     4.381013869     3.492777505   0   0   0 # oc12
    107      2   4 -0.580000    14.461361780     1.953196556     4.315595471   0   0   0 # oc12
    108      2   5 -0.940000    15.655427950     3.880457653     5.793309063   0   0   0 # oc13
    109      2   5 -0.940000    13.098324156     3.678443208     5.779315327   0   0   0 # oc13
    110      2   6 -1.080000    15.176696777     1.937133043    26.638026598   0   0   0 # oc22
    111      2   7 -0.670000    16.838241978     5.584933985     3.288472492   0   0   0 # oc14
    112      2   8 -0.820000    11.825404573     5.582205810     3.627115294   0   0   0 # o*
    113      2   4 -0.580000    14.455729466     6.939064403     3.503972495   0   0   0 # oc12
    114      2   5 -0.940000    13.002573462     0.199495128     5.784912821   0   0   0 # oc13
    115      2   8 -0.820000    15.531515410     5.558073079    26.419727952   0   0   0 # o*
    116      2   8 -0.820000    11.853566483     3.833717087     0.083961001   0   0   0 # o*
    117      2   9  1.700000    15.131615964     0.065883821     0.053175301   0   0   0 # casl
    118      2   8 -0.820000    14.309287269     3.834900936    -0.000000000   0   0   0 # o*
    119      2   1  1.500000    11.515623234     5.636807498    21.975392395   0   0   0 # ca+t
    120      2   1  1.500000    14.410670277     3.761006418    20.002308858   0   0   0 # ca+t
    121      2   2  1.000000    11.588844332     5.299226608    18.896822411   0   0   0 # sc2
    122      2   3  1.000000    12.405540378     7.466477163    16.906946599   0   0   0 # sc3
    123      2   2  1.000000    11.549417458     2.169451133    18.894023664   0   0   0 # sc2
    124      2   4 -0.580000    11.600108962     6.227391319    17.486277505   0   0   0 # oc12
    125      2   4 -0.580000    11.645168151     3.799574007    18.309095471   0   0   0 # oc12
    126      2   5 -0.940000    12.839234320     5.726835103    19.786809063   0   0   0 # oc13
    127      2   5 -0.940000    10.282130526     5.524820658    19.772815327   0   0   0 # oc13
    128      2   6 -1.080000    12.360503147     3.783510494    12.644526598   0   0   0 # oc22
    129      2   7 -0.670000    14.022048348     7.431311435    17.281972492   0   0   0 # oc14
    130      2   8 -0.820000    14.641598202     3.735828360    17.620615294   0   0   0 # o*
    131      2   4 -0.580000    11.639535836     1.360441853    17.497472495   0   0   0 # oc12
    132      2   5 -0.940000    10.186379833     2.045872578    19.778412821   0   0   0 # oc13
    133      2   8 -0.820000    12.715321780     7.404450529    12.426227952   0   0   0 # o*
    134      2   1  1.500000    14.331816863     7.502930047    20.005107605   0   0   0 # ca+t
    135      2   1  1.500000    11.594476647     1.894883868    21.978191142   0   0   0 # ca+t
    136      2   2  1.000000    14.405037962     7.165349157    23.083677589   0   0   0 # sc2
    137      2   3  1.000000    15.221734007     1.907599713    25.073553401   0   0   0 # sc3
    138      2   2  1.000000    14.365611088     4.035573682    23.086476336   0   0   0 # sc2
    139      2   4 -0.580000    14.416302591     0.668513868    24.494222495   0   0   0 # oc12
    140      2   4 -0.580000    14.461361781     5.665696556    23.671404529   0   0   0 # oc12
    141      2   5 -0.940000    13.098324155     7.390943209    22.207684673   0   0   0 # oc13
    142      2   6 -1.080000    15.176675153     5.649641591     1.348973402   0   0   0 # oc22
    143      2   7 -0.670000    16.838241977     1.872433985    24.698527508   0   0   0 # oc14
    144      2   8 -0.820000    11.825404573     1.869705810    24.359884706   0   0   0 # o*
    145      2   4 -0.580000    14.455729466     3.226564402    24.483027505   0   0   0 # oc12
    146      2   5 -0.940000    13.002573462     3.911995128    22.202087179   0   0   0 # oc13
    147      2   5 -0.940000    15.711773392     3.687596441    22.196489684   0   0   0 # oc13
    148      2   8 -0.820000    15.531515410     1.845573079     1.567272048   0   0   0 # o*
    149      2   8 -0.820000    11.853566482     7.546217088    -0.083961001   0   0   1 # o*
    150      2   1  1.500000    11.515623233     1.924307498     6.011607605   0   0   0 # ca+t
    151      2   1  1.500000    14.410670277     7.473506418     7.984691142   0   0   0 # ca+t
    152      2   2  1.000000    11.588844332     1.586726608     9.090177589   0   0   0 # sc2
    153      2   3  1.000000    12.405540377     3.753977163    11.080053401   0   0   0 # sc3
    154      2   2  1.000000    11.549417458     5.881951132     9.092976336   0   0   0 # sc2
    155      2   4 -0.580000    11.600108962     2.514891319    10.500722495   0   0   0 # oc12
    156      2   4 -0.580000    11.645168151     7.512074007     9.677904529   0   0   0 # oc12
    157      2   5 -0.940000    10.282130526     1.812320659     8.214184673   0   0   0 # oc13
    158      2   6 -1.080000    12.360481524     7.496019042    15.342473402   0   0   0 # oc22
    159      2   7 -0.670000    14.022048348     3.718811435    10.705027508   0   0   0 # oc14
    160      2   8 -0.820000    14.641598203     7.448328360    10.366384706   0   0   0 # o*
    161      2   4 -0.580000    11.639535836     5.072941853    10.489527505   0   0   0 # oc12
    162      2   5 -0.940000    10.186379832     5.758372578     8.208587179   0   0   0 # oc13
    163      2   5 -0.940000    12.895579762     5.533973891     8.202989684   0   0   0 # oc13
    164      2   8 -0.820000    12.715321780     3.691950530    15.560772048   0   0   0 # o*
    165      2   8 -0.820000    15.593450025     1.938611388    14.077461001   0   0   0 # o*
    166      2   8 -0.820000    14.669760112     5.699839637    13.909538999   0   0   0 # o*
    167      2   9  1.700000    12.315422335     5.624761272    13.940324699   0   0   0 # casl
    168      2   8 -0.820000    11.493093638     1.968778386    13.993500000   0   0   0 # o*
    169      2  10  0.400000    17.434108951     1.938259743    25.423346563   0   0   0 # hoy
    170      2  10  0.400000    14.614367651     7.509707637    16.556567616   0   0   0 # hoy
    171      2  10  0.400000    14.595962360     3.326299589    11.336226581   0   0   0 # hoy
    172      2  10  0.400000    17.423343087     5.588902590     2.550392443   0   0   0 # hoy
    173      2  11  0.410000    15.838347827     1.710600388     2.498299190   0   0   0 # h*
    174      2  11  0.410000    15.008226762     2.667070694     1.712690205   0   0   0 # h*
    175      2  11  0.410000    12.181672849     6.393231589     3.197921326   0   0   0 # h*
    176      2  11  0.410000    12.547110188     4.950500267     3.386507348   0   0   0 # h*
    177      2  11  0.410000    12.340228987     4.530331695     0.576324689   0   0   0 # h*
    178      2  11  0.410000    12.668565989     3.384572219    -0.248548595   0   0   0 # h*
    179      2  11  0.410000    14.877425865     3.131760414    -0.412339625   0   0   0 # h*
    180      2  11  0.410000    14.920951694     4.430991258     0.507734712   0   0   0 # h*
    181      2  11  0.410000    14.197196853     7.454692146    11.240697981   0   0   0 # h*
    182      2  11  0.410000    15.554669549     7.182930692    10.628428401   0   0   0 # h*
    183      2  11  0.410000    12.285118043     8.249469415    12.704850912   0   0   0 # h*
    184      2  11  0.410000    12.333093224     7.347345940    11.510968959   0   0   0 # h*
    185      2  11  0.410000    15.129862602     5.713603070    13.042448887   0   0   0 # h*
    186      2  11  0.410000    15.500084732     5.642759124    14.441054179   0   0   0 # h*
    187      2  11  0.410000    14.969022495     1.192805367    13.947312897   0   0   0 # h*
    188      2  11  0.410000    14.964157709     2.648424903    14.334808815   0   0   0 # h*
    189      2  11  0.410000    12.090950897     2.938884248    15.649539152   0   0   0 # h*
    190      2  11  0.410000    12.984845715     3.769139513    16.507602957   0   0   0 # h*
    191      2  11  0.410000    12.081759553     1.357194081    14.515919081   0   0   0 # h*
    192      2  11  0.410000    12.092642309     2.661992304    13.603581679   0   0   0 # h*
    193      2  11  0.410000    15.054424343     4.534065679    17.219969855   0   0   0 # h*
    194      2  11  0.410000    15.322840234     3.068576163    17.360758008   0   0   0 # h*
    195      2  11  0.410000    12.170617796     2.665259016    24.823259273   0   0   0 # h*
    196      2  11  0.410000    12.504629011     1.216075447    24.654904704   0   0   0 # h*
    197      2  11  0.410000    11.225409165     6.814559718    -0.258153482   0   0   1 # h*
    198      2  11  0.410000    11.295746601     8.319963065    -0.320048786   0   0   1 # h*
    199      2  11  0.410000    14.893687509     4.807082073    26.448947827   0   0   0 # h*
    200      2  11  0.410000    15.705081346     5.570545761    25.446882538   0   0   0 # h*
    201      3   1  1.500000     3.067016863    11.215430048     7.981892395   0   0   0 # ca+t
    202      3   1  1.500000     0.329676647    13.032383869     6.008808858   0   0   0 # ca+t
    203      3   2  1.000000     3.140237962    10.877849158     4.903322411   0   0   0 # sc2
    204      3   3  1.000000     3.956934007    13.045099712     2.913446599   0   0   0 # sc3
    205      3   2  1.000000     3.100811088     7.748073683     4.900523664   0   0   0 # sc2
    206      3   4 -0.580000     3.151502591    11.806013869     3.492777505   0   0   0 # oc12
    207      3   4 -0.580000     3.196561780     9.378196556     4.315595471   0   0   0 # oc12
    208      3   5 -0.940000     4.390627950    11.305457653     5.793309063   0   0   0 # oc13
    209      3   5 -0.940000     1.833524156    11.103443208     5.779315327   0   0   0 # oc13
    210      3   6 -1.080000     3.911896777     9.362133043    26.638026598   0   0   0 # oc22
    211      3   7 -0.670000     5.573441978    13.009933985     3.288472492   0   0   0 # oc14
    212      3   8 -0.820000     0.560604573    13.007205810     3.627115294   0   0   0 # o*
    213      3   4 -0.580000     3.190929466    14.364064403     3.503972495   0   0   0 # oc12
    214      3   5 -0.940000     1.737773462     7.624495128     5.784912821   0   0   0 # oc13
    215      3   8 -0.820000     4.266715410    12.983073079    26.419727952   0   0   0 # o*
    216      3   8 -0.820000     0.588766483    11.258717087     0.083961001   0   0   0 # o*
    217      3   9  1.700000     3.866815964     7.490883821     0.053175301   0   0   0 # casl
    218      3   8 -0.820000     3.044487269    11.259900936    -0.000000000   0   0   0 # o*
    219      3   1  1.500000     0.250823234    13.061807498    21.975392395   0   0   0 # ca+t
    220      3   1  1.500000     3.145870277    11.186006418    20.002308858   0   0   0 # ca+t
    221      3   2  1.000000     0.324044332    12.724226608    18.896822411   0   0   0 # sc2
    222      3   3  1.000000     1.140740378    14.891477163    16.906946599   0   0   0 # sc3
    223      3   2  1.000000     0.284617458     9.594451133    18.894023664   0   0   0 # sc2
    224      3   4 -0.580000     0.335308962    13.652391319    17.486277505   0   0   0 # oc12
    225      3   4 -0.580000     0.380368151    11.224574007    18.309095471   0   0   0 # oc12
    226      3   5 -0.940000     1.574434320    13.151835103    19.786809063   0   0   0 # oc13
    227      3   5 -0.940000    21.546930526    12.949820658    19.772815327  -1   0   0 # oc13
    228      3   6 -1.080000     1.095703147    11.208510494    12.644526598   0   0   0 # oc22
    229      3   7 -0.670000     2.757248348    14.856311435    17.281972492   0   0   0 # oc14
    230      3   8 -0.820000     3.376798202    11.160828360    17.620615294   0   0   0 # o*
    231      3   4 -0.580000     0.374735836     8.785441853    17.497472495   0   0   0 # oc12
    232      3   5 -0.940000    21.451179833     9.470872578    19.778412821  -1   0   0 # oc13
    233      3   8 -0.820000     1.450521780    14.829450529    12.426227952   0   0   0 # o*
    234      3   1  1.500000     3.067016863    14.927930047    20.005107605   0   0   0 # ca+t
    235      3   1  1.500000     0.329676647     9.319883868    21.978191142   0   0   0 # ca+t
    236      3   2  1.000000     3.140237962    14.590349157    23.083677589   0   0   0 # sc2
    237      3   3  1.000000     3.956934007     9.332599713    25.073553401   0   0   0 # sc3
    238      3   2  1.000000     3.100811088    11.460573682    23.086476336   0   0   0 # sc2
    239      3   4 -0.580000     3.151502591     8.093513868    24.494222495   0   0   0 # oc12
    240      3   4 -0.580000     3.196561781    13.090696556    23.671404529   0   0   0 # oc12
    241      3   5 -0.940000     1.833524155    14.815943209    22.207684673   0   0   0 # oc13
    242      3   6 -1.080000     3.911875153    13.074641591     1.348973402   0   0   0 # oc22
    243      3   7 -0.670000     5.573441977     9.297433985    24.698527508   0   0   0 # oc14
    244      3   8 -0.820000     0.560604573     9.294705810    24.359884706   0   0   0 # o*
    245      3   4 -0.580000     3.190929466    10.651564402    24.483027505   0   0   0 # oc12
    246      3   5 -0.940000     1.737773462    11.336995128    22.202087179   0   0   0 # oc13
    247      3   5 -0.940000     4.446973392    11.112596441    22.196489684   0   0   0 # oc13
    248      3   8 -0.820000     4.266715410     9.270573079     1.567272048   0   0   0 # o*
    249      3   8 -0.820000     0.588766482    14.971217088    -0.083961001   0   0   1 # o*
    250      3   1  1.500000     0.250823233     9.349307498     6.011607605   0   0   0 # ca+t
    251      3   1  1.500000     3.145870277    14.898506418     7.984691142   0   0   0 # ca+t
    252      3   2  1.000000     0.324044332     9.011726608     9.090177589   0   0   0 # sc2
    253      3   3  1.000000     1.140740377    11.178977163    11.080053401   0   0   0 # sc3
    254      3   2  1.000000     0.284617458    13.306951132     9.092976336   0   0   0 # sc2
    255      3   4 -0.580000     0.335308962     9.939891319    10.500722495   0   0   0 # oc12
    256      3   4 -0.580000     0.380368151    14.937074007     9.677904529   0   0   0 # oc12
    257      3   5 -0.940000    21.546930526     9.237320659     8.214184673  -1   0   0 # oc13
    258      3   6 -1.080000     1.095681524    14.921019042    15.342473402   0   0   0 # oc22
    259      3   7 -0.670000     2.757248348    11.143811435    10.705027508   0   0   0 # oc14
    260      3   8 -0.820000     3.376798203    14.873328360    10.366384706   0   0   0 # o*
    261      3   4 -0.580000     0.374735836    12.497941853    10.489527505   0   0   0 # oc12
    262      3   5 -0.940000    21.451179832    13.183372578     8.208587179  -1   0   0 # oc13
    263      3   5 -0.940000     1.630779762    12.958973891     8.202989684   0   0   0 # oc13
    264      3   8 -0.820000     1.450521780    11.116950530    15.560772048   0   0   0 # o*
    265      3   8 -0.820000     4.328650025     9.363611388    14.077461001   0   0   0 # o*
    266      3   8 -0.820000     3.404960112    13.124839637    13.909538999   0   0   0 # o*
    267      3   9  1.700000     1.050622335    13.049761272    13.940324699   0   0   0 # casl
    268      3   8 -0.820000     0.228293638     9.393778386    13.993500000   0   0   0 # o*
    269      3  10  0.400000     6.169308951     9.363259743    25.423346563   0   0   0 # hoy
    270      3  10  0.400000     3.349567651    14.934707637    16.556567616   0   0   0 # hoy
    271      3  10  0.400000     3.331162360    10.751299589    11.336226581   0   0   0 # hoy
    272      3  10  0.400000     6.158543087    13.013902590     2.550392443   0   0   0 # hoy
    273      3  11  0.410000     4.573547827     9.135600388     2.498299190   0   0   0 # h*
    274      3  11  0.410000     3.743426762    10.092070694     1.712690205   0   0   0 # h*
    275      3  11  0.410000     0.916872849    13.818231589     3.197921326   0   0   0 # h*
    276      3  11  0.410000     1.282310188    12.375500267     3.386507348   0   0   0 # h*
    277      3  11  0.410000     1.075428987    11.955331695     0.576324689   0   0   0 # h*
    278      3  11  0.410000     1.403765989    10.809572219    -0.248548595   0   0   0 # h*
    279      3  11  0.410000     3.612625865    10.556760414    -0.412339625   0   0   0 # h*
    280      3  11  0.410000     3.656151694    11.855991258     0.507734712   0   0   0 # h*
    281      3  11  0.410000     2.932396853    14.879692146    11.240697981   0   0   0 # h*
    282      3  11  0.410000     4.289869549    14.607930692    10.628428401   0   0   0 # h*
    283      3  11  0.410000     1.020318043    15.674469415    12.704850912   0   0   0 # h*
    284      3  11  0.410000     1.068293224    14.772345940    11.510968959   0   0   0 # h*
    285      3  11  0.410000     3.865062602    13.138603070    13.042448887   0   0   0 # h*
    286      3  11  0.410000     4.235284732    13.067759124    14.441054179   0   0   0 # h*
    287      3  11  0.410000     3.704222495     8.617805367    13.947312897   0   0   0 # h*
    288      3  11  0.410000     3.699357709    10.073424903    14.334808815   0   0   0 # h*
    289      3  11  0.410000     0.826150897    10.363884248    15.649539152   0   0   0 # h*
    290      3  11  0.410000     1.720045715    11.194139513    16.507602957   0   0   0 # h*
    291      3  11  0.410000     0.816959553     8.782194081    14.515919081   0   0   0 # h*
    292      3  11  0.410000     0.827842309    10.086992304    13.603581679   0   0   0 # h*
    293      3  11  0.410000     3.789624343    11.959065679    17.219969855   0   0   0 # h*
    294      3  11  0.410000     4.058040234    10.493576163    17.360758008   0   0   0 # h*
    295      3  11  0.410000     0.905817796    10.090259016    24.823259273   0   0   0 # h*
    296      3  11  0.410000     1.239829011     8.641075447    24.654904704   0   0   0 # h*
    297      3  11  0.410000    -0.039390835    14.239559718    -0.258153482   0   0   1 # h*
    298      3  11  0.410000     0.030946601    15.744963065    -0.320048786   0   0   1 # h*
    299      3  11  0.410000     3.628887509    12.232082073    26.448947827   0   0   0 # h*
    300      3  11  0.410000     4.440281346    12.995545761    25.446882538   0   0   0 # h*
    301      4   1  1.500000    14.331816863    11.215430048     7.981892395   0   0   0 # ca+t
    302      4   1  1.500000    11.594476647    13.032383869     6.008808858   0   0   0 # ca+t
    303      4   2  1.000000    14.405037962    10.877849158     4.903322411   0   0   0 # sc2
    304      4   3  1.000000    15.221734007    13.045099712     2.913446599   0   0   0 # sc3
    305      4   2  1.000000    14.365611088     7.748073683     4.900523664   0   0   0 # sc2
    306      4   4 -0.580000    14.416302591    11.806013869     3.492777505   0   0   0 # oc12
    307      4   4 -0.580000    14.461361780     9.378196556     4.315595471   0   0   0 # oc12
    308      4   5 -0.940000    15.655427950    11.305457653     5.793309063   0   0   0 # oc13
    309      4   5 -0.940000    13.098324156    11.103443208     5.779315327   0   0   0 # oc13
    310      4   6 -1.080000    15.176696777     9.362133043    26.638026598   0   0   0 # oc22
    311      4   7 -0.670000    16.838241978    13.009933985     3.288472492   0   0   0 # oc14
    312      4   8 -0.820000    11.825404573    13.007205810     3.627115294   0   0   0 # o*
    313      4   4 -0.580000    14.455729466    14.364064403     3.503972495   0   0   0 # oc12
    314      4   5 -0.940000    13.002573462     7.624495128     5.784912821   0   0   0 # oc13
    315      4   8 -0.820000    15.531515410    12.983073079    26.419727952   0   0   0 # o*
    316      4   8 -0.820000    11.853566483    11.258717087     0.083961001   0   0   0 # o*
    317      4   9  1.700000    15.131615964     7.490883821     0.053175301   0   0   0 # casl
    318      4   8 -0.820000    14.309287269    11.259900936    -0.000000000   0   0   0 # o*
    319      4   1  1.500000    11.515623234    13.061807498    21.975392395   0   0   0 # ca+t
    320      4   1  1.500000    14.410670277    11.186006418    20.002308858   0   0   0 # ca+t
    321      4   2  1.000000    11.588844332    12.724226608    18.896822411   0   0   0 # sc2
    322      4   3  1.000000    12.405540378    14.891477163    16.906946599   0   0   0 # sc3
    323      4   2  1.000000    11.549417458     9.594451133    18.894023664   0   0   0 # sc2
    324      4   4 -0.580000    11.600108962    13.652391319    17.486277505   0   0   0 # oc12
    325      4   4 -0.580000    11.645168151    11.224574007    18.309095471   0   0   0 # oc12
    326      4   5 -0.940000    12.839234320    13.151835103    19.786809063   0   0   0 # oc13
    327      4   5 -0.940000    10.282130526    12.949820658    19.772815327   0   0   0 # oc13
    328      4   6 -1.080000    12.360503147    11.208510494    12.644526598   0   0   0 # oc22
    329      4   7 -0.670000    14.022048348    14.856311435    17.281972492   0   0   0 # oc14
    330      4   8 -0.820000    14.641598202    11.160828360    17.620615294   0   0   0 # o*
    331      4   4 -0.580000    11.639535836     8.785441853    17.497472495   0   0   0 # oc12
    332      4   5 -0.940000    10.186379833     9.470872578    19.778412821   0   0   0 # oc13
    333      4   8 -0.820000    12.715321780    14.829450529    12.426227952   0   0   0 # o*
    334      4   1  1.500000    14.331816863    14.927930047    20.005107605   0   0   0 # ca+t
    335      4   1  1.500000    11.594476647     9.319883868    21.978191142   0   0   0 # ca+t
    336      4   2  1.000000    14.405037962    14.590349157    23.083677589   0   0   0 # sc2
    337      4   3  1.000000    15.221734007     9.332599713    25.073553401   0   0   0 # sc3
    338      4   2  1.000000    14.365611088    11.460573682    23.086476336   0   0   0 # sc2
    339      4   4 -0.580000    14.416302591     8.093513868    24.494222495   0   0   0 # oc12
    340      4   4 -0.580000    14.461361781    13.090696556    23.671404529   0   0   0 # oc12
    341      4   5 -0.940000    13.098324155    14.815943209    22.207684673   0   0   0 # oc13
    342      4   6 -1.080000    15.176675153    13.074641591     1.348973402   0   0   0 # oc22
    343      4   7 -0.670000    16.838241977     9.297433985    24.698527508   0   0   0 # oc14
    344      4   8 -0.820000    11.825404573     9.294705810    24.359884706   0   0   0 # o*
    345      4   4 -0.580000    14.455729466    10.651564402    24.483027505   0   0   0 # oc12
    346      4   5 -0.940000    13.002573462    11.336995128    22.202087179   0   0   0 # oc13
    347      4   5 -0.940000    15.711773392    11.112596441    22.196489684   0   0   0 # oc13
    348      4   8 -0.820000    15.531515410     9.270573079     1.567272048   0   0   0 # o*
    349      4   8 -0.820000    11.853566482    14.971217088    -0.083961001   0   0   1 # o*
    350      4   1  1.500000    11.515623233     9.349307498     6.011607605   0   0   0 # ca+t
    351      4   1  1.500000    14.410670277    14.898506418     7.984691142   0   0   0 # ca+t
    352      4   2  1.000000    11.588844332     9.011726608     9.090177589   0   0   0 # sc2
    353      4   3  1.000000    12.405540377    11.178977163    11.080053401   0   0   0 # sc3
    354      4   2  1.000000    11.549417458    13.306951132     9.092976336   0   0   0 # sc2
    355      4   4 -0.580000    11.600108962     9.939891319    10.500722495   0   0   0 # oc12
    356      4   4 -0.580000    11.645168151    14.937074007     9.677904529   0   0   0 # oc12
    357      4   5 -0.940000    10.282130526     9.237320659     8.214184673   0   0   0 # oc13
    358      4   6 -1.080000    12.360481524    14.921019042    15.342473402   0   0   0 # oc22
    359      4   7 -0.670000    14.022048348    11.143811435    10.705027508   0   0   0 # oc14
    360      4   8 -0.820000    14.641598203    14.873328360    10.366384706   0   0   0 # o*
    361      4   4 -0.580000    11.639535836    12.497941853    10.489527505   0   0   0 # oc12
    362      4   5 -0.940000    10.186379832    13.183372578     8.208587179   0   0   0 # oc13
    363      4   5 -0.940000    12.895579762    12.958973891     8.202989684   0   0   0 # oc13
    364      4   8 -0.820000    12.715321780    11.116950530    15.560772048   0   0   0 # o*
    365      4   8 -0.820000    15.593450025     9.363611388    14.077461001   0   0   0 # o*
    366      4   8 -0.820000    14.669760112    13.124839637    13.909538999   0   0   0 # o*
    367      4   9  1.700000    12.315422335    13.049761272    13.940324699   0   0   0 # casl
    368      4   8 -0.820000    11.493093638     9.393778386    13.993500000   0   0   0 # o*
    369      4  10  0.400000    17.434108951     9.363259743    25.423346563   0   0   0 # hoy
    370      4  10  0.400000    14.614367651    14.934707637    16.556567616   0   0   0 # hoy
    371      4  10  0.400000    14.595962360    10.751299589    11.336226581   0   0   0 # hoy
    372      4  10  0.400000    17.423343087    13.013902590     2.550392443   0   0   0 # hoy
    373      4  11  0.410000    15.838347827     9.135600388     2.498299190   0   0   0 # h*
    374      4  11  0.410000    15.008226762    10.092070694     1.712690205   0   0   0 # h*
    375      4  11  0.410000    12.181672849    13.818231589     3.197921326   0   0   0 # h*
    376      4  11  0.410000    12.547110188    12.375500267     3.386507348   0   0   0 # h*
    377      4  11  0.410000    12.340228987    11.955331695     0.576324689   0   0   0 # h*
    378      4  11  0.410000    12.668565989    10.809572219    -0.248548595   0   0   0 # h*
    379      4  11  0.410000    14.877425865    10.556760414    -0.412339625   0   0   0 # h*
    380      4  11  0.410000    14.920951694    11.855991258     0.507734712   0   0   0 # h*
    381      4  11  0.410000    14.197196853    14.879692146    11.240697981   0   0   0 # h*
    382      4  11  0.410000    15.554669549    14.607930692    10.628428401   0   0   0 # h*
    383      4  11  0.410000    12.285118043    15.674469415    12.704850912   0   0   0 # h*
    384      4  11  0.410000    12.333093224    14.772345940    11.510968959   0   0   0 # h*
    385      4  11  0.410000    15.129862602    13.138603070    13.042448887   0   0   0 # h*
    386      4  11  0.410000    15.500084732    13.067759124    14.441054179   0   0   0 # h*
    387      4  11  0.410000    14.969022495     8.617805367    13.947312897   0   0   0 # h*
    388      4  11  0.410000    14.964157709    10.073424903    14.334808815   0   0   0 # h*
    389      4  11  0.410000    12.090950897    10.363884248    15.649539152   0   0   0 # h*
    390      4  11  0.410000    12.984845715    11.194139513    16.507602957   0   0   0 # h*
    391      4  11  0.410000    12.081759553     8.782194081    14.515919081   0   0   0 # h*
    392      4  11  0.410000    12.092642309    10.086992304    13.603581679   0   0   0 # h*
    393      4  11  0.410000    15.054424343    11.959065679    17.219969855   0   0   0 # h*
    394      4  11  0.410000    15.322840234    10.493576163    17.360758008   0   0   0 # h*
    395      4  11  0.410000    12.170617796    10.090259016    24.823259273   0   0   0 # h*
    396      4  11  0.410000    12.504629011     8.641075447    24.654904704   0   0   0 # h*
    397      4  11  0.410000    11.225409165    14.239559718    -0.258153482   0   0   1 # h*
    398      4  11  0.410000    11.295746601    15.744963065    -0.320048786   0   0   1 # h*
    399      4  11  0.410000    14.893687509    12.232082073    26.448947827   0   0   0 # h*
    400      4  11  0.410000    15.705081346    12.995545761    25.446882538   0   0   0 # h*
    401      5   1  1.500000     3.067016863    18.640430048     7.981892395   0   0   0 # ca+t
    402      5   1  1.500000     0.329676647    20.457383869     6.008808858   0   0   0 # ca+t
    403      5   2  1.000000     3.140237962    18.302849158     4.903322411   0   0   0 # sc2
    404      5   3  1.000000     3.956934007    20.470099712     2.913446599   0   0   0 # sc3
    405      5   2  1.000000     3.100811088    15.173073683     4.900523664   0   0   0 # sc2
    406      5   4 -0.580000     3.151502591    19.231013869     3.492777505   0   0   0 # oc12
    407      5   4 -0.580000     3.196561780    16.803196556     4.315595471   0   0   0 # oc12
    408      5   5 -0.940000     4.390627950    18.730457653     5.793309063   0   0   0 # oc13
    409      5   5 -0.940000     1.833524156    18.528443208     5.779315327   0   0   0 # oc13
    410      5   6 -1.080000     3.911896777    16.787133043    26.638026598   0   0   0 # oc22
    411      5   7 -0.670000     5.573441978    20.434933985     3.288472492   0   0   0 # oc14
    412      5   8 -0.820000     0.560604573    20.432205810     3.627115294   0   0   0 # o*
    413      5   4 -0.580000     3.190929466    21.789064403     3.503972495   0   0   0 # oc12
    414      5   5 -0.940000     1.737773462    15.049495128     5.784912821   0   0   0 # oc13
    415      5   8 -0.820000     4.266715410    20.408073079    26.419727952   0   0   0 # o*
    416      5   8 -0.820000     0.588766483    18.683717087     0.083961001   0   0   0 # o*
    417      5   9  1.700000     3.866815964    14.915883821     0.053175301   0   0   0 # casl
    418      5   8 -0.820000     3.044487269    18.684900936    -0.000000000   0   0   0 # o*
    419      5   1  1.500000     0.250823234    20.486807498    21.975392395   0   0   0 # ca+t
    420      5   1  1.500000     3.145870277    18.611006418    20.002308858   0   0   0 # ca+t
    421      5   2  1.000000     0.324044332    20.149226608    18.896822411   0   0   0 # sc2
    422      5   2  1.000000     0.284617458    17.019451133    18.894023664   0   0   0 # sc2
    423      5   4 -0.580000     0.335308962    21.077391319    17.486277505   0   0   0 # oc12
    424      5   4 -0.580000     0.380368151    18.649574007    18.309095471   0   0   0 # oc12
    425      5   5 -0.940000     1.574434320    20.576835103    19.786809063   0   0   0 # oc13
    426      5   5 -0.940000    21.546930526    20.374820658    19.772815327  -1   0   0 # oc13
    427      5   6 -1.080000     1.095703147    18.633510494    12.644526598   0   0   0 # oc22
    428      5   8 -0.820000     3.376798202    18.585828360    17.620615294   0   0   0 # o*
    429      5   4 -0.580000     0.374735836    16.210441853    17.497472495   0   0   0 # oc12
    430      5   5 -0.940000    21.451179833    16.895872578    19.778412821  -1   0   0 # oc13
    431      5   1  1.500000     0.329676647    16.744883868    21.978191142   0   0   0 # ca+t
    432      5   2  1.000000     3.140237962    -0.259650843    23.083677589   0   1   0 # sc2
    433      5   3  1.000000     3.956934007    16.757599713    25.073553401   0   0   0 # sc3
    434      5   2  1.000000     3.100811088    18.885573682    23.086476336   0   0   0 # sc2
    435      5   4 -0.580000     3.151502591    15.518513868    24.494222495   0   0   0 # oc12
    436      5   4 -0.580000     3.196561781    20.515696556    23.671404529   0   0   0 # oc12
    437      5   5 -0.940000     1.833524155    -0.034056791    22.207684673   0   1   0 # oc13
    438      5   6 -1.080000     3.911875153    20.499641591     1.348973402   0   0   0 # oc22
    439      5   7 -0.670000     5.573441977    16.722433985    24.698527508   0   0   0 # oc14
    440      5   8 -0.820000     0.560604573    16.719705810    24.359884706   0   0   0 # o*
    441      5   4 -0.580000     3.190929466    18.076564402    24.483027505   0   0   0 # oc12
    442      5   5 -0.940000     1.737773462    18.761995128    22.202087179   0   0   0 # oc13
    443      5   5 -0.940000     4.446973392    18.537596441    22.196489684   0   0   0 # oc13
    444      5   8 -0.820000     4.266715410    16.695573079     1.567272048   0   0   0 # o*
    445      5   1  1.500000     0.250823233    16.774307498     6.011607605   0   0   0 # ca+t
    446      5   2  1.000000     0.324044332    16.436726608     9.090177589   0   0   0 # sc2
    447      5   3  1.000000     1.140740377    18.603977163    11.080053401   0   0   0 # sc3
    448      5   2  1.000000     0.284617458    20.731951132     9.092976336   0   0   0 # sc2
    449      5   4 -0.580000     0.335308962    17.364891319    10.500722495   0   0   0 # oc12
    450      5   5 -0.940000    21.546930526    16.662320659     8.214184673  -1   0   0 # oc13
    451      5   7 -0.670000     2.757248348    18.568811435    10.705027508   0   0   0 # oc14
    452      5   8 -0.820000     3.376798203     0.023328360    10.366384706   0   1   0 # o*
    453      5   4 -0.580000     0.374735836    19.922941853    10.489527505   0   0   0 # oc12
    454      5   5 -0.940000    21.451179832    20.608372578     8.208587179  -1   0   0 # oc13
    455      5   5 -0.940000     1.630779762    20.383973891     8.202989684   0   0   0 # oc13
    456      5   8 -0.820000     1.450521780    18.541950530    15.560772048   0   0   0 # o*
    457      5   8 -0.820000     4.328650025    16.788611388    14.077461001   0   0   0 # o*
    458      5   8 -0.820000     3.404960112    20.549839637    13.909538999   0   0   0 # o*
    459      5   9  1.700000     1.050622335    20.474761272    13.940324699   0   0   0 # casl
    460      5   8 -0.820000     0.228293638    16.818778386    13.993500000   0   0   0 # o*
    461      5  10  0.400000     6.169308951    16.788259743    25.423346563   0   0   0 # hoy
    462      5  10  0.400000     3.331162360    18.176299589    11.336226581   0   0   0 # hoy
    463      5  10  0.400000     6.158543087    20.438902590     2.550392443   0   0   0 # hoy
    464      5  11  0.410000     4.573547827    16.560600388     2.498299190   0   0   0 # h*
    465      5  11  0.410000     3.743426762    17.517070694     1.712690205   0   0   0 # h*
    466      5  11  0.410000     0.916872849    21.243231589     3.197921326   0   0   0 # h*
    467      5  11  0.410000     1.282310188    19.800500267     3.386507348   0   0   0 # h*
    468      5  11  0.410000     1.075428987    19.380331695     0.576324689   0   0   0 # h*
    469      5  11  0.410000     1.403765989    18.234572219    -0.248548595   0   0   0 # h*
    470      5  11  0.410000     3.612625865    17.981760414    -0.412339625   0   0   0 # h*
    471      5  11  0.410000     3.656151694    19.280991258     0.507734712   0   0   0 # h*
    472      5  11  0.410000     2.932396853     0.029692146    11.240697981   0   1   0 # h*
    473      5  11  0.410000     4.289869549    -0.242069308    10.628428401   0   1   0 # h*
    474      5  11  0.410000     3.865062602    20.563603070    13.042448887   0   0   0 # h*
    475      5  11  0.410000     4.235284732    20.492759124    14.441054179   0   0   0 # h*
    476      5  11  0.410000     3.704222495    16.042805367    13.947312897   0   0   0 # h*
    477      5  11  0.410000     3.699357709    17.498424903    14.334808815   0   0   0 # h*
    478      5  11  0.410000     0.826150897    17.788884248    15.649539152   0   0   0 # h*
    479      5  11  0.410000     1.720045715    18.619139513    16.507602957   0   0   0 # h*
    480      5  11  0.410000     0.816959553    16.207194081    14.515919081   0   0   0 # h*
    481      5  11  0.410000     0.827842309    17.511992304    13.603581679   0   0   0 # h*
    482      5  11  0.410000     3.789624343    19.384065679    17.219969855   0   0   0 # h*
    483      5  11  0.410000     4.058040234    17.918576163    17.360758008   0   0   0 # h*
    484      5  11  0.410000     0.905817796    17.515259016    24.823259273   0   0   0 # h*
    485      5  11  0.410000     1.239829011    16.066075447    24.654904704   0   0   0 # h*
    486      5  11  0.410000     3.628887509    19.657082073    26.448947827   0   0   0 # h*
    487      5  11  0.410000     4.440281346    20.420545761    25.446882538   0   0   0 # h*
    488      6   1  1.500000    14.331816863    18.640430048     7.981892395   0   0   0 # ca+t
    489      6   1  1.500000    11.594476647    20.457383869     6.008808858   0   0   0 # ca+t
    490      6   2  1.000000    14.405037962    18.302849158     4.903322411   0   0   0 # sc2
    491      6   3  1.000000    15.221734007    20.470099712     2.913446599   0   0   0 # sc3
    492      6   2  1.000000    14.365611088    15.173073683     4.900523664   0   0   0 # sc2
    493      6   4 -0.580000    14.416302591    19.231013869     3.492777505   0   0   0 # oc12
    494      6   4 -0.580000    14.461361780    16.803196556     4.315595471   0   0   0 # oc12
    495      6   5 -0.940000    15.655427950    18.730457653     5.793309063   0   0   0 # oc13
    496      6   5 -0.940000    13.098324156    18.528443208     5.779315327   0   0   0 # oc13
    497      6   6 -1.080000    15.176696777    16.787133043    26.638026598   0   0   0 # oc22
    498      6   7 -0.670000    16.838241978    20.434933985     3.288472492   0   0   0 # oc14
    499      6   8 -0.820000    11.825404573    20.432205810     3.627115294   0   0   0 # o*
    500      6   4 -0.580000    14.455729466    21.789064403     3.503972495   0   0   0 # oc12
    501      6   5 -0.940000    13.002573462    15.049495128     5.784912821   0   0   0 # oc13
    502      6   8 -0.820000    15.531515410    20.408073079    26.419727952   0   0   0 # o*
    503      6   8 -0.820000    11.853566483    18.683717087     0.083961001   0   0   0 # o*
    504      6   9  1.700000    15.131615964    14.915883821     0.053175301   0   0   0 # casl
    505      6   8 -0.820000    14.309287269    18.684900936    -0.000000000   0   0   0 # o*
    506      6   1  1.500000    11.515623234    20.486807498    21.975392395   0   0   0 # ca+t
    507      6   1  1.500000    14.410670277    18.611006418    20.002308858   0   0   0 # ca+t
    508      6   2  1.000000    11.588844332    20.149226608    18.896822411   0   0   0 # sc2
    509      6   2  1.000000    11.549417458    17.019451133    18.894023664   0   0   0 # sc2
    510      6   4 -0.580000    11.600108962    21.077391319    17.486277505   0   0   0 # oc12
    511      6   4 -0.580000    11.645168151    18.649574007    18.309095471   0   0   0 # oc12
    512      6   5 -0.940000    12.839234320    20.576835103    19.786809063   0   0   0 # oc13
    513      6   5 -0.940000    10.282130526    20.374820658    19.772815327   0   0   0 # oc13
    514      6   6 -1.080000    12.360503147    18.633510494    12.644526598   0   0   0 # oc22
    515      6   8 -0.820000    14.641598202    18.585828360    17.620615294   0   0   0 # o*
    516      6   4 -0.580000    11.639535836    16.210441853    17.497472495   0   0   0 # oc12
    517      6   5 -0.940000    10.186379833    16.895872578    19.778412821   0   0   0 # oc13
    518      6   1  1.500000    11.594476647    16.744883868    21.978191142   0   0   0 # ca+t
    519      6   2  1.000000    14.405037962    -0.259650843    23.083677589   0   1   0 # sc2
    520      6   3  1.000000    15.221734007    16.757599713    25.073553401   0   0   0 # sc3
    521      6   2  1.000000    14.365611088    18.885573682    23.086476336   0   0   0 # sc2
    522      6   4 -0.580000    14.416302591    15.518513868    24.494222495   0   0   0 # oc12
    523      6   4 -0.580000    14.461361781    20.515696556    23.671404529   0   0   0 # oc12
    524      6   5 -0.940000    13.098324155    -0.034056791    22.207684673   0   1   0 # oc13
    525      6   6 -1.080000    15.176675153    20.499641591     1.348973402   0   0   0 # oc22
    526      6   7 -0.670000    16.838241977    16.722433985    24.698527508   0   0   0 # oc14
    527      6   8 -0.820000    11.825404573    16.719705810    24.359884706   0   0   0 # o*
    528      6   4 -0.580000    14.455729466    18.076564402    24.483027505   0   0   0 # oc12
    529      6   5 -0.940000    13.002573462    18.761995128    22.202087179   0   0   0 # oc13
    530      6   5 -0.940000    15.711773392    18.537596441    22.196489684   0   0   0 # oc13
    531      6   8 -0.820000    15.531515410    16.695573079     1.567272048   0   0   0 # o*
    532      6   1  1.500000    11.515623233    16.774307498     6.011607605   0   0   0 # ca+t
    533      6   2  1.000000    11.588844332    16.436726608     9.090177589   0   0   0 # sc2
    534      6   3  1.000000    12.405540377    18.603977163    11.080053401   0   0   0 # sc3
    535      6   2  1.000000    11.549417458    20.731951132     9.092976336   0   0   0 # sc2
    536      6   4 -0.580000    11.600108962    17.364891319    10.500722495   0   0   0 # oc12
    537      6   5 -0.940000    10.282130526    16.662320659     8.214184673   0   0   0 # oc13
    538      6   7 -0.670000    14.022048348    18.568811435    10.705027508   0   0   0 # oc14
    539      6   8 -0.820000    14.641598203     0.023328360    10.366384706   0   1   0 # o*
    540      6   4 -0.580000    11.639535836    19.922941853    10.489527505   0   0   0 # oc12
    541      6   5 -0.940000    10.186379832    20.608372578     8.208587179   0   0   0 # oc13
    542      6   5 -0.940000    12.895579762    20.383973891     8.202989684   0   0   0 # oc13
    543      6   8 -0.820000    12.715321780    18.541950530    15.560772048   0   0   0 # o*
    544      6   8 -0.820000    15.593450025    16.788611388    14.077461001   0   0   0 # o*
    545      6   8 -0.820000    14.669760112    20.549839637    13.909538999   0   0   0 # o*
    546      6   9  1.700000    12.315422335    20.474761272    13.940324699   0   0   0 # casl
    547      6   8 -0.820000    11.493093638    16.818778386    13.993500000   0   0   0 # o*
    548      6  10  0.400000    17.434108951    16.788259743    25.423346563   0   0   0 # hoy
    549      6  10  0.400000    14.595962360    18.176299589    11.336226581   0   0   0 # hoy
    550      6  10  0.400000    17.423343087    20.438902590     2.550392443   0   0   0 # hoy
    551      6  11  0.410000    15.838347827    16.560600388     2.498299190   0   0   0 # h*
    552      6  11  0.410000    15.008226762    17.517070694     1.712690205   0   0   0 # h*
    553      6  11  0.410000    12.181672849    21.243231589     3.197921326   0   0   0 # h*
    554      6  11  0.410000    12.547110188    19.800500267     3.386507348   0   0   0 # h*
    555      6  11  0.410000    12.340228987    19.380331695     0.576324689   0   0   0 # h*
    556      6  11  0.410000    12.668565989    18.234572219    -0.248548595   0   0   0 # h*
    557      6  11  0.410000    14.877425865    17.981760414    -0.412339625   0   0   0 # h*
    558      6  11  0.410000    14.920951694    19.280991258     0.507734712   0   0   0 # h*
    559      6  11  0.410000    14.197196853     0.029692146    11.240697981   0   1   0 # h*
    560      6  11  0.410000    15.554669549    -0.242069308    10.628428401   0   1   0 # h*
    561      6  11  0.410000    15.129862602    20.563603070    13.042448887   0   0   0 # h*
    562      6  11  0.410000    15.500084732    20.492759124    14.441054179   0   0   0 # h*
    563      6  11  0.410000    14.969022495    16.042805367    13.947312897   0   0   0 # h*
    564      6  11  0.410000    14.964157709    17.498424903    14.334808815   0   0   0 # h*
    565      6  11  0.410000    12.090950897    17.788884248    15.649539152   0   0   0 # h*
    566      6  11  0.410000    12.984845715    18.619139513    16.507602957   0   0   0 # h*
    567      6  11  0.410000    12.081759553    16.207194081    14.515919081   0   0   0 # h*
    568      6  11  0.410000    12.092642309    17.511992304    13.603581679   0   0   0 # h*
    569      6  11  0.410000    15.054424343    19.384065679    17.219969855   0   0   0 # h*
    570      6  11  0.410000    15.322840234    17.918576163    17.360758008   0   0   0 # h*
    571      6  11  0.410000    12.170617796    17.515259016    24.823259273   0   0   0 # h*
    572      6  11  0.410000    12.504629011    16.066075447    24.654904704   0   0   0 # h*
    573      6  11  0.410000    14.893687509    19.657082073    26.448947827   0   0   0 # h*
    574      6  11  0.410000    15.705081346    20.420545761    25.446882538   0   0   0 # h*
    575      7   3  1.000000     1.140740378     0.041477163    16.906946599   0   0   0 # sc3
    576      7   7 -0.670000     2.757248348     0.006311435    17.281972492   0   0   0 # oc14
    577      7   8 -0.820000     1.450521780    -0.020549471    12.426227952   0   0   0 # o*
    578      7   1  1.500000     3.067016863     0.077930047    20.005107605   0   0   0 # ca+t
    579      7   8 -0.820000     0.588766482     0.121217088    -0.083961001   0   0   1 # o*
    580      7   1  1.500000     3.145870277     0.048506418     7.984691142   0   0   0 # ca+t
    581      7   4 -0.580000     0.380368151     0.087074007     9.677904529   0   0   0 # oc12
    582      7   6 -1.080000     1.095681524     0.071019042    15.342473402   0   0   0 # oc22
    583      7  10  0.400000     3.349567651     0.084707637    16.556567616   0   0   0 # hoy
    584      7  11  0.410000     1.020318043     0.824469415    12.704850912   0   0   0 # h*
    585      7  11  0.410000     1.068293224    -0.077654060    11.510968959   0   0   0 # h*
    586      7  11  0.410000    -0.039390835    21.664559718    -0.258153482   0  -1   1 # h*
    587      7  11  0.410000     0.030946601     0.894963065    -0.320048786   0   0   1 # h*
    588      8   3  1.000000    12.405540378     0.041477163    16.906946599   0   0   0 # sc3
    589      8   7 -0.670000    14.022048348     0.006311435    17.281972492   0   0   0 # oc14
    590      8   8 -0.820000    12.715321780    -0.020549471    12.426227952   0   0   0 # o*
    591      8   1  1.500000    14.331816863     0.077930047    20.005107605   0   0   0 # ca+t
    592      8   8 -0.820000    11.853566482     0.121217088    -0.083961001   0   0   1 # o*
    593      8   1  1.500000    14.410670277     0.048506418     7.984691142   0   0   0 # ca+t
    594      8   4 -0.580000    11.645168151     0.087074007     9.677904529   0   0   0 # oc12
    595      8   6 -1.080000    12.360481524     0.071019042    15.342473402   0   0   0 # oc22
    596      8  10  0.400000    14.614367651     0.084707637    16.556567616   0   0   0 # hoy
    597      8  11  0.410000    12.285118043     0.824469415    12.704850912   0   0   0 # h*
    598      8  11  0.410000    12.333093224    -0.077654060    11.510968959   0   0   0 # h*
    599      8  11  0.410000    11.225409165    21.664559718    -0.258153482   0  -1   1 # h*
    600      8  11  0.410000    11.295746601     0.894963065    -0.320048786   0   0   1 # h*
    601      9   1  1.500000     8.699404123     0.097675147     7.981892395   0   0   0 # ca+t
    602      9   1  1.500000     5.962063907     1.914628968     6.008808858   0   0   0 # ca+t
    603      9   2  1.000000     8.772625221     7.185094257     4.903322411   0   0   0 # sc2
    604      9   3  1.000000     9.589321267     1.927344811     2.913446599   0   0   0 # sc3
    605      9   2  1.000000     8.733198347     4.055318782     4.900523664   0   0   0 # sc2
    606      9   4 -0.580000     8.783889851     0.688258968     3.492777505   0   0   0 # oc12
    607      9   4 -0.580000     8.828949040     5.685441655     4.315595471   0   0   0 # oc12
    608      9   5 -0.940000    10.023015210     7.612702752     5.793309063   0   0   0 # oc13
    609      9   5 -0.940000     7.465911415     7.410688307     5.779315327   0   0   0 # oc13
    610      9   6 -1.080000     9.544284037     5.669378142    26.638026598   0   0   0 # oc22
    611      9   7 -0.670000    11.205829238     1.892179084     3.288472492   0   0   0 # oc14
    612      9   8 -0.820000     6.192991832     1.889450909     3.627115294   0   0   0 # o*
    613      9   4 -0.580000     8.823316726     3.246309502     3.503972495   0   0   0 # oc12
    614      9   5 -0.940000     7.370160722     3.931740227     5.784912821   0   0   0 # oc13
    615      9   8 -0.820000     9.899102669     1.865318178    26.419727952   0   0   0 # o*
    616      9   8 -0.820000     6.221153742     0.140962186     0.083961001   0   0   0 # o*
    617      9   9  1.700000     9.499203224     3.798128920     0.053175301   0   0   0 # casl
    618      9   8 -0.820000     8.676874529     0.142146035    -0.000000000   0   0   0 # o*
    619      9   1  1.500000     5.883210493     1.944052597    21.975392395   0   0   0 # ca+t
    620      9   1  1.500000     8.778257537     0.068251517    20.002308858   0   0   0 # ca+t
    621      9   2  1.000000     5.956431592     1.606471708    18.896822411   0   0   0 # sc2
    622      9   3  1.000000     6.773127637     3.773722262    16.906946599   0   0   0 # sc3
    623      9   2  1.000000     5.917004718     5.901696232    18.894023664   0   0   0 # sc2
    624      9   4 -0.580000     5.967696221     2.534636418    17.486277505   0   0   0 # oc12
    625      9   4 -0.580000     6.012755410     7.531819106    18.309095471   0   0   0 # oc12
    626      9   5 -0.940000     7.206821580     2.034080202    19.786809063   0   0   0 # oc13
    627      9   5 -0.940000     4.649717785     1.832065758    19.772815327   0   0   0 # oc13
    628      9   6 -1.080000     6.728090407     0.090755593    12.644526598   0   0   0 # oc22
    629      9   7 -0.670000     8.389635608     3.738556534    17.281972492   0   0   0 # oc14
    630      9   8 -0.820000     9.009185462     0.043073459    17.620615294   0   0   0 # o*
    631      9   4 -0.580000     6.007123096     5.092686952    17.497472495   0   0   0 # oc12
    632      9   5 -0.940000     4.553967092     5.778117677    19.778412821   0   0   0 # oc13
    633      9   8 -0.820000     7.082909039     3.711695629    12.426227952   0   0   0 # o*
    634      9   1  1.500000     8.699404122     3.810175147    20.005107605   0   0   0 # ca+t
    635      9   1  1.500000     5.962063906     5.627128968    21.978191142   0   0   0 # ca+t
    636      9   2  1.000000     8.772625222     3.472594256    23.083677589   0   0   0 # sc2
    637      9   3  1.000000     9.589321267     5.639844812    25.073553401   0   0   0 # sc3
    638      9   2  1.000000     8.733198347     0.342818781    23.086476336   0   0   0 # sc2
    639      9   4 -0.580000     8.783889851     4.400758967    24.494222495   0   0   0 # oc12
    640      9   4 -0.580000     8.828949041     1.972941655    23.671404529   0   0   0 # oc12
    641      9   5 -0.940000     7.465911415     3.698188308    22.207684673   0   0   0 # oc13
    642      9   6 -1.080000     9.544262413     1.956886690     1.348973402   0   0   0 # oc22
    643      9   7 -0.670000    11.205829237     5.604679084    24.698527508   0   0   0 # oc14
    644      9   8 -0.820000     6.192991833     5.601950909    24.359884706   0   0   0 # o*
    645      9   4 -0.580000     8.823316726     6.958809501    24.483027505   0   0   0 # oc12
    646      9   5 -0.940000     7.370160721     0.219240227    22.202087179   0   0   0 # oc13
    647      9   8 -0.820000     9.899102670     5.577818179     1.567272048   0   0   0 # o*
    648      9   8 -0.820000     6.221153742     3.853462187    -0.083961001   0   0   1 # o*
    649      9   1  1.500000     5.883210493     5.656552597     6.011607605   0   0   0 # ca+t
    650      9   1  1.500000     8.778257536     3.780751517     7.984691142   0   0   0 # ca+t
    651      9   2  1.000000     5.956431592     5.318971707     9.090177589   0   0   0 # sc2
    652      9   3  1.000000     6.773127637     0.061222263    11.080053401   0   0   0 # sc3
    653      9   2  1.000000     5.917004718     2.189196232     9.092976336   0   0   0 # sc2
    654      9   4 -0.580000     5.967696221     6.247136418    10.500722495   0   0   0 # oc12
    655      9   4 -0.580000     6.012755411     3.819319106     9.677904529   0   0   0 # oc12
    656      9   5 -0.940000     4.649717785     5.544565758     8.214184673   0   0   0 # oc13
    657      9   6 -1.080000     6.728068783     3.803264141    15.342473402   0   0   0 # oc22
    658      9   7 -0.670000     8.389635607     0.026056534    10.705027508   0   0   0 # oc14
    659      9   8 -0.820000     9.009185463     3.755573459    10.366384706   0   0   0 # o*
    660      9   4 -0.580000     6.007123096     1.380186952    10.489527505   0   0   0 # oc12
    661      9   5 -0.940000     4.553967092     2.065617677     8.208587179   0   0   0 # oc13
    662      9   5 -0.940000     7.263167022     1.841218990     8.202989684   0   0   0 # oc13
    663      9   8 -0.820000     9.961037284     5.670856487    14.077461001   0   0   0 # o*
    664      9   8 -0.820000     9.037347372     2.007084737    13.909538999   0   0   0 # o*
    665      9   9  1.700000     6.683009594     1.932006371    13.940324699   0   0   0 # casl
    666      9   8 -0.820000     5.860680898     5.701023485    13.993500000   0   0   0 # o*
    667      9  10  0.400000    11.801696210     5.670504842    25.423346563   0   0   0 # hoy
    668      9  10  0.400000     8.981954910     3.816952736    16.556567616   0   0   0 # hoy
    669      9  10  0.400000    11.790930347     1.896147689     2.550392443   0   0   0 # hoy
    670      9  11  0.410000    10.205935086     5.442845487     2.498299190   0   0   0 # h*
    671      9  11  0.410000     9.375814022     6.399315793     1.712690205   0   0   0 # h*
    672      9  11  0.410000     6.549260109     2.700476688     3.197921326   0   0   0 # h*
    673      9  11  0.410000     6.914697447     1.257745366     3.386507348   0   0   0 # h*
    674      9  11  0.410000     6.707816247     0.837576794     0.576324689   0   0   0 # h*
    675      9  11  0.410000     7.036153249    -0.308182682    -0.248548595   0   0   0 # h*
    676      9  11  0.410000     9.245013125    21.714005514    -0.412339625   0  -1   0 # h*
    677      9  11  0.410000     9.288538954     0.738236357     0.507734712   0   0   0 # h*
    678      9  11  0.410000     8.564784112     3.761937245    11.240697981   0   0   0 # h*
    679      9  11  0.410000     9.922256809     3.490175791    10.628428401   0   0   0 # h*
    680      9  11  0.410000     6.652705303     4.556714514    12.704850912   0   0   0 # h*
    681      9  11  0.410000     6.700680483     3.654591039    11.510968959   0   0   0 # h*
    682      9  11  0.410000     9.497449862     2.020848169    13.042448887   0   0   0 # h*
    683      9  11  0.410000     9.867671991     1.950004223    14.441054179   0   0   0 # h*
    684      9  11  0.410000     9.336609754     4.925050466    13.947312897   0   0   0 # h*
    685      9  11  0.410000     9.331744969     6.380670002    14.334808815   0   0   0 # h*
    686      9  11  0.410000     6.449346812     5.089439180    14.515919081   0   0   0 # h*
    687      9  11  0.410000     6.460229568     6.394237403    13.603581679   0   0   0 # h*
    688      9  11  0.410000     9.422011603     0.841310778    17.219969855   0   0   0 # h*
    689      9  11  0.410000     9.690427493    21.650821262    17.360758008   0  -1   0 # h*
    690      9  11  0.410000     6.538205056     6.397504115    24.823259273   0   0   0 # h*
    691      9  11  0.410000     6.872216270     4.948320547    24.654904704   0   0   0 # h*
    692      9  11  0.410000     5.592996425     3.121804817    -0.258153482   0   0   1 # h*
    693      9  11  0.410000     5.663333860     4.627208164    -0.320048786   0   0   1 # h*
    694      9  11  0.410000     9.261274769     1.114327172    26.448947827   0   0   0 # h*
    695      9  11  0.410000    10.072668606     1.877790860    25.446882538   0   0   0 # h*
    696     10   1  1.500000    19.964204123     0.097675147     7.981892395   0   0   0 # ca+t
    697     10   1  1.500000    17.226863907     1.914628968     6.008808858   0   0   0 # ca+t
    698     10   2  1.000000    20.037425221     7.185094257     4.903322411   0   0   0 # sc2
    699     10   3  1.000000    20.854121267     1.927344811     2.913446599   0   0   0 # sc3
    700     10   2  1.000000    19.997998347     4.055318782     4.900523664   0   0   0 # sc2
    701     10   4 -0.580000    20.048689851     0.688258968     3.492777505   0   0   0 # oc12
    702     10   4 -0.580000    20.093749040     5.685441655     4.315595471   0   0   0 # oc12
    703     10   5 -0.940000    21.287815210     7.612702752     5.793309063   0   0   0 # oc13
    704     10   5 -0.940000    18.730711415     7.410688307     5.779315327   0   0   0 # oc13
    705     10   6 -1.080000    20.809084037     5.669378142    26.638026598   0   0   0 # oc22
    706     10   7 -0.670000    -0.058970762     1.892179084     3.288472492   1   0   0 # oc14
    707     10   8 -0.820000    17.457791832     1.889450909     3.627115294   0   0   0 # o*
    708     10   4 -0.580000    20.088116726     3.246309502     3.503972495   0   0   0 # oc12
    709     10   5 -0.940000    18.634960722     3.931740227     5.784912821   0   0   0 # oc13
    710     10   8 -0.820000    21.163902669     1.865318178    26.419727952   0   0   0 # o*
    711     10   8 -0.820000    17.485953742     0.140962186     0.083961001   0   0   0 # o*
    712     10   9  1.700000    20.764003224     3.798128920     0.053175301   0   0   0 # casl
    713     10   8 -0.820000    19.941674529     0.142146035    -0.000000000   0   0   0 # o*
    714     10   1  1.500000    17.148010493     1.944052597    21.975392395   0   0   0 # ca+t
    715     10   1  1.500000    20.043057537     0.068251517    20.002308858   0   0   0 # ca+t
    716     10   2  1.000000    17.221231592     1.606471708    18.896822411   0   0   0 # sc2
    717     10   3  1.000000    18.037927637     3.773722262    16.906946599   0   0   0 # sc3
    718     10   2  1.000000    17.181804718     5.901696232    18.894023664   0   0   0 # sc2
    719     10   4 -0.580000    17.232496221     2.534636418    17.486277505   0   0   0 # oc12
    720     10   4 -0.580000    17.277555410     7.531819106    18.309095471   0   0   0 # oc12
    721     10   5 -0.940000    18.471621580     2.034080202    19.786809063   0   0   0 # oc13
    722     10   5 -0.940000    15.914517785     1.832065758    19.772815327   0   0   0 # oc13
    723     10   6 -1.080000    17.992890407     0.090755593    12.644526598   0   0   0 # oc22
    724     10   7 -0.670000    19.654435608     3.738556534    17.281972492   0   0   0 # oc14
    725     10   8 -0.820000    20.273985462     0.043073459    17.620615294   0   0   0 # o*
    726     10   4 -0.580000    17.271923096     5.092686952    17.497472495   0   0   0 # oc12
    727     10   5 -0.940000    15.818767092     5.778117677    19.778412821   0   0   0 # oc13
    728     10   8 -0.820000    18.347709039     3.711695629    12.426227952   0   0   0 # o*
    729     10   1  1.500000    19.964204122     3.810175147    20.005107605   0   0   0 # ca+t
    730     10   1  1.500000    17.226863906     5.627128968    21.978191142   0   0   0 # ca+t
    731     10   2  1.000000    20.037425222     3.472594256    23.083677589   0   0   0 # sc2
    732     10   3  1.000000    20.854121267     5.639844812    25.073553401   0   0   0 # sc3
    733     10   2  1.000000    19.997998347     0.342818781    23.086476336   0   0   0 # sc2
    734     10   4 -0.580000    20.048689851     4.400758967    24.494222495   0   0   0 # oc12
    735     10   4 -0.580000    20.093749041     1.972941655    23.671404529   0   0   0 # oc12
    736     10   5 -0.940000    18.730711415     3.698188308    22.207684673   0   0   0 # oc13
    737     10   6 -1.080000    20.809062413     1.956886690     1.348973402   0   0   0 # oc22
    738     10   7 -0.670000    -0.058970763     5.604679084    24.698527508   1   0   0 # oc14
    739     10   8 -0.820000    17.457791833     5.601950909    24.359884706   0   0   0 # o*
    740     10   4 -0.580000    20.088116726     6.958809501    24.483027505   0   0   0 # oc12
    741     10   5 -0.940000    18.634960721     0.219240227    22.202087179   0   0   0 # oc13
    742     10   8 -0.820000    21.163902670     5.577818179     1.567272048   0   0   0 # o*
    743     10   8 -0.820000    17.485953742     3.853462187    -0.083961001   0   0   1 # o*
    744     10   1  1.500000    17.148010493     5.656552597     6.011607605   0   0   0 # ca+t
    745     10   1  1.500000    20.043057536     3.780751517     7.984691142   0   0   0 # ca+t
    746     10   2  1.000000    17.221231592     5.318971707     9.090177589   0   0   0 # sc2
    747     10   3  1.000000    18.037927637     0.061222263    11.080053401   0   0   0 # sc3
    748     10   2  1.000000    17.181804718     2.189196232     9.092976336   0   0   0 # sc2
    749     10   4 -0.580000    17.232496221     6.247136418    10.500722495   0   0   0 # oc12
    750     10   4 -0.580000    17.277555411     3.819319106     9.677904529   0   0   0 # oc12
    751     10   5 -0.940000    15.914517785     5.544565758     8.214184673   0   0   0 # oc13
    752     10   6 -1.080000    17.992868783     3.803264141    15.342473402   0   0   0 # oc22
    753     10   7 -0.670000    19.654435607     0.026056534    10.705027508   0   0   0 # oc14
    754     10   8 -0.820000    20.273985463     3.755573459    10.366384706   0   0   0 # o*
    755     10   4 -0.580000    17.271923096     1.380186952    10.489527505   0   0   0 # oc12
    756     10   5 -0.940000    15.818767092     2.065617677     8.208587179   0   0   0 # oc13
    757     10   5 -0.940000    18.527967022     1.841218990     8.202989684   0   0   0 # oc13
    758     10   8 -0.820000    21.225837284     5.670856487    14.077461001   0   0   0 # o*
    759     10   8 -0.820000    20.302147372     2.007084737    13.909538999   0   0   0 # o*
    760     10   9  1.700000    17.947809594     1.932006371    13.940324699   0   0   0 # casl
    761     10   8 -0.820000    17.125480898     5.701023485    13.993500000   0   0   0 # o*
    762     10  10  0.400000     0.536896210     5.670504842    25.423346563   1   0   0 # hoy
    763     10  10  0.400000    20.246754910     3.816952736    16.556567616   0   0   0 # hoy
    764     10  10  0.400000     0.526130347     1.896147689     2.550392443   1   0   0 # hoy
    765     10  11  0.410000    21.470735086     5.442845487     2.498299190   0   0   0 # h*
    766     10  11  0.410000    20.640614022     6.399315793     1.712690205   0   0   0 # h*
    767     10  11  0.410000    17.814060109     2.700476688     3.197921326   0   0   0 # h*
    768     10  11  0.410000    18.179497447     1.257745366     3.386507348   0   0   0 # h*
    769     10  11  0.410000    17.972616247     0.837576794     0.576324689   0   0   0 # h*
    770     10  11  0.410000    18.300953249    -0.308182682    -0.248548595   0   0   0 # h*
    771     10  11  0.410000    20.509813125    21.714005514    -0.412339625   0  -1   0 # h*
    772     10  11  0.410000    20.553338954     0.738236357     0.507734712   0   0   0 # h*
    773     10  11  0.410000    19.829584112     3.761937245    11.240697981   0   0   0 # h*
    774     10  11  0.410000    21.187056809     3.490175791    10.628428401   0   0   0 # h*
    775     10  11  0.410000    17.917505303     4.556714514    12.704850912   0   0   0 # h*
    776     10  11  0.410000    17.965480483     3.654591039    11.510968959   0   0   0 # h*
    777     10  11  0.410000    20.762249862     2.020848169    13.042448887   0   0   0 # h*
    778     10  11  0.410000    21.132471991     1.950004223    14.441054179   0   0   0 # h*
    779     10  11  0.410000    20.601409754     4.925050466    13.947312897   0   0   0 # h*
    780     10  11  0.410000    20.596544969     6.380670002    14.334808815   0   0   0 # h*
    781     10  11  0.410000    17.714146812     5.089439180    14.515919081   0   0   0 # h*
    782     10  11  0.410000    17.725029568     6.394237403    13.603581679   0   0   0 # h*
    783     10  11  0.410000    20.686811603     0.841310778    17.219969855   0   0   0 # h*
    784     10  11  0.410000    20.955227493    21.650821262    17.360758008   0  -1   0 # h*
    785     10  11  0.410000    17.803005056     6.397504115    24.823259273   0   0   0 # h*
    786     10  11  0.410000    18.137016270     4.948320547    24.654904704   0   0   0 # h*
    787     10  11  0.410000    16.857796425     3.121804817    -0.258153482   0   0   1 # h*
    788     10  11  0.410000    16.928133860     4.627208164    -0.320048786   0   0   1 # h*
    789     10  11  0.410000    20.526074769     1.114327172    26.448947827   0   0   0 # h*
    790     10  11  0.410000    21.337468606     1.877790860    25.446882538   0   0   0 # h*
    791     11   1  1.500000     8.699404123     7.522675147     7.981892395   0   0   0 # ca+t
    792     11   1  1.500000     5.962063907     9.339628968     6.008808858   0   0   0 # ca+t
    793     11   2  1.000000     8.772625221    14.610094257     4.903322411   0   0   0 # sc2
    794     11   3  1.000000     9.589321267     9.352344811     2.913446599   0   0   0 # sc3
    795     11   2  1.000000     8.733198347    11.480318782     4.900523664   0   0   0 # sc2
    796     11   4 -0.580000     8.783889851     8.113258968     3.492777505   0   0   0 # oc12
    797     11   4 -0.580000     8.828949040    13.110441655     4.315595471   0   0   0 # oc12
    798     11   5 -0.940000    10.023015210    15.037702752     5.793309063   0   0   0 # oc13
    799     11   5 -0.940000     7.465911415    14.835688307     5.779315327   0   0   0 # oc13
    800     11   6 -1.080000     9.544284037    13.094378142    26.638026598   0   0   0 # oc22
    801     11   7 -0.670000    11.205829238     9.317179084     3.288472492   0   0   0 # oc14
    802     11   8 -0.820000     6.192991832     9.314450909     3.627115294   0   0   0 # o*
    803     11   4 -0.580000     8.823316726    10.671309502     3.503972495   0   0   0 # oc12
    804     11   5 -0.940000     7.370160722    11.356740227     5.784912821   0   0   0 # oc13
    805     11   8 -0.820000     9.899102669     9.290318178    26.419727952   0   0   0 # o*
    806     11   8 -0.820000     6.221153742     7.565962186     0.083961001   0   0   0 # o*
    807     11   9  1.700000     9.499203224    11.223128920     0.053175301   0   0   0 # casl
    808     11   8 -0.820000     8.676874529     7.567146035    -0.000000000   0   0   0 # o*
    809     11   1  1.500000     5.883210493     9.369052597    21.975392395   0   0   0 # ca+t
    810     11   1  1.500000     8.778257537     7.493251517    20.002308858   0   0   0 # ca+t
    811     11   2  1.000000     5.956431592     9.031471708    18.896822411   0   0   0 # sc2
    812     11   3  1.000000     6.773127637    11.198722262    16.906946599   0   0   0 # sc3
    813     11   2  1.000000     5.917004718    13.326696232    18.894023664   0   0   0 # sc2
    814     11   4 -0.580000     5.967696221     9.959636418    17.486277505   0   0   0 # oc12
    815     11   4 -0.580000     6.012755410    14.956819106    18.309095471   0   0   0 # oc12
    816     11   5 -0.940000     7.206821580     9.459080202    19.786809063   0   0   0 # oc13
    817     11   5 -0.940000     4.649717785     9.257065758    19.772815327   0   0   0 # oc13
    818     11   6 -1.080000     6.728090407     7.515755593    12.644526598   0   0   0 # oc22
    819     11   7 -0.670000     8.389635608    11.163556534    17.281972492   0   0   0 # oc14
    820     11   8 -0.820000     9.009185462     7.468073459    17.620615294   0   0   0 # o*
    821     11   4 -0.580000     6.007123096    12.517686952    17.497472495   0   0   0 # oc12
    822     11   5 -0.940000     4.553967092    13.203117677    19.778412821   0   0   0 # oc13
    823     11   8 -0.820000     7.082909039    11.136695629    12.426227952   0   0   0 # o*
    824     11   1  1.500000     8.699404122    11.235175147    20.005107605   0   0   0 # ca+t
    825     11   1  1.500000     5.962063906    13.052128968    21.978191142   0   0   0 # ca+t
    826     11   2  1.000000     8.772625222    10.897594256    23.083677589   0   0   0 # sc2
    827     11   3  1.000000     9.589321267    13.064844812    25.073553401   0   0   0 # sc3
    828     11   2  1.000000     8.733198347     7.767818781    23.086476336   0   0   0 # sc2
    829     11   4 -0.580000     8.783889851    11.825758967    24.494222495   0   0   0 # oc12
    830     11   4 -0.580000     8.828949041     9.397941655    23.671404529   0   0   0 # oc12
    831     11   5 -0.940000     7.465911415    11.123188308    22.207684673   0   0   0 # oc13
    832     11   6 -1.080000     9.544262413     9.381886690     1.348973402   0   0   0 # oc22
    833     11   7 -0.670000    11.205829237    13.029679084    24.698527508   0   0   0 # oc14
    834     11   8 -0.820000     6.192991833    13.026950909    24.359884706   0   0   0 # o*
    835     11   4 -0.580000     8.823316726    14.383809501    24.483027505   0   0   0 # oc12
    836     11   5 -0.940000     7.370160721     7.644240227    22.202087179   0   0   0 # oc13
    837     11   5 -0.940000    10.079360652     7.419841540    22.196489684   0   0   0 # oc13
    838     11   8 -0.820000     9.899102670    13.002818179     1.567272048   0   0   0 # o*
    839     11   8 -0.820000     6.221153742    11.278462187    -0.083961001   0   0   1 # o*
    840     11   1  1.500000     5.883210493    13.081552597     6.011607605   0   0   0 # ca+t
    841     11   1  1.500000     8.778257536    11.205751517     7.984691142   0   0   0 # ca+t
    842     11   2  1.000000     5.956431592    12.743971707     9.090177589   0   0   0 # sc2
    843     11   3  1.000000     6.773127637     7.486222263    11.080053401   0   0   0 # sc3
    844     11   2  1.000000     5.917004718     9.614196232     9.092976336   0   0   0 # sc2
    845     11   4 -0.580000     5.967696221    13.672136418    10.500722495   0   0   0 # oc12
    846     11   4 -0.580000     6.012755411    11.244319106     9.677904529   0   0   0 # oc12
    847     11   5 -0.940000     4.649717785    12.969565758     8.214184673   0   0   0 # oc13
    848     11   6 -1.080000     6.728068783    11.228264141    15.342473402   0   0   0 # oc22
    849     11   7 -0.670000     8.389635607     7.451056534    10.705027508   0   0   0 # oc14
    850     11   8 -0.820000     9.009185463    11.180573459    10.366384706   0   0   0 # o*
    851     11   4 -0.580000     6.007123096     8.805186952    10.489527505   0   0   0 # oc12
    852     11   5 -0.940000     4.553967092     9.490617677     8.208587179   0   0   0 # oc13
    853     11   5 -0.940000     7.263167022     9.266218990     8.202989684   0   0   0 # oc13
    854     11   8 -0.820000     7.082909040     7.424195629    15.560772048   0   0   0 # o*
    855     11   8 -0.820000     9.961037284    13.095856487    14.077461001   0   0   0 # o*
    856     11   8 -0.820000     9.037347372     9.432084737    13.909538999   0   0   0 # o*
    857     11   9  1.700000     6.683009594     9.357006371    13.940324699   0   0   0 # casl
    858     11   8 -0.820000     5.860680898    13.126023485    13.993500000   0   0   0 # o*
    859     11  10  0.400000    11.801696210    13.095504842    25.423346563   0   0   0 # hoy
    860     11  10  0.400000     8.981954910    11.241952736    16.556567616   0   0   0 # hoy
    861     11  10  0.400000     8.963549620     7.058544688    11.336226581   0   0   0 # hoy
    862     11  10  0.400000    11.790930347     9.321147689     2.550392443   0   0   0 # hoy
    863     11  11  0.410000    10.205935086    12.867845487     2.498299190   0   0   0 # h*
    864     11  11  0.410000     9.375814022    13.824315793     1.712690205   0   0   0 # h*
    865     11  11  0.410000     6.549260109    10.125476688     3.197921326   0   0   0 # h*
    866     11  11  0.410000     6.914697447     8.682745366     3.386507348   0   0   0 # h*
    867     11  11  0.410000     6.707816247     8.262576794     0.576324689   0   0   0 # h*
    868     11  11  0.410000     7.036153249     7.116817318    -0.248548595   0   0   0 # h*
    869     11  11  0.410000     9.245013125     6.864005514    -0.412339625   0   0   0 # h*
    870     11  11  0.410000     9.288538954     8.163236357     0.507734712   0   0   0 # h*
    871     11  11  0.410000     8.564784112    11.186937245    11.240697981   0   0   0 # h*
    872     11  11  0.410000     9.922256809    10.915175791    10.628428401   0   0   0 # h*
    873     11  11  0.410000     6.652705303    11.981714514    12.704850912   0   0   0 # h*
    874     11  11  0.410000     6.700680483    11.079591039    11.510968959   0   0   0 # h*
    875     11  11  0.410000     9.497449862     9.445848169    13.042448887   0   0   0 # h*
    876     11  11  0.410000     9.867671991     9.375004223    14.441054179   0   0   0 # h*
    877     11  11  0.410000     9.336609754    12.350050466    13.947312897   0   0   0 # h*
    878     11  11  0.410000     9.331744969    13.805670002    14.334808815   0   0   0 # h*
    879     11  11  0.410000     6.458538157     6.671129347    15.649539152   0   0   0 # h*
    880     11  11  0.410000     7.352432975     7.501384613    16.507602957   0   0   0 # h*
    881     11  11  0.410000     6.449346812    12.514439180    14.515919081   0   0   0 # h*
    882     11  11  0.410000     6.460229568    13.819237403    13.603581679   0   0   0 # h*
    883     11  11  0.410000     9.422011603     8.266310778    17.219969855   0   0   0 # h*
    884     11  11  0.410000     9.690427493     6.800821262    17.360758008   0   0   0 # h*
    885     11  11  0.410000     6.538205056    13.822504115    24.823259273   0   0   0 # h*
    886     11  11  0.410000     6.872216270    12.373320547    24.654904704   0   0   0 # h*
    887     11  11  0.410000     5.592996425    10.546804817    -0.258153482   0   0   1 # h*
    888     11  11  0.410000     5.663333860    12.052208164    -0.320048786   0   0   1 # h*
    889     11  11  0.410000     9.261274769     8.539327172    26.448947827   0   0   0 # h*
    890     11  11  0.410000    10.072668606     9.302790860    25.446882538   0   0   0 # h*
    891     12   1  1.500000    19.964204123     7.522675147     7.981892395   0   0   0 # ca+t
    892     12   1  1.500000    17.226863907     9.339628968     6.008808858   0   0   0 # ca+t
    893     12   2  1.000000    20.037425221    14.610094257     4.903322411   0   0   0 # sc2
    894     12   3  1.000000    20.854121267     9.352344811     2.913446599   0   0   0 # sc3
    895     12   2  1.000000    19.997998347    11.480318782     4.900523664   0   0   0 # sc2
    896     12   4 -0.580000    20.048689851     8.113258968     3.492777505   0   0   0 # oc12
    897     12   4 -0.580000    20.093749040    13.110441655     4.315595471   0   0   0 # oc12
    898     12   5 -0.940000    21.287815210    15.037702752     5.793309063   0   0   0 # oc13
    899     12   5 -0.940000    18.730711415    14.835688307     5.779315327   0   0   0 # oc13
    900     12   6 -1.080000    20.809084037    13.094378142    26.638026598   0   0   0 # oc22
    901     12   7 -0.670000    -0.058970762     9.317179084     3.288472492   1   0   0 # oc14
    902     12   8 -0.820000    17.457791832     9.314450909     3.627115294   0   0   0 # o*
    903     12   4 -0.580000    20.088116726    10.671309502     3.503972495   0   0   0 # oc12
    904     12   5 -0.940000    18.634960722    11.356740227     5.784912821   0   0   0 # oc13
    905     12   8 -0.820000    21.163902669     9.290318178    26.419727952   0   0   0 # o*
    906     12   8 -0.820000    17.485953742     7.565962186     0.083961001   0   0   0 # o*
    907     12   9  1.700000    20.764003224    11.223128920     0.053175301   0   0   0 # casl
    908     12   8 -0.820000    19.941674529     7.567146035    -0.000000000   0   0   0 # o*
    909     12   1  1.500000    17.148010493     9.369052597    21.975392395   0   0   0 # ca+t
    910     12   1  1.500000    20.043057537     7.493251517    20.002308858   0   0   0 # ca+t
    911     12   2  1.000000    17.221231592     9.031471708    18.896822411   0   0   0 # sc2
    912     12   3  1.000000    18.037927637    11.198722262    16.906946599   0   0   0 # sc3
    913     12   2  1.000000    17.181804718    13.326696232    18.894023664   0   0   0 # sc2
    914     12   4 -0.580000    17.232496221     9.959636418    17.486277505   0   0   0 # oc12
    915     12   4 -0.580000    17.277555410    14.956819106    18.309095471   0   0   0 # oc12
    916     12   5 -0.940000    18.471621580     9.459080202    19.786809063   0   0   0 # oc13
    917     12   5 -0.940000    15.914517785     9.257065758    19.772815327   0   0   0 # oc13
    918     12   6 -1.080000    17.992890407     7.515755593    12.644526598   0   0   0 # oc22
    919     12   7 -0.670000    19.654435608    11.163556534    17.281972492   0   0   0 # oc14
    920     12   8 -0.820000    20.273985462     7.468073459    17.620615294   0   0   0 # o*
    921     12   4 -0.580000    17.271923096    12.517686952    17.497472495   0   0   0 # oc12
    922     12   5 -0.940000    15.818767092    13.203117677    19.778412821   0   0   0 # oc13
    923     12   8 -0.820000    18.347709039    11.136695629    12.426227952   0   0   0 # o*
    924     12   1  1.500000    19.964204122    11.235175147    20.005107605   0   0   0 # ca+t
    925     12   1  1.500000    17.226863906    13.052128968    21.978191142   0   0   0 # ca+t
    926     12   2  1.000000    20.037425222    10.897594256    23.083677589   0   0   0 # sc2
    927     12   3  1.000000    20.854121267    13.064844812    25.073553401   0   0   0 # sc3
    928     12   2  1.000000    19.997998347     7.767818781    23.086476336   0   0   0 # sc2
    929     12   4 -0.580000    20.048689851    11.825758967    24.494222495   0   0   0 # oc12
    930     12   4 -0.580000    20.093749041     9.397941655    23.671404529   0   0   0 # oc12
    931     12   5 -0.940000    18.730711415    11.123188308    22.207684673   0   0   0 # oc13
    932     12   6 -1.080000    20.809062413     9.381886690     1.348973402   0   0   0 # oc22
    933     12   7 -0.670000    -0.058970763    13.029679084    24.698527508   1   0   0 # oc14
    934     12   8 -0.820000    17.457791833    13.026950909    24.359884706   0   0   0 # o*
    935     12   4 -0.580000    20.088116726    14.383809501    24.483027505   0   0   0 # oc12
    936     12   5 -0.940000    18.634960721     7.644240227    22.202087179   0   0   0 # oc13
    937     12   5 -0.940000    21.344160652     7.419841540    22.196489684   0   0   0 # oc13
    938     12   8 -0.820000    21.163902670    13.002818179     1.567272048   0   0   0 # o*
    939     12   8 -0.820000    17.485953742    11.278462187    -0.083961001   0   0   1 # o*
    940     12   1  1.500000    17.148010493    13.081552597     6.011607605   0   0   0 # ca+t
    941     12   1  1.500000    20.043057536    11.205751517     7.984691142   0   0   0 # ca+t
    942     12   2  1.000000    17.221231592    12.743971707     9.090177589   0   0   0 # sc2
    943     12   3  1.000000    18.037927637     7.486222263    11.080053401   0   0   0 # sc3
    944     12   2  1.000000    17.181804718     9.614196232     9.092976336   0   0   0 # sc2
    945     12   4 -0.580000    17.232496221    13.672136418    10.500722495   0   0   0 # oc12
    946     12   4 -0.580000    17.277555411    11.244319106     9.677904529   0   0   0 # oc12
    947     12   5 -0.940000    15.914517785    12.969565758     8.214184673   0   0   0 # oc13
    948     12   6 -1.080000    17.992868783    11.228264141    15.342473402   0   0   0 # oc22
    949     12   7 -0.670000    19.654435607     7.451056534    10.705027508   0   0   0 # oc14
    950     12   8 -0.820000    20.273985463    11.180573459    10.366384706   0   0   0 # o*
    951     12   4 -0.580000    17.271923096     8.805186952    10.489527505   0   0   0 # oc12
    952     12   5 -0.940000    15.818767092     9.490617677     8.208587179   0   0   0 # oc13
    953     12   5 -0.940000    18.527967022     9.266218990     8.202989684   0   0   0 # oc13
    954     12   8 -0.820000    18.347709040     7.424195629    15.560772048   0   0   0 # o*
    955     12   8 -0.820000    21.225837284    13.095856487    14.077461001   0   0   0 # o*
    956     12   8 -0.820000    20.302147372     9.432084737    13.909538999   0   0   0 # o*
    957     12   9  1.700000    17.947809594     9.357006371    13.940324699   0   0   0 # casl
    958     12   8 -0.820000    17.125480898    13.126023485    13.993500000   0   0   0 # o*
    959     12  10  0.400000     0.536896210    13.095504842    25.423346563   1   0   0 # hoy
    960     12  10  0.400000    20.246754910    11.241952736    16.556567616   0   0   0 # hoy
    961     12  10  0.400000    20.228349620     7.058544688    11.336226581   0   0   0 # hoy
    962     12  10  0.400000     0.526130347     9.321147689     2.550392443   1   0   0 # hoy
    963     12  11  0.410000    21.470735086    12.867845487     2.498299190   0   0   0 # h*
    964     12  11  0.410000    20.640614022    13.824315793     1.712690205   0   0   0 # h*
    965     12  11  0.410000    17.814060109    10.125476688     3.197921326   0   0   0 # h*
    966     12  11  0.410000    18.179497447     8.682745366     3.386507348   0   0   0 # h*
    967     12  11  0.410000    17.972616247     8.262576794     0.576324689   0   0   0 # h*
    968     12  11  0.410000    18.300953249     7.116817318    -0.248548595   0   0   0 # h*
    969     12  11  0.410000    20.509813125     6.864005514    -0.412339625   0   0   0 # h*
    970     12  11  0.410000    20.553338954     8.163236357     0.507734712   0   0   0 # h*
    971     12  11  0.410000    19.829584112    11.186937245    11.240697981   0   0   0 # h*
    972     12  11  0.410000    21.187056809    10.915175791    10.628428401   0   0   0 # h*
    973     12  11  0.410000    17.917505303    11.981714514    12.704850912   0   0   0 # h*
    974     12  11  0.410000    17.965480483    11.079591039    11.510968959   0   0   0 # h*
    975     12  11  0.410000    20.762249862     9.445848169    13.042448887   0   0   0 # h*
    976     12  11  0.410000    21.132471991     9.375004223    14.441054179   0   0   0 # h*
    977     12  11  0.410000    20.601409754    12.350050466    13.947312897   0   0   0 # h*
    978     12  11  0.410000    20.596544969    13.805670002    14.334808815   0   0   0 # h*
    979     12  11  0.410000    17.723338157     6.671129347    15.649539152   0   0   0 # h*
    980     12  11  0.410000    18.617232975     7.501384613    16.507602957   0   0   0 # h*
    981     12  11  0.410000    17.714146812    12.514439180    14.515919081   0   0   0 # h*
    982     12  11  0.410000    17.725029568    13.819237403    13.603581679   0   0   0 # h*
    983     12  11  0.410000    20.686811603     8.266310778    17.219969855   0   0   0 # h*
    984     12  11  0.410000    20.955227493     6.800821262    17.360758008   0   0   0 # h*
    985     12  11  0.410000    17.803005056    13.822504115    24.823259273   0   0   0 # h*
    986     12  11  0.410000    18.137016270    12.373320547    24.654904704   0   0   0 # h*
    987     12  11  0.410000    16.857796425    10.546804817    -0.258153482   0   0   1 # h*
    988     12  11  0.410000    16.928133860    12.052208164    -0.320048786   0   0   1 # h*
    989     12  11  0.410000    20.526074769     8.539327172    26.448947827   0   0   0 # h*
    990     12  11  0.410000    21.337468606     9.302790860    25.446882538   0   0   0 # h*
    991     13   1  1.500000     8.699404123    14.947675147     7.981892395   0   0   0 # ca+t
    992     13   1  1.500000     5.962063907    16.764628968     6.008808858   0   0   0 # ca+t
    993     13   2  1.000000     8.772625221    -0.239905743     4.903322411   0   1   0 # sc2
    994     13   3  1.000000     9.589321267    16.777344811     2.913446599   0   0   0 # sc3
    995     13   2  1.000000     8.733198347    18.905318782     4.900523664   0   0   0 # sc2
    996     13   4 -0.580000     8.783889851    15.538258968     3.492777505   0   0   0 # oc12
    997     13   4 -0.580000     8.828949040    20.535441655     4.315595471   0   0   0 # oc12
    998     13   5 -0.940000     7.465911415    -0.014311693     5.779315327   0   1   0 # oc13
    999     13   6 -1.080000     9.544284037    20.519378142    26.638026598   0   0   0 # oc22
   1000     13   7 -0.670000    11.205829238    16.742179084     3.288472492   0   0   0 # oc14
   1001     13   8 -0.820000     6.192991832    16.739450909     3.627115294   0   0   0 # o*
   1002     13   4 -0.580000     8.823316726    18.096309502     3.503972495   0   0   0 # oc12
   1003     13   5 -0.940000     7.370160722    18.781740227     5.784912821   0   0   0 # oc13
   1004     13   8 -0.820000     9.899102669    16.715318178    26.419727952   0   0   0 # o*
   1005     13   8 -0.820000     6.221153742    14.990962186     0.083961001   0   0   0 # o*
   1006     13   9  1.700000     9.499203224    18.648128920     0.053175301   0   0   0 # casl
   1007     13   8 -0.820000     8.676874529    14.992146035    -0.000000000   0   0   0 # o*
   1008     13   1  1.500000     5.883210493    16.794052597    21.975392395   0   0   0 # ca+t
   1009     13   1  1.500000     8.778257537    14.918251517    20.002308858   0   0   0 # ca+t
   1010     13   2  1.000000     5.956431592    16.456471708    18.896822411   0   0   0 # sc2
   1011     13   3  1.000000     6.773127637    18.623722262    16.906946599   0   0   0 # sc3
   1012     13   2  1.000000     5.917004718    20.751696232    18.894023664   0   0   0 # sc2
   1013     13   4 -0.580000     5.967696221    17.384636418    17.486277505   0   0   0 # oc12
   1014     13   5 -0.940000     7.206821580    16.884080202    19.786809063   0   0   0 # oc13
   1015     13   5 -0.940000     4.649717785    16.682065758    19.772815327   0   0   0 # oc13
   1016     13   6 -1.080000     6.728090407    14.940755593    12.644526598   0   0   0 # oc22
   1017     13   7 -0.670000     8.389635608    18.588556534    17.281972492   0   0   0 # oc14
   1018     13   8 -0.820000     9.009185462    14.893073459    17.620615294   0   0   0 # o*
   1019     13   4 -0.580000     6.007123096    19.942686952    17.497472495   0   0   0 # oc12
   1020     13   5 -0.940000     4.553967092    20.628117677    19.778412821   0   0   0 # oc13
   1021     13   8 -0.820000     7.082909039    18.561695629    12.426227952   0   0   0 # o*
   1022     13   1  1.500000     8.699404122    18.660175147    20.005107605   0   0   0 # ca+t
   1023     13   1  1.500000     5.962063906    20.477128968    21.978191142   0   0   0 # ca+t
   1024     13   2  1.000000     8.772625222    18.322594256    23.083677589   0   0   0 # sc2
   1025     13   3  1.000000     9.589321267    20.489844812    25.073553401   0   0   0 # sc3
   1026     13   2  1.000000     8.733198347    15.192818781    23.086476336   0   0   0 # sc2
   1027     13   4 -0.580000     8.783889851    19.250758967    24.494222495   0   0   0 # oc12
   1028     13   4 -0.580000     8.828949041    16.822941655    23.671404529   0   0   0 # oc12
   1029     13   5 -0.940000     7.465911415    18.548188308    22.207684673   0   0   0 # oc13
   1030     13   6 -1.080000     9.544262413    16.806886690     1.348973402   0   0   0 # oc22
   1031     13   7 -0.670000    11.205829237    20.454679084    24.698527508   0   0   0 # oc14
   1032     13   8 -0.820000     6.192991833    20.451950909    24.359884706   0   0   0 # o*
   1033     13   4 -0.580000     8.823316726    21.808809501    24.483027505   0   0   0 # oc12
   1034     13   5 -0.940000     7.370160721    15.069240227    22.202087179   0   0   0 # oc13
   1035     13   5 -0.940000    10.079360652    14.844841540    22.196489684   0   0   0 # oc13
   1036     13   8 -0.820000     9.899102670    20.427818179     1.567272048   0   0   0 # o*
   1037     13   8 -0.820000     6.221153742    18.703462187    -0.083961001   0   0   1 # o*
   1038     13   1  1.500000     5.883210493    20.506552597     6.011607605   0   0   0 # ca+t
   1039     13   1  1.500000     8.778257536    18.630751517     7.984691142   0   0   0 # ca+t
   1040     13   2  1.000000     5.956431592    20.168971707     9.090177589   0   0   0 # sc2
   1041     13   3  1.000000     6.773127637    14.911222263    11.080053401   0   0   0 # sc3
   1042     13   2  1.000000     5.917004718    17.039196232     9.092976336   0   0   0 # sc2
   1043     13   4 -0.580000     5.967696221    21.097136418    10.500722495   0   0   0 # oc12
   1044     13   4 -0.580000     6.012755411    18.669319106     9.677904529   0   0   0 # oc12
   1045     13   5 -0.940000     4.649717785    20.394565758     8.214184673   0   0   0 # oc13
   1046     13   6 -1.080000     6.728068783    18.653264141    15.342473402   0   0   0 # oc22
   1047     13   7 -0.670000     8.389635607    14.876056534    10.705027508   0   0   0 # oc14
   1048     13   8 -0.820000     9.009185463    18.605573459    10.366384706   0   0   0 # o*
   1049     13   4 -0.580000     6.007123096    16.230186952    10.489527505   0   0   0 # oc12
   1050     13   5 -0.940000     4.553967092    16.915617677     8.208587179   0   0   0 # oc13
   1051     13   5 -0.940000     7.263167022    16.691218990     8.202989684   0   0   0 # oc13
   1052     13   8 -0.820000     7.082909040    14.849195629    15.560772048   0   0   0 # o*
   1053     13   8 -0.820000     9.961037284    20.520856487    14.077461001   0   0   0 # o*
   1054     13   8 -0.820000     9.037347372    16.857084737    13.909538999   0   0   0 # o*
   1055     13   9  1.700000     6.683009594    16.782006371    13.940324699   0   0   0 # casl
   1056     13   8 -0.820000     5.860680898    20.551023485    13.993500000   0   0   0 # o*
   1057     13  10  0.400000    11.801696210    20.520504842    25.423346563   0   0   0 # hoy
   1058     13  10  0.400000     8.981954910    18.666952736    16.556567616   0   0   0 # hoy
   1059     13  10  0.400000     8.963549620    14.483544688    11.336226581   0   0   0 # hoy
   1060     13  10  0.400000    11.790930347    16.746147689     2.550392443   0   0   0 # hoy
   1061     13  11  0.410000    10.205935086    20.292845487     2.498299190   0   0   0 # h*
   1062     13  11  0.410000     9.375814022    21.249315793     1.712690205   0   0   0 # h*
   1063     13  11  0.410000     6.549260109    17.550476688     3.197921326   0   0   0 # h*
   1064     13  11  0.410000     6.914697447    16.107745366     3.386507348   0   0   0 # h*
   1065     13  11  0.410000     6.707816247    15.687576794     0.576324689   0   0   0 # h*
   1066     13  11  0.410000     7.036153249    14.541817318    -0.248548595   0   0   0 # h*
   1067     13  11  0.410000     9.245013125    14.289005514    -0.412339625   0   0   0 # h*
   1068     13  11  0.410000     9.288538954    15.588236357     0.507734712   0   0   0 # h*
   1069     13  11  0.410000     8.564784112    18.611937245    11.240697981   0   0   0 # h*
   1070     13  11  0.410000     9.922256809    18.340175791    10.628428401   0   0   0 # h*
   1071     13  11  0.410000     6.652705303    19.406714514    12.704850912   0   0   0 # h*
   1072     13  11  0.410000     6.700680483    18.504591039    11.510968959   0   0   0 # h*
   1073     13  11  0.410000     9.497449862    16.870848169    13.042448887   0   0   0 # h*
   1074     13  11  0.410000     9.867671991    16.800004223    14.441054179   0   0   0 # h*
   1075     13  11  0.410000     9.336609754    19.775050466    13.947312897   0   0   0 # h*
   1076     13  11  0.410000     9.331744969    21.230670002    14.334808815   0   0   0 # h*
   1077     13  11  0.410000     6.458538157    14.096129347    15.649539152   0   0   0 # h*
   1078     13  11  0.410000     7.352432975    14.926384613    16.507602957   0   0   0 # h*
   1079     13  11  0.410000     6.449346812    19.939439180    14.515919081   0   0   0 # h*
   1080     13  11  0.410000     6.460229568    21.244237403    13.603581679   0   0   0 # h*
   1081     13  11  0.410000     9.422011603    15.691310778    17.219969855   0   0   0 # h*
   1082     13  11  0.410000     9.690427493    14.225821262    17.360758008   0   0   0 # h*
   1083     13  11  0.410000     6.538205056    21.247504115    24.823259273   0   0   0 # h*
   1084     13  11  0.410000     6.872216270    19.798320547    24.654904704   0   0   0 # h*
   1085     13  11  0.410000     5.592996425    17.971804817    -0.258153482   0   0   1 # h*
   1086     13  11  0.410000     5.663333860    19.477208164    -0.320048786   0   0   1 # h*
   1087     13  11  0.410000     9.261274769    15.964327172    26.448947827   0   0   0 # h*
   1088     13  11  0.410000    10.072668606    16.727790860    25.446882538   0   0   0 # h*
   1089     14   1  1.500000    19.964204123    14.947675147     7.981892395   0   0   0 # ca+t
   1090     14   1  1.500000    17.226863907    16.764628968     6.008808858   0   0   0 # ca+t
   1091     14   2  1.000000    20.037425221    -0.239905743     4.903322411   0   1   0 # sc2
   1092     14   3  1.000000    20.854121267    16.777344811     2.913446599   0   0   0 # sc3
   1093     14   2  1.000000    19.997998347    18.905318782     4.900523664   0   0   0 # sc2
   1094     14   4 -0.580000    20.048689851    15.538258968     3.492777505   0   0   0 # oc12
   1095     14   4 -0.580000    20.093749040    20.535441655     4.315595471   0   0   0 # oc12
   1096     14   5 -0.940000    18.730711415    -0.014311693     5.779315327   0   1   0 # oc13
   1097     14   6 -1.080000    20.809084037    20.519378142    26.638026598   0   0   0 # oc22
   1098     14   7 -0.670000    -0.058970762    16.742179084     3.288472492   1   0   0 # oc14
   1099     14   8 -0.820000    17.457791832    16.739450909     3.627115294   0   0   0 # o*
   1100     14   4 -0.580000    20.088116726    18.096309502     3.503972495   0   0   0 # oc12
   1101     14   5 -0.940000    18.634960722    18.781740227     5.784912821   0   0   0 # oc13
   1102     14   8 -0.820000    21.163902669    16.715318178    26.419727952   0   0   0 # o*
   1103     14   8 -0.820000    17.485953742    14.990962186     0.083961001   0   0   0 # o*
   1104     14   9  1.700000    20.764003224    18.648128920     0.053175301   0   0   0 # casl
   1105     14   8 -0.820000    19.941674529    14.992146035    -0.000000000   0   0   0 # o*
   1106     14   1  1.500000    17.148010493    16.794052597    21.975392395   0   0   0 # ca+t
   1107     14   1  1.500000    20.043057537    14.918251517    20.002308858   0   0   0 # ca+t
   1108     14   2  1.000000    17.221231592    16.456471708    18.896822411   0   0   0 # sc2
   1109     14   3  1.000000    18.037927637    18.623722262    16.906946599   0   0   0 # sc3
   1110     14   2  1.000000    17.181804718    20.751696232    18.894023664   0   0   0 # sc2
   1111     14   4 -0.580000    17.232496221    17.384636418    17.486277505   0   0   0 # oc12
   1112     14   5 -0.940000    18.471621580    16.884080202    19.786809063   0   0   0 # oc13
   1113     14   5 -0.940000    15.914517785    16.682065758    19.772815327   0   0   0 # oc13
   1114     14   6 -1.080000    17.992890407    14.940755593    12.644526598   0   0   0 # oc22
   1115     14   7 -0.670000    19.654435608    18.588556534    17.281972492   0   0   0 # oc14
   1116     14   8 -0.820000    20.273985462    14.893073459    17.620615294   0   0   0 # o*
   1117     14   4 -0.580000    17.271923096    19.942686952    17.497472495   0   0   0 # oc12
   1118     14   5 -0.940000    15.818767092    20.628117677    19.778412821   0   0   0 # oc13
   1119     14   8 -0.820000    18.347709039    18.561695629    12.426227952   0   0   0 # o*
   1120     14   1  1.500000    19.964204122    18.660175147    20.005107605   0   0   0 # ca+t
   1121     14   1  1.500000    17.226863906    20.477128968    21.978191142   0   0   0 # ca+t
   1122     14   2  1.000000    20.037425222    18.322594256    23.083677589   0   0   0 # sc2
   1123     14   3  1.000000    20.854121267    20.489844812    25.073553401   0   0   0 # sc3
   1124     14   2  1.000000    19.997998347    15.192818781    23.086476336   0   0   0 # sc2
   1125     14   4 -0.580000    20.048689851    19.250758967    24.494222495   0   0   0 # oc12
   1126     14   4 -0.580000    20.093749041    16.822941655    23.671404529   0   0   0 # oc12
   1127     14   5 -0.940000    18.730711415    18.548188308    22.207684673   0   0   0 # oc13
   1128     14   6 -1.080000    20.809062413    16.806886690     1.348973402   0   0   0 # oc22
   1129     14   7 -0.670000    -0.058970763    20.454679084    24.698527508   1   0   0 # oc14
   1130     14   8 -0.820000    17.457791833    20.451950909    24.359884706   0   0   0 # o*
   1131     14   4 -0.580000    20.088116726    21.808809501    24.483027505   0   0   0 # oc12
   1132     14   5 -0.940000    18.634960721    15.069240227    22.202087179   0   0   0 # oc13
   1133     14   5 -0.940000    21.344160652    14.844841540    22.196489684   0   0   0 # oc13
   1134     14   8 -0.820000    21.163902670    20.427818179     1.567272048   0   0   0 # o*
   1135     14   8 -0.820000    17.485953742    18.703462187    -0.083961001   0   0   1 # o*
   1136     14   1  1.500000    17.148010493    20.506552597     6.011607605   0   0   0 # ca+t
   1137     14   1  1.500000    20.043057536    18.630751517     7.984691142   0   0   0 # ca+t
   1138     14   2  1.000000    17.221231592    20.168971707     9.090177589   0   0   0 # sc2
   1139     14   3  1.000000    18.037927637    14.911222263    11.080053401   0   0   0 # sc3
   1140     14   2  1.000000    17.181804718    17.039196232     9.092976336   0   0   0 # sc2
   1141     14   4 -0.580000    17.232496221    21.097136418    10.500722495   0   0   0 # oc12
   1142     14   4 -0.580000    17.277555411    18.669319106     9.677904529   0   0   0 # oc12
   1143     14   5 -0.940000    15.914517785    20.394565758     8.214184673   0   0   0 # oc13
   1144     14   6 -1.080000    17.992868783    18.653264141    15.342473402   0   0   0 # oc22
   1145     14   7 -0.670000    19.654435607    14.876056534    10.705027508   0   0   0 # oc14
   1146     14   8 -0.820000    20.273985463    18.605573459    10.366384706   0   0   0 # o*
   1147     14   4 -0.580000    17.271923096    16.230186952    10.489527505   0   0   0 # oc12
   1148     14   5 -0.940000    15.818767092    16.915617677     8.208587179   0   0   0 # oc13
   1149     14   5 -0.940000    18.527967022    16.691218990     8.202989684   0   0   0 # oc13
   1150     14   8 -0.820000    18.347709040    14.849195629    15.560772048   0   0   0 # o*
   1151     14   8 -0.820000    21.225837284    20.520856487    14.077461001   0   0   0 # o*
   1152     14   8 -0.820000    20.302147372    16.857084737    13.909538999   0   0   0 # o*
   1153     14   9  1.700000    17.947809594    16.782006371    13.940324699   0   0   0 # casl
   1154     14   8 -0.820000    17.125480898    20.551023485    13.993500000   0   0   0 # o*
   1155     14  10  0.400000     0.536896210    20.520504842    25.423346563   1   0   0 # hoy
   1156     14  10  0.400000    20.246754910    18.666952736    16.556567616   0   0   0 # hoy
   1157     14  10  0.400000    20.228349620    14.483544688    11.336226581   0   0   0 # hoy
   1158     14  10  0.400000     0.526130347    16.746147689     2.550392443   1   0   0 # hoy
   1159     14  11  0.410000    21.470735086    20.292845487     2.498299190   0   0   0 # h*
   1160     14  11  0.410000    20.640614022    21.249315793     1.712690205   0   0   0 # h*
   1161     14  11  0.410000    17.814060109    17.550476688     3.197921326   0   0   0 # h*
   1162     14  11  0.410000    18.179497447    16.107745366     3.386507348   0   0   0 # h*
   1163     14  11  0.410000    17.972616247    15.687576794     0.576324689   0   0   0 # h*
   1164     14  11  0.410000    18.300953249    14.541817318    -0.248548595   0   0   0 # h*
   1165     14  11  0.410000    20.509813125    14.289005514    -0.412339625   0   0   0 # h*
   1166     14  11  0.410000    20.553338954    15.588236357     0.507734712   0   0   0 # h*
   1167     14  11  0.410000    19.829584112    18.611937245    11.240697981   0   0   0 # h*
   1168     14  11  0.410000    21.187056809    18.340175791    10.628428401   0   0   0 # h*
   1169     14  11  0.410000    17.917505303    19.406714514    12.704850912   0   0   0 # h*
   1170     14  11  0.410000    17.965480483    18.504591039    11.510968959   0   0   0 # h*
   1171     14  11  0.410000    20.762249862    16.870848169    13.042448887   0   0   0 # h*
   1172     14  11  0.410000    21.132471991    16.800004223    14.441054179   0   0   0 # h*
   1173     14  11  0.410000    20.601409754    19.775050466    13.947312897   0   0   0 # h*
   1174     14  11  0.410000    20.596544969    21.230670002    14.334808815   0   0   0 # h*
   1175     14  11  0.410000    17.723338157    14.096129347    15.649539152   0   0   0 # h*
   1176     14  11  0.410000    18.617232975    14.926384613    16.507602957   0   0   0 # h*
   1177     14  11  0.410000    17.714146812    19.939439180    14.515919081   0   0   0 # h*
   1178     14  11  0.410000    17.725029568    21.244237403    13.603581679   0   0   0 # h*
   1179     14  11  0.410000    20.686811603    15.691310778    17.219969855   0   0   0 # h*
   1180     14  11  0.410000    20.955227493    14.225821262    17.360758008   0   0   0 # h*
   1181     14  11  0.410000    17.803005056    21.247504115    24.823259273   0   0   0 # h*
   1182     14  11  0.410000    18.137016270    19.798320547    24.654904704   0   0   0 # h*
   1183     14  11  0.410000    16.857796425    17.971804817    -0.258153482   0   0   1 # h*
   1184     14  11  0.410000    16.928133860    19.477208164    -0.320048786   0   0   1 # h*
   1185     14  11  0.410000    20.526074769    15.964327172    26.448947827   0   0   0 # h*
   1186     14  11  0.410000    21.337468606    16.727790860    25.446882538   0   0   0 # h*
   1187     15   5 -0.940000    10.023015210     0.187702752     5.793309063   0   0   0 # oc13
   1188     15   4 -0.580000     6.012755410     0.106819106    18.309095471   0   0   0 # oc12
   1189     16   5 -0.940000    21.287815210     0.187702752     5.793309063   0   0   0 # oc13
   1190     16   4 -0.580000    17.277555410     0.106819106    18.309095471   0   0   0 # oc12
   1191     17   5 -0.940000    10.079360652    -0.005158460    22.196489684   0   1   0 # oc13
   1192     17   8 -0.820000     7.082909040    -0.000804371    15.560772048   0   1   0 # o*
   1193     17  10  0.400000     8.963549620    21.908544688    11.336226581   0   0   0 # hoy
   1194     17  11  0.410000     6.458538157    21.521129347    15.649539152   0   0   0 # h*
   1195     17  11  0.410000     7.352432975     0.076384613    16.507602957   0   1   0 # h*
   1196     18   5 -0.940000    21.344160652    -0.005158460    22.196489684   0   1   0 # oc13
   1197     18   8 -0.820000    18.347709040    -0.000804371    15.560772048   0   1   0 # o*
   1198     18  10  0.400000    20.228349620    21.908544688    11.336226581   0   0   0 # hoy
   1199     18  11  0.410000    17.723338157    21.521129347    15.649539152   0   0   0 # h*
   1200     18  11  0.410000    18.617232975     0.076384613    16.507602957   0   1   0 # h*
   1201     19   5 -0.940000     4.446951768     7.400104989     5.790510316   0   0   0 # oc13
   1202     19   5 -0.940000     1.630758139     9.246482439    19.784010316   0   0   0 # oc13
   1203     19   5 -0.940000     4.390595360    15.017949476    22.193690937   0   0   0 # oc13
   1204     19   5 -0.940000     1.574401730     9.439326927     8.200190937   0   0   0 # oc13
   1205     20   5 -0.940000    15.711751768     7.400104989     5.790510316   0   0   0 # oc13
   1206     20   5 -0.940000    12.895558139     9.246482439    19.784010316   0   0   0 # oc13
   1207     20   5 -0.940000    15.655395360    15.017949476    22.193690937   0   0   0 # oc13
   1208     20   5 -0.940000    12.839201730     9.439326927     8.200190937   0   0   0 # oc13
   1209     21   5 -0.940000     4.446951768    14.825104989     5.790510316   0   0   0 # oc13
   1210     21   5 -0.940000     1.630758139    16.671482439    19.784010316   0   0   0 # oc13
   1211     21   5 -0.940000     1.574401730    16.864326927     8.200190937   0   0   0 # oc13
   1212     22   5 -0.940000    15.711751768    14.825104989     5.790510316   0   0   0 # oc13
   1213     22   5 -0.940000    12.895558139    16.671482439    19.784010316   0   0   0 # oc13
   1214     22   5 -0.940000    12.839201730    16.864326927     8.200190937   0   0   0 # oc13
   1215     23   5 -0.940000     4.446951768    -0.024895011     5.790510316   0   1   0 # oc13
   1216     24   5 -0.940000    15.711751768    -0.024895011     5.790510316   0   1   0 # oc13
   1217     25   5 -0.940000     1.630758139     1.821482439    19.784010316   0   0   0 # oc13
   1218     25   5 -0.940000     4.390595360     7.592949476    22.193690937   0   0   0 # oc13
   1219     25   5 -0.940000     1.574401730     2.014326927     8.200190937   0   0   0 # oc13
   1220     26   5 -0.940000    12.895558139     1.821482439    19.784010316   0   0   0 # oc13
   1221     26   5 -0.940000    15.655395360     7.592949476    22.193690937   0   0   0 # oc13
   1222     26   5 -0.940000    12.839201730     2.014326927     8.200190937   0   0   0 # oc13
   1223     27   5 -0.940000     4.390595360     0.167949476    22.193690937   0   0   0 # oc13
   1224     28   5 -0.940000    15.655395360     0.167949476    22.193690937   0   0   0 # oc13
   1225     29   5 -0.940000    10.079339028     3.707350088     5.790510316   0   0   0 # oc13
   1226     29   5 -0.940000     7.263145398     5.553727538    19.784010316   0   0   0 # oc13
   1227     29   5 -0.940000    10.022982620     3.900194576    22.193690937   0   0   0 # oc13
   1228     29   5 -0.940000     7.206788990     5.746572026     8.200190937   0   0   0 # oc13
   1229     30   5 -0.940000    21.344139028     3.707350088     5.790510316   0   0   0 # oc13
   1230     30   5 -0.940000    18.527945398     5.553727538    19.784010316   0   0   0 # oc13
   1231     30   5 -0.940000    21.287782620     3.900194576    22.193690937   0   0   0 # oc13
   1232     30   5 -0.940000    18.471588990     5.746572026     8.200190937   0   0   0 # oc13
   1233     31   5 -0.940000    10.079339028    11.132350088     5.790510316   0   0   0 # oc13
   1234     31   5 -0.940000     7.263145398    12.978727538    19.784010316   0   0   0 # oc13
   1235     31   5 -0.940000    10.022982620    11.325194576    22.193690937   0   0   0 # oc13
   1236     31   5 -0.940000     7.206788990    13.171572026     8.200190937   0   0   0 # oc13
   1237     32   5 -0.940000    21.344139028    11.132350088     5.790510316   0   0   0 # oc13
   1238     32   5 -0.940000    18.527945398    12.978727538    19.784010316   0   0   0 # oc13
   1239     32   5 -0.940000    21.287782620    11.325194576    22.193690937   0   0   0 # oc13
   1240     32   5 -0.940000    18.471588990    13.171572026     8.200190937   0   0   0 # oc13
   1241     33   5 -0.940000    10.079339028    18.557350088     5.790510316   0   0   0 # oc13
   1242     33   5 -0.940000     7.263145398    20.403727538    19.784010316   0   0   0 # oc13
   1243     33   5 -0.940000    10.022982620    18.750194576    22.193690937   0   0   0 # oc13
   1244     33   5 -0.940000     7.206788990    20.596572026     8.200190937   0   0   0 # oc13
   1245     34   5 -0.940000    21.344139028    18.557350088     5.790510316   0   0   0 # oc13
   1246     34   5 -0.940000    18.527945398    20.403727538    19.784010316   0   0   0 # oc13
   1247     34   5 -0.940000    21.287782620    18.750194576    22.193690937   0   0   0 # oc13
   1248     34   5 -0.940000    18.471588990    20.596572026     8.200190937   0   0   0 # oc13

Bonds

     1   1      3      6
     2   1      3      7
     3   2      3      8
     4   2      3      9
     5   3      4      6
     6   4      4     11
     7   3      4     13
     8   5      4     42
     9   1      5      7
    10   2      5     14
    11   2      5   1215
    12   1      5    413
    13   5     37     10
    14   6     11     72
    15   7     12     75
    16   7     12     76
    17   1    205     13
    18   7     15     99
    19   7     15    100
    20   7     16     77
    21   7     16     78
    22   7     18     79
    23   7     18     80
    24   1     21     24
    25   1     21     25
    26   2     21     26
    27   2     21     27
    28   3     22     24
    29   4     22     29
    30   5     22     58
    31   3     22    231
    32   1     23     25
    33   1     23     31
    34   2     23     32
    35   2     23   1217
    36   5     53     28
    37   6     29     70
    38   7     30     93
    39   7     30     94
    40   3    575     31
    41   7     33     83
    42   7     33     84
    43   1     36     40
    44   2     36     41
    45   2     36   1218
    46   1     36    239
    47   3     37     39
    48   4     37     43
    49   3     37     45
    50   1     38     40
    51   1     38     45
    52   2     38     46
    53   2     38     47
    54   1    432     39
    55   6     43     69
    56   7     44     95
    57   7     44     96
    58   7     48     73
    59   7     48     74
    60   7     49     97
    61   7     49     98
    62   1     52     55
    63   2     52     57
    64   2     52   1219
    65   1     52    581
    66   3     53     55
    67   4     53     59
    68   3     53     61
    69   1     54     56
    70   1     54     61
    71   2     54     62
    72   2     54     63
    73   1    252     56
    74   6     59     71
    75   7     60     81
    76   7     60     82
    77   7     64     89
    78   7     64     90
    79   7     65     87
    80   7     65     88
    81   7     66     85
    82   7     66     86
    83   7     68     91
    84   7     68     92
    85   1    103    106
    86   1    103    107
    87   2    103    108
    88   2    103    109
    89   3    104    106
    90   4    104    111
    91   3    104    113
    92   5    104    142
    93   1    105    107
    94   2    105    114
    95   2    105   1216
    96   1    105    500
    97   5    137    110
    98   6    111    172
    99   7    112    175
   100   7    112    176
   101   1    305    113
   102   7    115    199
   103   7    115    200
   104   7    116    177
   105   7    116    178
   106   7    118    179
   107   7    118    180
   108   1    121    124
   109   1    121    125
   110   2    121    126
   111   2    121    127
   112   3    122    124
   113   4    122    129
   114   5    122    158
   115   3    122    331
   116   1    123    125
   117   1    123    131
   118   2    123    132
   119   2    123   1220
   120   5    153    128
   121   6    129    170
   122   7    130    193
   123   7    130    194
   124   3    588    131
   125   7    133    183
   126   7    133    184
   127   1    136    140
   128   2    136    141
   129   2    136   1221
   130   1    136    339
   131   3    137    139
   132   4    137    143
   133   3    137    145
   134   1    138    140
   135   1    138    145
   136   2    138    146
   137   2    138    147
   138   1    519    139
   139   6    143    169
   140   7    144    195
   141   7    144    196
   142   7    148    173
   143   7    148    174
   144   7    149    197
   145   7    149    198
   146   1    152    155
   147   2    152    157
   148   2    152   1222
   149   1    152    594
   150   3    153    155
   151   4    153    159
   152   3    153    161
   153   1    154    156
   154   1    154    161
   155   2    154    162
   156   2    154    163
   157   1    352    156
   158   6    159    171
   159   7    160    181
   160   7    160    182
   161   7    164    189
   162   7    164    190
   163   7    165    187
   164   7    165    188
   165   7    166    185
   166   7    166    186
   167   7    168    191
   168   7    168    192
   169   1    203    206
   170   1    203    207
   171   2    203    208
   172   2    203    209
   173   3    204    206
   174   4    204    211
   175   3    204    213
   176   5    204    242
   177   1    205    207
   178   2    205    214
   179   2    205   1201
   180   5    237    210
   181   6    211    272
   182   7    212    275
   183   7    212    276
   184   1    405    213
   185   7    215    299
   186   7    215    300
   187   7    216    277
   188   7    216    278
   189   7    218    279
   190   7    218    280
   191   1    221    224
   192   1    221    225
   193   2    221    226
   194   2    221    227
   195   3    222    224
   196   4    222    229
   197   5    222    258
   198   3    222    429
   199   1    223    225
   200   1    223    231
   201   2    223    232
   202   2    223   1202
   203   5    253    228
   204   6    229    270
   205   7    230    293
   206   7    230    294
   207   7    233    283
   208   7    233    284
   209   1    236    240
   210   2    236    241
   211   2    236   1203
   212   1    236    435
   213   3    237    239
   214   4    237    243
   215   3    237    245
   216   1    238    240
   217   1    238    245
   218   2    238    246
   219   2    238    247
   220   6    243    269
   221   7    244    295
   222   7    244    296
   223   7    248    273
   224   7    248    274
   225   7    249    297
   226   7    249    298
   227   1    252    255
   228   2    252    257
   229   2    252   1204
   230   3    253    255
   231   4    253    259
   232   3    253    261
   233   1    254    256
   234   1    254    261
   235   2    254    262
   236   2    254    263
   237   1    446    256
   238   6    259    271
   239   7    260    281
   240   7    260    282
   241   7    264    289
   242   7    264    290
   243   7    265    287
   244   7    265    288
   245   7    266    285
   246   7    266    286
   247   7    268    291
   248   7    268    292
   249   1    303    306
   250   1    303    307
   251   2    303    308
   252   2    303    309
   253   3    304    306
   254   4    304    311
   255   3    304    313
   256   5    304    342
   257   1    305    307
   258   2    305    314
   259   2    305   1205
   260   5    337    310
   261   6    311    372
   262   7    312    375
   263   7    312    376
   264   1    492    313
   265   7    315    399
   266   7    315    400
   267   7    316    377
   268   7    316    378
   269   7    318    379
   270   7    318    380
   271   1    321    324
   272   1    321    325
   273   2    321    326
   274   2    321    327
   275   3    322    324
   276   4    322    329
   277   5    322    358
   278   3    322    516
   279   1    323    325
   280   1    323    331
   281   2    323    332
   282   2    323   1206
   283   5    353    328
   284   6    329    370
   285   7    330    393
   286   7    330    394
   287   7    333    383
   288   7    333    384
   289   1    336    340
   290   2    336    341
   291   2    336   1207
   292   1    336    522
   293   3    337    339
   294   4    337    343
   295   3    337    345
   296   1    338    340
   297   1    338    345
   298   2    338    346
   299   2    338    347
   300   6    343    369
   301   7    344    395
   302   7    344    396
   303   7    348    373
   304   7    348    374
   305   7    349    397
   306   7    349    398
   307   1    352    355
   308   2    352    357
   309   2    352   1208
   310   3    353    355
   311   4    353    359
   312   3    353    361
   313   1    354    356
   314   1    354    361
   315   2    354    362
   316   2    354    363
   317   1    533    356
   318   6    359    371
   319   7    360    381
   320   7    360    382
   321   7    364    389
   322   7    364    390
   323   7    365    387
   324   7    365    388
   325   7    366    385
   326   7    366    386
   327   7    368    391
   328   7    368    392
   329   1    403    406
   330   1    403    407
   331   2    403    408
   332   2    403    409
   333   3    404    406
   334   4    404    411
   335   3    404    413
   336   5    404    438
   337   1    405    407
   338   2    405    414
   339   2    405   1209
   340   5    433    410
   341   6    411    463
   342   7    412    466
   343   7    412    467
   344   7    415    486
   345   7    415    487
   346   7    416    468
   347   7    416    469
   348   7    418    470
   349   7    418    471
   350   1    421    423
   351   1    421    424
   352   2    421    425
   353   2    421    426
   354   1    422    424
   355   1    422    429
   356   2    422    430
   357   2    422   1210
   358   3    575    423
   359   5    447    427
   360   7    428    482
   361   7    428    483
   362   1    432    436
   363   2    432    437
   364   2    432   1223
   365   3    433    435
   366   4    433    439
   367   3    433    441
   368   1    434    436
   369   1    434    441
   370   2    434    442
   371   2    434    443
   372   6    439    461
   373   7    440    484
   374   7    440    485
   375   7    444    464
   376   7    444    465
   377   1    446    449
   378   2    446    450
   379   2    446   1211
   380   3    447    449
   381   4    447    451
   382   3    447    453
   383   1    448    581
   384   1    448    453
   385   2    448    454
   386   2    448    455
   387   6    451    462
   388   7    452    472
   389   7    452    473
   390   7    456    478
   391   7    456    479
   392   7    457    476
   393   7    457    477
   394   7    458    474
   395   7    458    475
   396   7    460    480
   397   7    460    481
   398   1    490    493
   399   1    490    494
   400   2    490    495
   401   2    490    496
   402   3    491    493
   403   4    491    498
   404   3    491    500
   405   5    491    525
   406   1    492    494
   407   2    492    501
   408   2    492   1212
   409   5    520    497
   410   6    498    550
   411   7    499    553
   412   7    499    554
   413   7    502    573
   414   7    502    574
   415   7    503    555
   416   7    503    556
   417   7    505    557
   418   7    505    558
   419   1    508    510
   420   1    508    511
   421   2    508    512
   422   2    508    513
   423   1    509    511
   424   1    509    516
   425   2    509    517
   426   2    509   1213
   427   3    588    510
   428   5    534    514
   429   7    515    569
   430   7    515    570
   431   1    519    523
   432   2    519    524
   433   2    519   1224
   434   3    520    522
   435   4    520    526
   436   3    520    528
   437   1    521    523
   438   1    521    528
   439   2    521    529
   440   2    521    530
   441   6    526    548
   442   7    527    571
   443   7    527    572
   444   7    531    551
   445   7    531    552
   446   1    533    536
   447   2    533    537
   448   2    533   1214
   449   3    534    536
   450   4    534    538
   451   3    534    540
   452   1    535    594
   453   1    535    540
   454   2    535    541
   455   2    535    542
   456   6    538    549
   457   7    539    559
   458   7    539    560
   459   7    543    565
   460   7    543    566
   461   7    544    563
   462   7    544    564
   463   7    545    561
   464   7    545    562
   465   7    547    567
   466   7    547    568
   467   4    575    576
   468   5    575    582
   469   6    576    583
   470   7    577    584
   471   7    577    585
   472   7    579    586
   473   7    579    587
   474   4    588    589
   475   5    588    595
   476   6    589    596
   477   7    590    597
   478   7    590    598
   479   7    592    599
   480   7    592    600
   481   1    603    607
   482   2    603    608
   483   2    603    609
   484   1    603    796
   485   3    604    606
   486   4    604    611
   487   3    604    613
   488   5    604    642
   489   1    605    607
   490   1    605    613
   491   2    605    614
   492   2    605   1225
   493   1    993    606
   494   5    637    610
   495   6    611    669
   496   7    612    672
   497   7    612    673
   498   7    615    694
   499   7    615    695
   500   7    616    674
   501   7    616    675
   502   7    618    676
   503   7    618    677
   504   1    621    624
   505   2    621    626
   506   2    621    627
   507   1    621   1188
   508   3    622    624
   509   4    622    629
   510   3    622    631
   511   5    622    657
   512   1    623    631
   513   2    623    632
   514   2    623   1226
   515   1    623    625
   516   1    811    625
   517   5    652    628
   518   6    629    668
   519   7    630    688
   520   7    630    689
   521   7    633    680
   522   7    633    681
   523   1    636    639
   524   1    636    640
   525   2    636    641
   526   2    636   1227
   527   3    637    639
   528   4    637    643
   529   3    637    645
   530   1    638    640
   531   2    638    646
   532   2    638   1191
   533   1    638   1033
   534   6    643    667
   535   7    644    690
   536   7    644    691
   537   1    828    645
   538   7    647    670
   539   7    647    671
   540   7    648    692
   541   7    648    693
   542   1    651    654
   543   1    651    655
   544   2    651    656
   545   2    651   1228
   546   4    652    658
   547   3    652    660
   548   3    652   1043
   549   1    653    655
   550   1    653    660
   551   2    653    661
   552   2    653    662
   553   3    843    654
   554   6    658   1193
   555   7    659    678
   556   7    659    679
   557   7    663    684
   558   7    663    685
   559   7    664    682
   560   7    664    683
   561   7    666    686
   562   7    666    687
   563   1    698    702
   564   2    698    703
   565   2    698    704
   566   1    698    896
   567   3    699    701
   568   4    699    706
   569   3    699    708
   570   5    699    737
   571   1    700    702
   572   1    700    708
   573   2    700    709
   574   2    700   1229
   575   1   1091    701
   576   5    732    705
   577   6    706    764
   578   7    707    767
   579   7    707    768
   580   7    710    789
   581   7    710    790
   582   7    711    769
   583   7    711    770
   584   7    713    771
   585   7    713    772
   586   1    716    719
   587   2    716    721
   588   2    716    722
   589   1    716   1190
   590   3    717    719
   591   4    717    724
   592   3    717    726
   593   5    717    752
   594   1    718    726
   595   2    718    727
   596   2    718   1230
   597   1    718    720
   598   1    911    720
   599   5    747    723
   600   6    724    763
   601   7    725    783
   602   7    725    784
   603   7    728    775
   604   7    728    776
   605   1    731    734
   606   1    731    735
   607   2    731    736
   608   2    731   1231
   609   3    732    734
   610   4    732    738
   611   3    732    740
   612   1    733    735
   613   2    733    741
   614   2    733   1196
   615   1    733   1131
   616   6    738    762
   617   7    739    785
   618   7    739    786
   619   1    928    740
   620   7    742    765
   621   7    742    766
   622   7    743    787
   623   7    743    788
   624   1    746    749
   625   1    746    750
   626   2    746    751
   627   2    746   1232
   628   4    747    753
   629   3    747    755
   630   3    747   1141
   631   1    748    750
   632   1    748    755
   633   2    748    756
   634   2    748    757
   635   3    943    749
   636   6    753   1198
   637   7    754    773
   638   7    754    774
   639   7    758    779
   640   7    758    780
   641   7    759    777
   642   7    759    778
   643   7    761    781
   644   7    761    782
   645   1    793    797
   646   2    793    798
   647   2    793    799
   648   1    793    996
   649   3    794    796
   650   4    794    801
   651   3    794    803
   652   5    794    832
   653   1    795    797
   654   1    795    803
   655   2    795    804
   656   2    795   1233
   657   5    827    800
   658   6    801    862
   659   7    802    865
   660   7    802    866
   661   7    805    889
   662   7    805    890
   663   7    806    867
   664   7    806    868
   665   7    808    869
   666   7    808    870
   667   1    811    814
   668   2    811    816
   669   2    811    817
   670   3    812    814
   671   4    812    819
   672   3    812    821
   673   5    812    848
   674   1    813    821
   675   2    813    822
   676   2    813   1234
   677   1    813    815
   678   1   1010    815
   679   5    843    818
   680   6    819    860
   681   7    820    883
   682   7    820    884
   683   7    823    873
   684   7    823    874
   685   1    826    829
   686   1    826    830
   687   2    826    831
   688   2    826   1235
   689   3    827    829
   690   4    827    833
   691   3    827    835
   692   1    828    830
   693   2    828    836
   694   2    828    837
   695   6    833    859
   696   7    834    885
   697   7    834    886
   698   1   1026    835
   699   7    838    863
   700   7    838    864
   701   7    839    887
   702   7    839    888
   703   1    842    845
   704   1    842    846
   705   2    842    847
   706   2    842   1236
   707   4    843    849
   708   3    843    851
   709   1    844    846
   710   1    844    851
   711   2    844    852
   712   2    844    853
   713   3   1041    845
   714   6    849    861
   715   7    850    871
   716   7    850    872
   717   7    854    879
   718   7    854    880
   719   7    855    877
   720   7    855    878
   721   7    856    875
   722   7    856    876
   723   7    858    881
   724   7    858    882
   725   1    893    897
   726   2    893    898
   727   2    893    899
   728   1    893   1094
   729   3    894    896
   730   4    894    901
   731   3    894    903
   732   5    894    932
   733   1    895    897
   734   1    895    903
   735   2    895    904
   736   2    895   1237
   737   5    927    900
   738   6    901    962
   739   7    902    965
   740   7    902    966
   741   7    905    989
   742   7    905    990
   743   7    906    967
   744   7    906    968
   745   7    908    969
   746   7    908    970
   747   1    911    914
   748   2    911    916
   749   2    911    917
   750   3    912    914
   751   4    912    919
   752   3    912    921
   753   5    912    948
   754   1    913    921
   755   2    913    922
   756   2    913   1238
   757   1    913    915
   758   1   1108    915
   759   5    943    918
   760   6    919    960
   761   7    920    983
   762   7    920    984
   763   7    923    973
   764   7    923    974
   765   1    926    929
   766   1    926    930
   767   2    926    931
   768   2    926   1239
   769   3    927    929
   770   4    927    933
   771   3    927    935
   772   1    928    930
   773   2    928    936
   774   2    928    937
   775   6    933    959
   776   7    934    985
   777   7    934    986
   778   1   1124    935
   779   7    938    963
   780   7    938    964
   781   7    939    987
   782   7    939    988
   783   1    942    945
   784   1    942    946
   785   2    942    947
   786   2    942   1240
   787   4    943    949
   788   3    943    951
   789   1    944    946
   790   1    944    951
   791   2    944    952
   792   2    944    953
   793   3   1139    945
   794   6    949    961
   795   7    950    971
   796   7    950    972
   797   7    954    979
   798   7    954    980
   799   7    955    977
   800   7    955    978
   801   7    956    975
   802   7    956    976
   803   7    958    981
   804   7    958    982
   805   1    993    997
   806   2    993   1187
   807   2    993    998
   808   3    994    996
   809   4    994   1000
   810   3    994   1002
   811   5    994   1030
   812   1    995    997
   813   1    995   1002
   814   2    995   1003
   815   2    995   1241
   816   5   1025    999
   817   6   1000   1060
   818   7   1001   1063
   819   7   1001   1064
   820   7   1004   1087
   821   7   1004   1088
   822   7   1005   1065
   823   7   1005   1066
   824   7   1007   1067
   825   7   1007   1068
   826   1   1010   1013
   827   2   1010   1014
   828   2   1010   1015
   829   3   1011   1013
   830   4   1011   1017
   831   3   1011   1019
   832   5   1011   1046
   833   1   1012   1019
   834   2   1012   1020
   835   2   1012   1242
   836   1   1012   1188
   837   5   1041   1016
   838   6   1017   1058
   839   7   1018   1081
   840   7   1018   1082
   841   7   1021   1071
   842   7   1021   1072
   843   1   1024   1027
   844   1   1024   1028
   845   2   1024   1029
   846   2   1024   1243
   847   3   1025   1027
   848   4   1025   1031
   849   3   1025   1033
   850   1   1026   1028
   851   2   1026   1034
   852   2   1026   1035
   853   6   1031   1057
   854   7   1032   1083
   855   7   1032   1084
   856   7   1036   1061
   857   7   1036   1062
   858   7   1037   1085
   859   7   1037   1086
   860   1   1040   1043
   861   1   1040   1044
   862   2   1040   1045
   863   2   1040   1244
   864   4   1041   1047
   865   3   1041   1049
   866   1   1042   1044
   867   1   1042   1049
   868   2   1042   1050
   869   2   1042   1051
   870   6   1047   1059
   871   7   1048   1069
   872   7   1048   1070
   873   7   1052   1077
   874   7   1052   1078
   875   7   1053   1075
   876   7   1053   1076
   877   7   1054   1073
   878   7   1054   1074
   879   7   1056   1079
   880   7   1056   1080
   881   1   1091   1095
   882   2   1091   1189
   883   2   1091   1096
   884   3   1092   1094
   885   4   1092   1098
   886   3   1092   1100
   887   5   1092   1128
   888   1   1093   1095
   889   1   1093   1100
   890   2   1093   1101
   891   2   1093   1245
   892   5   1123   1097
   893   6   1098   1158
   894   7   1099   1161
   895   7   1099   1162
   896   7   1102   1185
   897   7   1102   1186
   898   7   1103   1163
   899   7   1103   1164
   900   7   1105   1165
   901   7   1105   1166
   902   1   1108   1111
   903   2   1108   1112
   904   2   1108   1113
   905   3   1109   1111
   906   4   1109   1115
   907   3   1109   1117
   908   5   1109   1144
   909   1   1110   1117
   910   2   1110   1118
   911   2   1110   1246
   912   1   1110   1190
   913   5   1139   1114
   914   6   1115   1156
   915   7   1116   1179
   916   7   1116   1180
   917   7   1119   1169
   918   7   1119   1170
   919   1   1122   1125
   920   1   1122   1126
   921   2   1122   1127
   922   2   1122   1247
   923   3   1123   1125
   924   4   1123   1129
   925   3   1123   1131
   926   1   1124   1126
   927   2   1124   1132
   928   2   1124   1133
   929   6   1129   1155
   930   7   1130   1181
   931   7   1130   1182
   932   7   1134   1159
   933   7   1134   1160
   934   7   1135   1183
   935   7   1135   1184
   936   1   1138   1141
   937   1   1138   1142
   938   2   1138   1143
   939   2   1138   1248
   940   4   1139   1145
   941   3   1139   1147
   942   1   1140   1142
   943   1   1140   1147
   944   2   1140   1148
   945   2   1140   1149
   946   6   1145   1157
   947   7   1146   1167
   948   7   1146   1168
   949   7   1150   1175
   950   7   1150   1176
   951   7   1151   1173
   952   7   1151   1174
   953   7   1152   1171
   954   7   1152   1172
   955   7   1154   1177
   956   7   1154   1178
   957   7   1192   1194
   958   7   1192   1195
   959   7   1197   1199
   960   7   1197   1200

Angles

     1   1      6      3      7
     2   2      6      3      8
     3   2      6      3      9
     4   2      7      3      8
     5   2      7      3      9
     6   3      8      3      9
     7   4      6      4     11
     8   5      6      4     13
     9   6      6      4     42
    10   4     13      4     11
    11   7     42      4     11
    12   6     13      4     42
    13   2      7      5     14
    14   2      7      5   1215
    15   1      7      5    413
    16   3     14      5   1215
    17   2    413      5     14
    18   2    413      5   1215
    19   8      3      6      4
    20   9      3      7      5
    21  10      4     11     72
    22  11     75     12     76
    23   8    205     13      4
    24  11     99     15    100
    25  11     77     16     78
    26  11     79     18     80
    27   1     24     21     25
    28   2     24     21     26
    29   2     24     21     27
    30   2     25     21     26
    31   2     25     21     27
    32   3     26     21     27
    33   4     24     22     29
    34   6     24     22     58
    35   5     24     22    231
    36   7     58     22     29
    37   4    231     22     29
    38   6    231     22     58
    39   1     25     23     31
    40   2     25     23     32
    41   2     25     23   1217
    42   2     31     23     32
    43   2     31     23   1217
    44   3     32     23   1217
    45   8     21     24     22
    46   9     21     25     23
    47  10     22     29     70
    48  11     93     30     94
    49   8     23     31    575
    50  11     83     33     84
    51   2     40     36     41
    52   2     40     36   1218
    53   1     40     36    239
    54   3     41     36   1218
    55   2    239     36     41
    56   2    239     36   1218
    57   6     39     37     10
    58   7     10     37     43
    59   6     45     37     10
    60   4     39     37     43
    61   5     39     37     45
    62   4     45     37     43
    63   1     40     38     45
    64   2     40     38     46
    65   2     40     38     47
    66   2     45     38     46
    67   2     45     38     47
    68   3     46     38     47
    69   8    432     39     37
    70   9     36     40     38
    71  10     37     43     69
    72  11     95     44     96
    73   8     38     45     37
    74  11     73     48     74
    75  11     97     49     98
    76   2     55     52     57
    77   2     55     52   1219
    78   1     55     52    581
    79   3     57     52   1219
    80   2    581     52     57
    81   2    581     52   1219
    82   6     55     53     28
    83   7     28     53     59
    84   6     61     53     28
    85   4     55     53     59
    86   5     55     53     61
    87   4     61     53     59
    88   1     56     54     61
    89   2     56     54     62
    90   2     56     54     63
    91   2     61     54     62
    92   2     61     54     63
    93   3     62     54     63
    94   8     52     55     53
    95   9     54     56    252
    96  10     53     59     71
    97  11     81     60     82
    98   8     54     61     53
    99  11     89     64     90
   100  11     87     65     88
   101  11     85     66     86
   102  11     91     68     92
   103   1    106    103    107
   104   2    106    103    108
   105   2    106    103    109
   106   2    107    103    108
   107   2    107    103    109
   108   3    108    103    109
   109   4    106    104    111
   110   5    106    104    113
   111   6    106    104    142
   112   4    113    104    111
   113   7    142    104    111
   114   6    113    104    142
   115   2    107    105    114
   116   2    107    105   1216
   117   1    107    105    500
   118   3    114    105   1216
   119   2    500    105    114
   120   2    500    105   1216
   121   8    103    106    104
   122   9    103    107    105
   123  10    104    111    172
   124  11    175    112    176
   125   8    305    113    104
   126  11    199    115    200
   127  11    177    116    178
   128  11    179    118    180
   129   1    124    121    125
   130   2    124    121    126
   131   2    124    121    127
   132   2    125    121    126
   133   2    125    121    127
   134   3    126    121    127
   135   4    124    122    129
   136   6    124    122    158
   137   5    124    122    331
   138   7    158    122    129
   139   4    331    122    129
   140   6    331    122    158
   141   1    125    123    131
   142   2    125    123    132
   143   2    125    123   1220
   144   2    131    123    132
   145   2    131    123   1220
   146   3    132    123   1220
   147   8    121    124    122
   148   9    121    125    123
   149  10    122    129    170
   150  11    193    130    194
   151   8    123    131    588
   152  11    183    133    184
   153   2    140    136    141
   154   2    140    136   1221
   155   1    140    136    339
   156   3    141    136   1221
   157   2    339    136    141
   158   2    339    136   1221
   159   6    139    137    110
   160   7    110    137    143
   161   6    145    137    110
   162   4    139    137    143
   163   5    139    137    145
   164   4    145    137    143
   165   1    140    138    145
   166   2    140    138    146
   167   2    140    138    147
   168   2    145    138    146
   169   2    145    138    147
   170   3    146    138    147
   171   8    519    139    137
   172   9    136    140    138
   173  10    137    143    169
   174  11    195    144    196
   175   8    138    145    137
   176  11    173    148    174
   177  11    197    149    198
   178   2    155    152    157
   179   2    155    152   1222
   180   1    155    152    594
   181   3    157    152   1222
   182   2    594    152    157
   183   2    594    152   1222
   184   6    155    153    128
   185   7    128    153    159
   186   6    161    153    128
   187   4    155    153    159
   188   5    155    153    161
   189   4    161    153    159
   190   1    156    154    161
   191   2    156    154    162
   192   2    156    154    163
   193   2    161    154    162
   194   2    161    154    163
   195   3    162    154    163
   196   8    152    155    153
   197   9    154    156    352
   198  10    153    159    171
   199  11    181    160    182
   200   8    154    161    153
   201  11    189    164    190
   202  11    187    165    188
   203  11    185    166    186
   204  11    191    168    192
   205   1    206    203    207
   206   2    206    203    208
   207   2    206    203    209
   208   2    207    203    208
   209   2    207    203    209
   210   3    208    203    209
   211   4    206    204    211
   212   5    206    204    213
   213   6    206    204    242
   214   4    213    204    211
   215   7    242    204    211
   216   6    213    204    242
   217   2    207    205    214
   218   2    207    205   1201
   219   1    207    205     13
   220   3    214    205   1201
   221   2     13    205    214
   222   2     13    205   1201
   223   8    203    206    204
   224   9    203    207    205
   225  10    204    211    272
   226  11    275    212    276
   227   8    405    213    204
   228  11    299    215    300
   229  11    277    216    278
   230  11    279    218    280
   231   1    224    221    225
   232   2    224    221    226
   233   2    224    221    227
   234   2    225    221    226
   235   2    225    221    227
   236   3    226    221    227
   237   4    224    222    229
   238   6    224    222    258
   239   5    224    222    429
   240   7    258    222    229
   241   4    429    222    229
   242   6    429    222    258
   243   1    225    223    231
   244   2    225    223    232
   245   2    225    223   1202
   246   2    231    223    232
   247   2    231    223   1202
   248   3    232    223   1202
   249   8    221    224    222
   250   9    221    225    223
   251  10    222    229    270
   252  11    293    230    294
   253   8    223    231     22
   254  11    283    233    284
   255   2    240    236    241
   256   2    240    236   1203
   257   1    240    236    435
   258   3    241    236   1203
   259   2    435    236    241
   260   2    435    236   1203
   261   6    239    237    210
   262   7    210    237    243
   263   6    245    237    210
   264   4    239    237    243
   265   5    239    237    245
   266   4    245    237    243
   267   1    240    238    245
   268   2    240    238    246
   269   2    240    238    247
   270   2    245    238    246
   271   2    245    238    247
   272   3    246    238    247
   273   8     36    239    237
   274   9    236    240    238
   275  10    237    243    269
   276  11    295    244    296
   277   8    238    245    237
   278  11    273    248    274
   279  11    297    249    298
   280   2    255    252    257
   281   2    255    252   1204
   282   1    255    252     56
   283   3    257    252   1204
   284   2     56    252    257
   285   2     56    252   1204
   286   6    255    253    228
   287   7    228    253    259
   288   6    261    253    228
   289   4    255    253    259
   290   5    255    253    261
   291   4    261    253    259
   292   1    256    254    261
   293   2    256    254    262
   294   2    256    254    263
   295   2    261    254    262
   296   2    261    254    263
   297   3    262    254    263
   298   8    252    255    253
   299   9    254    256    446
   300  10    253    259    271
   301  11    281    260    282
   302   8    254    261    253
   303  11    289    264    290
   304  11    287    265    288
   305  11    285    266    286
   306  11    291    268    292
   307   1    306    303    307
   308   2    306    303    308
   309   2    306    303    309
   310   2    307    303    308
   311   2    307    303    309
   312   3    308    303    309
   313   4    306    304    311
   314   5    306    304    313
   315   6    306    304    342
   316   4    313    304    311
   317   7    342    304    311
   318   6    313    304    342
   319   2    307    305    314
   320   2    307    305   1205
   321   1    307    305    113
   322   3    314    305   1205
   323   2    113    305    314
   324   2    113    305   1205
   325   8    303    306    304
   326   9    303    307    305
   327  10    304    311    372
   328  11    375    312    376
   329   8    492    313    304
   330  11    399    315    400
   331  11    377    316    378
   332  11    379    318    380
   333   1    324    321    325
   334   2    324    321    326
   335   2    324    321    327
   336   2    325    321    326
   337   2    325    321    327
   338   3    326    321    327
   339   4    324    322    329
   340   6    324    322    358
   341   5    324    322    516
   342   7    358    322    329
   343   4    516    322    329
   344   6    516    322    358
   345   1    325    323    331
   346   2    325    323    332
   347   2    325    323   1206
   348   2    331    323    332
   349   2    331    323   1206
   350   3    332    323   1206
   351   8    321    324    322
   352   9    321    325    323
   353  10    322    329    370
   354  11    393    330    394
   355   8    323    331    122
   356  11    383    333    384
   357   2    340    336    341
   358   2    340    336   1207
   359   1    340    336    522
   360   3    341    336   1207
   361   2    522    336    341
   362   2    522    336   1207
   363   6    339    337    310
   364   7    310    337    343
   365   6    345    337    310
   366   4    339    337    343
   367   5    339    337    345
   368   4    345    337    343
   369   1    340    338    345
   370   2    340    338    346
   371   2    340    338    347
   372   2    345    338    346
   373   2    345    338    347
   374   3    346    338    347
   375   8    136    339    337
   376   9    336    340    338
   377  10    337    343    369
   378  11    395    344    396
   379   8    338    345    337
   380  11    373    348    374
   381  11    397    349    398
   382   2    355    352    357
   383   2    355    352   1208
   384   1    355    352    156
   385   3    357    352   1208
   386   2    156    352    357
   387   2    156    352   1208
   388   6    355    353    328
   389   7    328    353    359
   390   6    361    353    328
   391   4    355    353    359
   392   5    355    353    361
   393   4    361    353    359
   394   1    356    354    361
   395   2    356    354    362
   396   2    356    354    363
   397   2    361    354    362
   398   2    361    354    363
   399   3    362    354    363
   400   8    352    355    353
   401   9    354    356    533
   402  10    353    359    371
   403  11    381    360    382
   404   8    354    361    353
   405  11    389    364    390
   406  11    387    365    388
   407  11    385    366    386
   408  11    391    368    392
   409   1    406    403    407
   410   2    406    403    408
   411   2    406    403    409
   412   2    407    403    408
   413   2    407    403    409
   414   3    408    403    409
   415   4    406    404    411
   416   5    406    404    413
   417   6    406    404    438
   418   4    413    404    411
   419   7    438    404    411
   420   6    413    404    438
   421   2    407    405    414
   422   2    407    405   1209
   423   1    407    405    213
   424   3    414    405   1209
   425   2    213    405    414
   426   2    213    405   1209
   427   8    403    406    404
   428   9    403    407    405
   429  10    404    411    463
   430  11    466    412    467
   431   8      5    413    404
   432  11    486    415    487
   433  11    468    416    469
   434  11    470    418    471
   435   1    423    421    424
   436   2    423    421    425
   437   2    423    421    426
   438   2    424    421    425
   439   2    424    421    426
   440   3    425    421    426
   441   1    424    422    429
   442   2    424    422    430
   443   2    424    422   1210
   444   2    429    422    430
   445   2    429    422   1210
   446   3    430    422   1210
   447   8    421    423    575
   448   9    421    424    422
   449  11    482    428    483
   450   8    422    429    222
   451   2    436    432    437
   452   2    436    432   1223
   453   1    436    432     39
   454   3    437    432   1223
   455   2     39    432    437
   456   2     39    432   1223
   457   6    435    433    410
   458   7    410    433    439
   459   6    441    433    410
   460   4    435    433    439
   461   5    435    433    441
   462   4    441    433    439
   463   1    436    434    441
   464   2    436    434    442
   465   2    436    434    443
   466   2    441    434    442
   467   2    441    434    443
   468   3    442    434    443
   469   8    236    435    433
   470   9    432    436    434
   471  10    433    439    461
   472  11    484    440    485
   473   8    434    441    433
   474  11    464    444    465
   475   2    449    446    450
   476   2    449    446   1211
   477   1    449    446    256
   478   3    450    446   1211
   479   2    256    446    450
   480   2    256    446   1211
   481   6    449    447    427
   482   7    427    447    451
   483   6    453    447    427
   484   4    449    447    451
   485   5    449    447    453
   486   4    453    447    451
   487   1    581    448    453
   488   2    581    448    454
   489   2    581    448    455
   490   2    453    448    454
   491   2    453    448    455
   492   3    454    448    455
   493   8    446    449    447
   494  10    447    451    462
   495  11    472    452    473
   496   8    448    453    447
   497  11    478    456    479
   498  11    476    457    477
   499  11    474    458    475
   500  11    480    460    481
   501   1    493    490    494
   502   2    493    490    495
   503   2    493    490    496
   504   2    494    490    495
   505   2    494    490    496
   506   3    495    490    496
   507   4    493    491    498
   508   5    493    491    500
   509   6    493    491    525
   510   4    500    491    498
   511   7    525    491    498
   512   6    500    491    525
   513   2    494    492    501
   514   2    494    492   1212
   515   1    494    492    313
   516   3    501    492   1212
   517   2    313    492    501
   518   2    313    492   1212
   519   8    490    493    491
   520   9    490    494    492
   521  10    491    498    550
   522  11    553    499    554
   523   8    105    500    491
   524  11    573    502    574
   525  11    555    503    556
   526  11    557    505    558
   527   1    510    508    511
   528   2    510    508    512
   529   2    510    508    513
   530   2    511    508    512
   531   2    511    508    513
   532   3    512    508    513
   533   1    511    509    516
   534   2    511    509    517
   535   2    511    509   1213
   536   2    516    509    517
   537   2    516    509   1213
   538   3    517    509   1213
   539   8    508    510    588
   540   9    508    511    509
   541  11    569    515    570
   542   8    509    516    322
   543   2    523    519    524
   544   2    523    519   1224
   545   1    523    519    139
   546   3    524    519   1224
   547   2    139    519    524
   548   2    139    519   1224
   549   6    522    520    497
   550   7    497    520    526
   551   6    528    520    497
   552   4    522    520    526
   553   5    522    520    528
   554   4    528    520    526
   555   1    523    521    528
   556   2    523    521    529
   557   2    523    521    530
   558   2    528    521    529
   559   2    528    521    530
   560   3    529    521    530
   561   8    336    522    520
   562   9    519    523    521
   563  10    520    526    548
   564  11    571    527    572
   565   8    521    528    520
   566  11    551    531    552
   567   2    536    533    537
   568   2    536    533   1214
   569   1    536    533    356
   570   3    537    533   1214
   571   2    356    533    537
   572   2    356    533   1214
   573   6    536    534    514
   574   7    514    534    538
   575   6    540    534    514
   576   4    536    534    538
   577   5    536    534    540
   578   4    540    534    538
   579   1    594    535    540
   580   2    594    535    541
   581   2    594    535    542
   582   2    540    535    541
   583   2    540    535    542
   584   3    541    535    542
   585   8    533    536    534
   586  10    534    538    549
   587  11    559    539    560
   588   8    535    540    534
   589  11    565    543    566
   590  11    563    544    564
   591  11    561    545    562
   592  11    567    547    568
   593   4    423    575    576
   594   6    423    575    582
   595   5    423    575     31
   596   7    582    575    576
   597   4     31    575    576
   598   6     31    575    582
   599  10    575    576    583
   600  11    584    577    585
   601  11    586    579    587
   602   9    448    581     52
   603   4    510    588    589
   604   6    510    588    595
   605   5    510    588    131
   606   7    595    588    589
   607   4    131    588    589
   608   6    131    588    595
   609  10    588    589    596
   610  11    597    590    598
   611  11    599    592    600
   612   9    535    594    152
   613   2    607    603    608
   614   2    607    603    609
   615   1    607    603    796
   616   3    608    603    609
   617   2    796    603    608
   618   2    796    603    609
   619   4    606    604    611
   620   5    606    604    613
   621   6    606    604    642
   622   4    613    604    611
   623   7    642    604    611
   624   6    613    604    642
   625   1    607    605    613
   626   2    607    605    614
   627   2    607    605   1225
   628   2    613    605    614
   629   2    613    605   1225
   630   3    614    605   1225
   631   8    993    606    604
   632   9    603    607    605
   633  10    604    611    669
   634  11    672    612    673
   635   8    605    613    604
   636  11    694    615    695
   637  11    674    616    675
   638  11    676    618    677
   639   2    624    621    626
   640   2    624    621    627
   641   1    624    621   1188
   642   3    626    621    627
   643   2   1188    621    626
   644   2   1188    621    627
   645   4    624    622    629
   646   5    624    622    631
   647   6    624    622    657
   648   4    631    622    629
   649   7    657    622    629
   650   6    631    622    657
   651   2    631    623    632
   652   2    631    623   1226
   653   1    631    623    625
   654   3    632    623   1226
   655   2    625    623    632
   656   2    625    623   1226
   657   8    621    624    622
   658   9    623    625    811
   659  10    622    629    668
   660  11    688    630    689
   661   8    623    631    622
   662  11    680    633    681
   663   1    639    636    640
   664   2    639    636    641
   665   2    639    636   1227
   666   2    640    636    641
   667   2    640    636   1227
   668   3    641    636   1227
   669   6    639    637    610
   670   7    610    637    643
   671   6    645    637    610
   672   4    639    637    643
   673   5    639    637    645
   674   4    645    637    643
   675   2    640    638    646
   676   2    640    638   1191
   677   1    640    638   1033
   678   3    646    638   1191
   679   2   1033    638    646
   680   2   1033    638   1191
   681   8    636    639    637
   682   9    636    640    638
   683  10    637    643    667
   684  11    690    644    691
   685   8    828    645    637
   686  11    670    647    671
   687  11    692    648    693
   688   1    654    651    655
   689   2    654    651    656
   690   2    654    651   1228
   691   2    655    651    656
   692   2    655    651   1228
   693   3    656    651   1228
   694   7    628    652    658
   695   6    660    652    628
   696   6   1043    652    628
   697   4    660    652    658
   698   4   1043    652    658
   699   5    660    652   1043
   700   1    655    653    660
   701   2    655    653    661
   702   2    655    653    662
   703   2    660    653    661
   704   2    660    653    662
   705   3    661    653    662
   706   8    651    654    843
   707   9    651    655    653
   708  10    652    658   1193
   709  11    678    659    679
   710   8    653    660    652
   711  11    684    663    685
   712  11    682    664    683
   713  11    686    666    687
   714   2    702    698    703
   715   2    702    698    704
   716   1    702    698    896
   717   3    703    698    704
   718   2    896    698    703
   719   2    896    698    704
   720   4    701    699    706
   721   5    701    699    708
   722   6    701    699    737
   723   4    708    699    706
   724   7    737    699    706
   725   6    708    699    737
   726   1    702    700    708
   727   2    702    700    709
   728   2    702    700   1229
   729   2    708    700    709
   730   2    708    700   1229
   731   3    709    700   1229
   732   8   1091    701    699
   733   9    698    702    700
   734  10    699    706    764
   735  11    767    707    768
   736   8    700    708    699
   737  11    789    710    790
   738  11    769    711    770
   739  11    771    713    772
   740   2    719    716    721
   741   2    719    716    722
   742   1    719    716   1190
   743   3    721    716    722
   744   2   1190    716    721
   745   2   1190    716    722
   746   4    719    717    724
   747   5    719    717    726
   748   6    719    717    752
   749   4    726    717    724
   750   7    752    717    724
   751   6    726    717    752
   752   2    726    718    727
   753   2    726    718   1230
   754   1    726    718    720
   755   3    727    718   1230
   756   2    720    718    727
   757   2    720    718   1230
   758   8    716    719    717
   759   9    718    720    911
   760  10    717    724    763
   761  11    783    725    784
   762   8    718    726    717
   763  11    775    728    776
   764   1    734    731    735
   765   2    734    731    736
   766   2    734    731   1231
   767   2    735    731    736
   768   2    735    731   1231
   769   3    736    731   1231
   770   6    734    732    705
   771   7    705    732    738
   772   6    740    732    705
   773   4    734    732    738
   774   5    734    732    740
   775   4    740    732    738
   776   2    735    733    741
   777   2    735    733   1196
   778   1    735    733   1131
   779   3    741    733   1196
   780   2   1131    733    741
   781   2   1131    733   1196
   782   8    731    734    732
   783   9    731    735    733
   784  10    732    738    762
   785  11    785    739    786
   786   8    928    740    732
   787  11    765    742    766
   788  11    787    743    788
   789   1    749    746    750
   790   2    749    746    751
   791   2    749    746   1232
   792   2    750    746    751
   793   2    750    746   1232
   794   3    751    746   1232
   795   7    723    747    753
   796   6    755    747    723
   797   6   1141    747    723
   798   4    755    747    753
   799   4   1141    747    753
   800   5    755    747   1141
   801   1    750    748    755
   802   2    750    748    756
   803   2    750    748    757
   804   2    755    748    756
   805   2    755    748    757
   806   3    756    748    757
   807   8    746    749    943
   808   9    746    750    748
   809  10    747    753   1198
   810  11    773    754    774
   811   8    748    755    747
   812  11    779    758    780
   813  11    777    759    778
   814  11    781    761    782
   815   2    797    793    798
   816   2    797    793    799
   817   1    797    793    996
   818   3    798    793    799
   819   2    996    793    798
   820   2    996    793    799
   821   4    796    794    801
   822   5    796    794    803
   823   6    796    794    832
   824   4    803    794    801
   825   7    832    794    801
   826   6    803    794    832
   827   1    797    795    803
   828   2    797    795    804
   829   2    797    795   1233
   830   2    803    795    804
   831   2    803    795   1233
   832   3    804    795   1233
   833   8    603    796    794
   834   9    793    797    795
   835  10    794    801    862
   836  11    865    802    866
   837   8    795    803    794
   838  11    889    805    890
   839  11    867    806    868
   840  11    869    808    870
   841   2    814    811    816
   842   2    814    811    817
   843   1    814    811    625
   844   3    816    811    817
   845   2    625    811    816
   846   2    625    811    817
   847   4    814    812    819
   848   5    814    812    821
   849   6    814    812    848
   850   4    821    812    819
   851   7    848    812    819
   852   6    821    812    848
   853   2    821    813    822
   854   2    821    813   1234
   855   1    821    813    815
   856   3    822    813   1234
   857   2    815    813    822
   858   2    815    813   1234
   859   8    811    814    812
   860   9    813    815   1010
   861  10    812    819    860
   862  11    883    820    884
   863   8    813    821    812
   864  11    873    823    874
   865   1    829    826    830
   866   2    829    826    831
   867   2    829    826   1235
   868   2    830    826    831
   869   2    830    826   1235
   870   3    831    826   1235
   871   6    829    827    800
   872   7    800    827    833
   873   6    835    827    800
   874   4    829    827    833
   875   5    829    827    835
   876   4    835    827    833
   877   2    830    828    836
   878   2    830    828    837
   879   1    830    828    645
   880   3    836    828    837
   881   2    645    828    836
   882   2    645    828    837
   883   8    826    829    827
   884   9    826    830    828
   885  10    827    833    859
   886  11    885    834    886
   887   8   1026    835    827
   888  11    863    838    864
   889  11    887    839    888
   890   1    845    842    846
   891   2    845    842    847
   892   2    845    842   1236
   893   2    846    842    847
   894   2    846    842   1236
   895   3    847    842   1236
   896   7    818    843    849
   897   6    851    843    818
   898   6    654    843    818
   899   4    851    843    849
   900   4    654    843    849
   901   5    851    843    654
   902   1    846    844    851
   903   2    846    844    852
   904   2    846    844    853
   905   2    851    844    852
   906   2    851    844    853
   907   3    852    844    853
   908   8    842    845   1041
   909   9    842    846    844
   910  10    843    849    861
   911  11    871    850    872
   912   8    844    851    843
   913  11    879    854    880
   914  11    877    855    878
   915  11    875    856    876
   916  11    881    858    882
   917   2    897    893    898
   918   2    897    893    899
   919   1    897    893   1094
   920   3    898    893    899
   921   2   1094    893    898
   922   2   1094    893    899
   923   4    896    894    901
   924   5    896    894    903
   925   6    896    894    932
   926   4    903    894    901
   927   7    932    894    901
   928   6    903    894    932
   929   1    897    895    903
   930   2    897    895    904
   931   2    897    895   1237
   932   2    903    895    904
   933   2    903    895   1237
   934   3    904    895   1237
   935   8    698    896    894
   936   9    893    897    895
   937  10    894    901    962
   938  11    965    902    966
   939   8    895    903    894
   940  11    989    905    990
   941  11    967    906    968
   942  11    969    908    970
   943   2    914    911    916
   944   2    914    911    917
   945   1    914    911    720
   946   3    916    911    917
   947   2    720    911    916
   948   2    720    911    917
   949   4    914    912    919
   950   5    914    912    921
   951   6    914    912    948
   952   4    921    912    919
   953   7    948    912    919
   954   6    921    912    948
   955   2    921    913    922
   956   2    921    913   1238
   957   1    921    913    915
   958   3    922    913   1238
   959   2    915    913    922
   960   2    915    913   1238
   961   8    911    914    912
   962   9    913    915   1108
   963  10    912    919    960
   964  11    983    920    984
   965   8    913    921    912
   966  11    973    923    974
   967   1    929    926    930
   968   2    929    926    931
   969   2    929    926   1239
   970   2    930    926    931
   971   2    930    926   1239
   972   3    931    926   1239
   973   6    929    927    900
   974   7    900    927    933
   975   6    935    927    900
   976   4    929    927    933
   977   5    929    927    935
   978   4    935    927    933
   979   2    930    928    936
   980   2    930    928    937
   981   1    930    928    740
   982   3    936    928    937
   983   2    740    928    936
   984   2    740    928    937
   985   8    926    929    927
   986   9    926    930    928
   987  10    927    933    959
   988  11    985    934    986
   989   8   1124    935    927
   990  11    963    938    964
   991  11    987    939    988
   992   1    945    942    946
   993   2    945    942    947
   994   2    945    942   1240
   995   2    946    942    947
   996   2    946    942   1240
   997   3    947    942   1240
   998   7    918    943    949
   999   6    951    943    918
  1000   6    749    943    918
  1001   4    951    943    949
  1002   4    749    943    949
  1003   5    951    943    749
  1004   1    946    944    951
  1005   2    946    944    952
  1006   2    946    944    953
  1007   2    951    944    952
  1008   2    951    944    953
  1009   3    952    944    953
  1010   8    942    945   1139
  1011   9    942    946    944
  1012  10    943    949    961
  1013  11    971    950    972
  1014   8    944    951    943
  1015  11    979    954    980
  1016  11    977    955    978
  1017  11    975    956    976
  1018  11    981    958    982
  1019   2    997    993   1187
  1020   2    997    993    998
  1021   1    997    993    606
  1022   3   1187    993    998
  1023   2    606    993   1187
  1024   2    606    993    998
  1025   4    996    994   1000
  1026   5    996    994   1002
  1027   6    996    994   1030
  1028   4   1002    994   1000
  1029   7   1030    994   1000
  1030   6   1002    994   1030
  1031   1    997    995   1002
  1032   2    997    995   1003
  1033   2    997    995   1241
  1034   2   1002    995   1003
  1035   2   1002    995   1241
  1036   3   1003    995   1241
  1037   8    793    996    994
  1038   9    993    997    995
  1039  10    994   1000   1060
  1040  11   1063   1001   1064
  1041   8    995   1002    994
  1042  11   1087   1004   1088
  1043  11   1065   1005   1066
  1044  11   1067   1007   1068
  1045   2   1013   1010   1014
  1046   2   1013   1010   1015
  1047   1   1013   1010    815
  1048   3   1014   1010   1015
  1049   2    815   1010   1014
  1050   2    815   1010   1015
  1051   4   1013   1011   1017
  1052   5   1013   1011   1019
  1053   6   1013   1011   1046
  1054   4   1019   1011   1017
  1055   7   1046   1011   1017
  1056   6   1019   1011   1046
  1057   2   1019   1012   1020
  1058   2   1019   1012   1242
  1059   1   1019   1012   1188
  1060   3   1020   1012   1242
  1061   2   1188   1012   1020
  1062   2   1188   1012   1242
  1063   8   1010   1013   1011
  1064  10   1011   1017   1058
  1065  11   1081   1018   1082
  1066   8   1012   1019   1011
  1067  11   1071   1021   1072
  1068   1   1027   1024   1028
  1069   2   1027   1024   1029
  1070   2   1027   1024   1243
  1071   2   1028   1024   1029
  1072   2   1028   1024   1243
  1073   3   1029   1024   1243
  1074   6   1027   1025    999
  1075   7    999   1025   1031
  1076   6   1033   1025    999
  1077   4   1027   1025   1031
  1078   5   1027   1025   1033
  1079   4   1033   1025   1031
  1080   2   1028   1026   1034
  1081   2   1028   1026   1035
  1082   1   1028   1026    835
  1083   3   1034   1026   1035
  1084   2    835   1026   1034
  1085   2    835   1026   1035
  1086   8   1024   1027   1025
  1087   9   1024   1028   1026
  1088  10   1025   1031   1057
  1089  11   1083   1032   1084
  1090   8    638   1033   1025
  1091  11   1061   1036   1062
  1092  11   1085   1037   1086
  1093   1   1043   1040   1044
  1094   2   1043   1040   1045
  1095   2   1043   1040   1244
  1096   2   1044   1040   1045
  1097   2   1044   1040   1244
  1098   3   1045   1040   1244
  1099   7   1016   1041   1047
  1100   6   1049   1041   1016
  1101   6    845   1041   1016
  1102   4   1049   1041   1047
  1103   4    845   1041   1047
  1104   5   1049   1041    845
  1105   1   1044   1042   1049
  1106   2   1044   1042   1050
  1107   2   1044   1042   1051
  1108   2   1049   1042   1050
  1109   2   1049   1042   1051
  1110   3   1050   1042   1051
  1111   8   1040   1043    652
  1112   9   1040   1044   1042
  1113  10   1041   1047   1059
  1114  11   1069   1048   1070
  1115   8   1042   1049   1041
  1116  11   1077   1052   1078
  1117  11   1075   1053   1076
  1118  11   1073   1054   1074
  1119  11   1079   1056   1080
  1120   2   1095   1091   1189
  1121   2   1095   1091   1096
  1122   1   1095   1091    701
  1123   3   1189   1091   1096
  1124   2    701   1091   1189
  1125   2    701   1091   1096
  1126   4   1094   1092   1098
  1127   5   1094   1092   1100
  1128   6   1094   1092   1128
  1129   4   1100   1092   1098
  1130   7   1128   1092   1098
  1131   6   1100   1092   1128
  1132   1   1095   1093   1100
  1133   2   1095   1093   1101
  1134   2   1095   1093   1245
  1135   2   1100   1093   1101
  1136   2   1100   1093   1245
  1137   3   1101   1093   1245
  1138   8    893   1094   1092
  1139   9   1091   1095   1093
  1140  10   1092   1098   1158
  1141  11   1161   1099   1162
  1142   8   1093   1100   1092
  1143  11   1185   1102   1186
  1144  11   1163   1103   1164
  1145  11   1165   1105   1166
  1146   2   1111   1108   1112
  1147   2   1111   1108   1113
  1148   1   1111   1108    915
  1149   3   1112   1108   1113
  1150   2    915   1108   1112
  1151   2    915   1108   1113
  1152   4   1111   1109   1115
  1153   5   1111   1109   1117
  1154   6   1111   1109   1144
  1155   4   1117   1109   1115
  1156   7   1144   1109   1115
  1157   6   1117   1109   1144
  1158   2   1117   1110   1118
  1159   2   1117   1110   1246
  1160   1   1117   1110   1190
  1161   3   1118   1110   1246
  1162   2   1190   1110   1118
  1163   2   1190   1110   1246
  1164   8   1108   1111   1109
  1165  10   1109   1115   1156
  1166  11   1179   1116   1180
  1167   8   1110   1117   1109
  1168  11   1169   1119   1170
  1169   1   1125   1122   1126
  1170   2   1125   1122   1127
  1171   2   1125   1122   1247
  1172   2   1126   1122   1127
  1173   2   1126   1122   1247
  1174   3   1127   1122   1247
  1175   6   1125   1123   1097
  1176   7   1097   1123   1129
  1177   6   1131   1123   1097
  1178   4   1125   1123   1129
  1179   5   1125   1123   1131
  1180   4   1131   1123   1129
  1181   2   1126   1124   1132
  1182   2   1126   1124   1133
  1183   1   1126   1124    935
  1184   3   1132   1124   1133
  1185   2    935   1124   1132
  1186   2    935   1124   1133
  1187   8   1122   1125   1123
  1188   9   1122   1126   1124
  1189  10   1123   1129   1155
  1190  11   1181   1130   1182
  1191   8    733   1131   1123
  1192  11   1159   1134   1160
  1193  11   1183   1135   1184
  1194   1   1141   1138   1142
  1195   2   1141   1138   1143
  1196   2   1141   1138   1248
  1197   2   1142   1138   1143
  1198   2   1142   1138   1248
  1199   3   1143   1138   1248
  1200   7   1114   1139   1145
  1201   6   1147   1139   1114
  1202   6    945   1139   1114
  1203   4   1147   1139   1145
  1204   4    945   1139   1145
  1205   5   1147   1139    945
  1206   1   1142   1140   1147
  1207   2   1142   1140   1148
  1208   2   1142   1140   1149
  1209   2   1147   1140   1148
  1210   2   1147   1140   1149
  1211   3   1148   1140   1149
  1212   8   1138   1141    747
  1213   9   1138   1142   1140
  1214  10   1139   1145   1157
  1215  11   1167   1146   1168
  1216   8   1140   1147   1139
  1217  11   1175   1150   1176
  1218  11   1173   1151   1174
  1219  11   1171   1152   1172
  1220  11   1177   1154   1178
  1221   9   1012   1188    621
  1222   9   1110   1190    716
  1223  11   1194   1192   1195
  1224  11   1199   1197   1200

Dihedrals

     1   1      7      3      6      4
     2   2      8      3      6      4
     3   2      9      3      6      4
     4   3      6      3      7      5
     5   4      8      3      7      5
     6   4      9      3      7      5
     7   5     11      4      6      3
     8   6     13      4      6      3
     9   7     42      4      6      3
    10   8      6      4     11     72
    11   8     13      4     11     72
    12   9     42      4     11     72
    13   6      6      4     13    205
    14   5     11      4     13    205
    15   7     42      4     13    205
    16   4     14      5      7      3
    17   4   1215      5      7      3
    18   3    413      5      7      3
    19   1      7      5    413    404
    20   2     14      5    413    404
    21   2   1215      5    413    404
    22   1    207    205     13      4
    23   2    214    205     13      4
    24   2   1201    205     13      4
    25   1     25     21     24     22
    26   2     26     21     24     22
    27   2     27     21     24     22
    28   3     24     21     25     23
    29   4     26     21     25     23
    30   4     27     21     25     23
    31   5     29     22     24     21
    32   7     58     22     24     21
    33   6    231     22     24     21
    34   8     24     22     29     70
    35   9     58     22     29     70
    36   8    231     22     29     70
    37   6     24     22    231    223
    38   5     29     22    231    223
    39   7     58     22    231    223
    40   3     31     23     25     21
    41   4     32     23     25     21
    42   4   1217     23     25     21
    43   1     25     23     31    575
    44   2     32     23     31    575
    45   2   1217     23     31    575
    46   6    423    575     31     23
    47   5    576    575     31     23
    48   7    582    575     31     23
    49   4     41     36     40     38
    50   4   1218     36     40     38
    51   3    239     36     40     38
    52   1     40     36    239    237
    53   2     41     36    239    237
    54   2   1218     36    239    237
    55   7     10     37     39    432
    56   5     43     37     39    432
    57   6     45     37     39    432
    58   9     10     37     43     69
    59   8     39     37     43     69
    60   8     45     37     43     69
    61   7     10     37     45     38
    62   6     39     37     45     38
    63   5     43     37     45     38
    64   3     45     38     40     36
    65   4     46     38     40     36
    66   4     47     38     40     36
    67   1     40     38     45     37
    68   2     46     38     45     37
    69   2     47     38     45     37
    70   1    436    432     39     37
    71   2    437    432     39     37
    72   2   1223    432     39     37
    73   2     57     52     55     53
    74   2   1219     52     55     53
    75   1    581     52     55     53
    76   3     55     52    581    448
    77   4     57     52    581    448
    78   4   1219     52    581    448
    79   7     28     53     55     52
    80   5     59     53     55     52
    81   6     61     53     55     52
    82   9     28     53     59     71
    83   8     55     53     59     71
    84   8     61     53     59     71
    85   7     28     53     61     54
    86   6     55     53     61     54
    87   5     59     53     61     54
    88   3     61     54     56    252
    89   4     62     54     56    252
    90   4     63     54     56    252
    91   1     56     54     61     53
    92   2     62     54     61     53
    93   2     63     54     61     53
    94   3    255    252     56     54
    95   4    257    252     56     54
    96   4   1204    252     56     54
    97   1    107    103    106    104
    98   2    108    103    106    104
    99   2    109    103    106    104
   100   3    106    103    107    105
   101   4    108    103    107    105
   102   4    109    103    107    105
   103   5    111    104    106    103
   104   6    113    104    106    103
   105   7    142    104    106    103
   106   8    106    104    111    172
   107   8    113    104    111    172
   108   9    142    104    111    172
   109   6    106    104    113    305
   110   5    111    104    113    305
   111   7    142    104    113    305
   112   4    114    105    107    103
   113   4   1216    105    107    103
   114   3    500    105    107    103
   115   1    107    105    500    491
   116   2    114    105    500    491
   117   2   1216    105    500    491
   118   1    307    305    113    104
   119   2    314    305    113    104
   120   2   1205    305    113    104
   121   1    125    121    124    122
   122   2    126    121    124    122
   123   2    127    121    124    122
   124   3    124    121    125    123
   125   4    126    121    125    123
   126   4    127    121    125    123
   127   5    129    122    124    121
   128   7    158    122    124    121
   129   6    331    122    124    121
   130   8    124    122    129    170
   131   9    158    122    129    170
   132   8    331    122    129    170
   133   6    124    122    331    323
   134   5    129    122    331    323
   135   7    158    122    331    323
   136   3    131    123    125    121
   137   4    132    123    125    121
   138   4   1220    123    125    121
   139   1    125    123    131    588
   140   2    132    123    131    588
   141   2   1220    123    131    588
   142   6    510    588    131    123
   143   5    589    588    131    123
   144   7    595    588    131    123
   145   4    141    136    140    138
   146   4   1221    136    140    138
   147   3    339    136    140    138
   148   1    140    136    339    337
   149   2    141    136    339    337
   150   2   1221    136    339    337
   151   7    110    137    139    519
   152   5    143    137    139    519
   153   6    145    137    139    519
   154   9    110    137    143    169
   155   8    139    137    143    169
   156   8    145    137    143    169
   157   7    110    137    145    138
   158   6    139    137    145    138
   159   5    143    137    145    138
   160   3    145    138    140    136
   161   4    146    138    140    136
   162   4    147    138    140    136
   163   1    140    138    145    137
   164   2    146    138    145    137
   165   2    147    138    145    137
   166   1    523    519    139    137
   167   2    524    519    139    137
   168   2   1224    519    139    137
   169   2    157    152    155    153
   170   2   1222    152    155    153
   171   1    594    152    155    153
   172   3    155    152    594    535
   173   4    157    152    594    535
   174   4   1222    152    594    535
   175   7    128    153    155    152
   176   5    159    153    155    152
   177   6    161    153    155    152
   178   9    128    153    159    171
   179   8    155    153    159    171
   180   8    161    153    159    171
   181   7    128    153    161    154
   182   6    155    153    161    154
   183   5    159    153    161    154
   184   3    161    154    156    352
   185   4    162    154    156    352
   186   4    163    154    156    352
   187   1    156    154    161    153
   188   2    162    154    161    153
   189   2    163    154    161    153
   190   3    355    352    156    154
   191   4    357    352    156    154
   192   4   1208    352    156    154
   193   1    207    203    206    204
   194   2    208    203    206    204
   195   2    209    203    206    204
   196   3    206    203    207    205
   197   4    208    203    207    205
   198   4    209    203    207    205
   199   5    211    204    206    203
   200   6    213    204    206    203
   201   7    242    204    206    203
   202   8    206    204    211    272
   203   8    213    204    211    272
   204   9    242    204    211    272
   205   6    206    204    213    405
   206   5    211    204    213    405
   207   7    242    204    213    405
   208   4    214    205    207    203
   209   4   1201    205    207    203
   210   3     13    205    207    203
   211   1    407    405    213    204
   212   2    414    405    213    204
   213   2   1209    405    213    204
   214   1    225    221    224    222
   215   2    226    221    224    222
   216   2    227    221    224    222
   217   3    224    221    225    223
   218   4    226    221    225    223
   219   4    227    221    225    223
   220   5    229    222    224    221
   221   7    258    222    224    221
   222   6    429    222    224    221
   223   8    224    222    229    270
   224   9    258    222    229    270
   225   8    429    222    229    270
   226   6    224    222    429    422
   227   5    229    222    429    422
   228   7    258    222    429    422
   229   3    231    223    225    221
   230   4    232    223    225    221
   231   4   1202    223    225    221
   232   1    225    223    231     22
   233   2    232    223    231     22
   234   2   1202    223    231     22
   235   4    241    236    240    238
   236   4   1203    236    240    238
   237   3    435    236    240    238
   238   1    240    236    435    433
   239   2    241    236    435    433
   240   2   1203    236    435    433
   241   7    210    237    239     36
   242   5    243    237    239     36
   243   6    245    237    239     36
   244   9    210    237    243    269
   245   8    239    237    243    269
   246   8    245    237    243    269
   247   7    210    237    245    238
   248   6    239    237    245    238
   249   5    243    237    245    238
   250   3    245    238    240    236
   251   4    246    238    240    236
   252   4    247    238    240    236
   253   1    240    238    245    237
   254   2    246    238    245    237
   255   2    247    238    245    237
   256   2    257    252    255    253
   257   2   1204    252    255    253
   258   1     56    252    255    253
   259   7    228    253    255    252
   260   5    259    253    255    252
   261   6    261    253    255    252
   262   9    228    253    259    271
   263   8    255    253    259    271
   264   8    261    253    259    271
   265   7    228    253    261    254
   266   6    255    253    261    254
   267   5    259    253    261    254
   268   3    261    254    256    446
   269   4    262    254    256    446
   270   4    263    254    256    446
   271   1    256    254    261    253
   272   2    262    254    261    253
   273   2    263    254    261    253
   274   3    449    446    256    254
   275   4    450    446    256    254
   276   4   1211    446    256    254
   277   1    307    303    306    304
   278   2    308    303    306    304
   279   2    309    303    306    304
   280   3    306    303    307    305
   281   4    308    303    307    305
   282   4    309    303    307    305
   283   5    311    304    306    303
   284   6    313    304    306    303
   285   7    342    304    306    303
   286   8    306    304    311    372
   287   8    313    304    311    372
   288   9    342    304    311    372
   289   6    306    304    313    492
   290   5    311    304    313    492
   291   7    342    304    313    492
   292   4    314    305    307    303
   293   4   1205    305    307    303
   294   3    113    305    307    303
   295   1    494    492    313    304
   296   2    501    492    313    304
   297   2   1212    492    313    304
   298   1    325    321    324    322
   299   2    326    321    324    322
   300   2    327    321    324    322
   301   3    324    321    325    323
   302   4    326    321    325    323
   303   4    327    321    325    323
   304   5    329    322    324    321
   305   7    358    322    324    321
   306   6    516    322    324    321
   307   8    324    322    329    370
   308   9    358    322    329    370
   309   8    516    322    329    370
   310   6    324    322    516    509
   311   5    329    322    516    509
   312   7    358    322    516    509
   313   3    331    323    325    321
   314   4    332    323    325    321
   315   4   1206    323    325    321
   316   1    325    323    331    122
   317   2    332    323    331    122
   318   2   1206    323    331    122
   319   4    341    336    340    338
   320   4   1207    336    340    338
   321   3    522    336    340    338
   322   1    340    336    522    520
   323   2    341    336    522    520
   324   2   1207    336    522    520
   325   7    310    337    339    136
   326   5    343    337    339    136
   327   6    345    337    339    136
   328   9    310    337    343    369
   329   8    339    337    343    369
   330   8    345    337    343    369
   331   7    310    337    345    338
   332   6    339    337    345    338
   333   5    343    337    345    338
   334   3    345    338    340    336
   335   4    346    338    340    336
   336   4    347    338    340    336
   337   1    340    338    345    337
   338   2    346    338    345    337
   339   2    347    338    345    337
   340   2    357    352    355    353
   341   2   1208    352    355    353
   342   1    156    352    355    353
   343   7    328    353    355    352
   344   5    359    353    355    352
   345   6    361    353    355    352
   346   9    328    353    359    371
   347   8    355    353    359    371
   348   8    361    353    359    371
   349   7    328    353    361    354
   350   6    355    353    361    354
   351   5    359    353    361    354
   352   3    361    354    356    533
   353   4    362    354    356    533
   354   4    363    354    356    533
   355   1    356    354    361    353
   356   2    362    354    361    353
   357   2    363    354    361    353
   358   3    536    533    356    354
   359   4    537    533    356    354
   360   4   1214    533    356    354
   361   1    407    403    406    404
   362   2    408    403    406    404
   363   2    409    403    406    404
   364   3    406    403    407    405
   365   4    408    403    407    405
   366   4    409    403    407    405
   367   5    411    404    406    403
   368   6    413    404    406    403
   369   7    438    404    406    403
   370   8    406    404    411    463
   371   8    413    404    411    463
   372   9    438    404    411    463
   373   6    406    404    413      5
   374   5    411    404    413      5
   375   7    438    404    413      5
   376   4    414    405    407    403
   377   4   1209    405    407    403
   378   3    213    405    407    403
   379   1    424    421    423    575
   380   2    425    421    423    575
   381   2    426    421    423    575
   382   3    423    421    424    422
   383   4    425    421    424    422
   384   4    426    421    424    422
   385   3    429    422    424    421
   386   4    430    422    424    421
   387   4   1210    422    424    421
   388   1    424    422    429    222
   389   2    430    422    429    222
   390   2   1210    422    429    222
   391   5    576    575    423    421
   392   7    582    575    423    421
   393   6     31    575    423    421
   394   4    437    432    436    434
   395   4   1223    432    436    434
   396   3     39    432    436    434
   397   7    410    433    435    236
   398   5    439    433    435    236
   399   6    441    433    435    236
   400   9    410    433    439    461
   401   8    435    433    439    461
   402   8    441    433    439    461
   403   7    410    433    441    434
   404   6    435    433    441    434
   405   5    439    433    441    434
   406   3    441    434    436    432
   407   4    442    434    436    432
   408   4    443    434    436    432
   409   1    436    434    441    433
   410   2    442    434    441    433
   411   2    443    434    441    433
   412   2    450    446    449    447
   413   2   1211    446    449    447
   414   1    256    446    449    447
   415   7    427    447    449    446
   416   5    451    447    449    446
   417   6    453    447    449    446
   418   9    427    447    451    462
   419   8    449    447    451    462
   420   8    453    447    451    462
   421   7    427    447    453    448
   422   6    449    447    453    448
   423   5    451    447    453    448
   424   3    453    448    581     52
   425   4    454    448    581     52
   426   4    455    448    581     52
   427   1    581    448    453    447
   428   2    454    448    453    447
   429   2    455    448    453    447
   430   1    494    490    493    491
   431   2    495    490    493    491
   432   2    496    490    493    491
   433   3    493    490    494    492
   434   4    495    490    494    492
   435   4    496    490    494    492
   436   5    498    491    493    490
   437   6    500    491    493    490
   438   7    525    491    493    490
   439   8    493    491    498    550
   440   8    500    491    498    550
   441   9    525    491    498    550
   442   6    493    491    500    105
   443   5    498    491    500    105
   444   7    525    491    500    105
   445   4    501    492    494    490
   446   4   1212    492    494    490
   447   3    313    492    494    490
   448   1    511    508    510    588
   449   2    512    508    510    588
   450   2    513    508    510    588
   451   3    510    508    511    509
   452   4    512    508    511    509
   453   4    513    508    511    509
   454   3    516    509    511    508
   455   4    517    509    511    508
   456   4   1213    509    511    508
   457   1    511    509    516    322
   458   2    517    509    516    322
   459   2   1213    509    516    322
   460   5    589    588    510    508
   461   7    595    588    510    508
   462   6    131    588    510    508
   463   4    524    519    523    521
   464   4   1224    519    523    521
   465   3    139    519    523    521
   466   7    497    520    522    336
   467   5    526    520    522    336
   468   6    528    520    522    336
   469   9    497    520    526    548
   470   8    522    520    526    548
   471   8    528    520    526    548
   472   7    497    520    528    521
   473   6    522    520    528    521
   474   5    526    520    528    521
   475   3    528    521    523    519
   476   4    529    521    523    519
   477   4    530    521    523    519
   478   1    523    521    528    520
   479   2    529    521    528    520
   480   2    530    521    528    520
   481   2    537    533    536    534
   482   2   1214    533    536    534
   483   1    356    533    536    534
   484   7    514    534    536    533
   485   5    538    534    536    533
   486   6    540    534    536    533
   487   9    514    534    538    549
   488   8    536    534    538    549
   489   8    540    534    538    549
   490   7    514    534    540    535
   491   6    536    534    540    535
   492   5    538    534    540    535
   493   3    540    535    594    152
   494   4    541    535    594    152
   495   4    542    535    594    152
   496   1    594    535    540    534
   497   2    541    535    540    534
   498   2    542    535    540    534
   499   8    423    575    576    583
   500   9    582    575    576    583
   501   8     31    575    576    583
   502   8    510    588    589    596
   503   9    595    588    589    596
   504   8    131    588    589    596
   505   4    608    603    607    605
   506   4    609    603    607    605
   507   3    796    603    607    605
   508   1    607    603    796    794
   509   2    608    603    796    794
   510   2    609    603    796    794
   511   5    611    604    606    993
   512   6    613    604    606    993
   513   7    642    604    606    993
   514   8    606    604    611    669
   515   8    613    604    611    669
   516   9    642    604    611    669
   517   6    606    604    613    605
   518   5    611    604    613    605
   519   7    642    604    613    605
   520   3    613    605    607    603
   521   4    614    605    607    603
   522   4   1225    605    607    603
   523   1    607    605    613    604
   524   2    614    605    613    604
   525   2   1225    605    613    604
   526   1    997    993    606    604
   527   2   1187    993    606    604
   528   2    998    993    606    604
   529   2    626    621    624    622
   530   2    627    621    624    622
   531   1   1188    621    624    622
   532   3    624    621   1188   1012
   533   4    626    621   1188   1012
   534   4    627    621   1188   1012
   535   5    629    622    624    621
   536   6    631    622    624    621
   537   7    657    622    624    621
   538   8    624    622    629    668
   539   8    631    622    629    668
   540   9    657    622    629    668
   541   6    624    622    631    623
   542   5    629    622    631    623
   543   7    657    622    631    623
   544   2    632    623    631    622
   545   2   1226    623    631    622
   546   1    625    623    631    622
   547   3    631    623    625    811
   548   4    632    623    625    811
   549   4   1226    623    625    811
   550   3    814    811    625    623
   551   4    816    811    625    623
   552   4    817    811    625    623
   553   1    640    636    639    637
   554   2    641    636    639    637
   555   2   1227    636    639    637
   556   3    639    636    640    638
   557   4    641    636    640    638
   558   4   1227    636    640    638
   559   7    610    637    639    636
   560   5    643    637    639    636
   561   6    645    637    639    636
   562   9    610    637    643    667
   563   8    639    637    643    667
   564   8    645    637    643    667
   565   7    610    637    645    828
   566   6    639    637    645    828
   567   5    643    637    645    828
   568   4    646    638    640    636
   569   4   1191    638    640    636
   570   3   1033    638    640    636
   571   1    640    638   1033   1025
   572   2    646    638   1033   1025
   573   2   1191    638   1033   1025
   574   1    830    828    645    637
   575   2    836    828    645    637
   576   2    837    828    645    637
   577   1    655    651    654    843
   578   2    656    651    654    843
   579   2   1228    651    654    843
   580   3    654    651    655    653
   581   4    656    651    655    653
   582   4   1228    651    655    653
   583   9    628    652    658   1193
   584   8    660    652    658   1193
   585   8   1043    652    658   1193
   586   7    628    652    660    653
   587   5    658    652    660    653
   588   6   1043    652    660    653
   589   7    628    652   1043   1040
   590   5    658    652   1043   1040
   591   6    660    652   1043   1040
   592   3    660    653    655    651
   593   4    661    653    655    651
   594   4    662    653    655    651
   595   1    655    653    660    652
   596   2    661    653    660    652
   597   2    662    653    660    652
   598   7    818    843    654    651
   599   5    849    843    654    651
   600   6    851    843    654    651
   601   4    703    698    702    700
   602   4    704    698    702    700
   603   3    896    698    702    700
   604   1    702    698    896    894
   605   2    703    698    896    894
   606   2    704    698    896    894
   607   5    706    699    701   1091
   608   6    708    699    701   1091
   609   7    737    699    701   1091
   610   8    701    699    706    764
   611   8    708    699    706    764
   612   9    737    699    706    764
   613   6    701    699    708    700
   614   5    706    699    708    700
   615   7    737    699    708    700
   616   3    708    700    702    698
   617   4    709    700    702    698
   618   4   1229    700    702    698
   619   1    702    700    708    699
   620   2    709    700    708    699
   621   2   1229    700    708    699
   622   1   1095   1091    701    699
   623   2   1189   1091    701    699
   624   2   1096   1091    701    699
   625   2    721    716    719    717
   626   2    722    716    719    717
   627   1   1190    716    719    717
   628   3    719    716   1190   1110
   629   4    721    716   1190   1110
   630   4    722    716   1190   1110
   631   5    724    717    719    716
   632   6    726    717    719    716
   633   7    752    717    719    716
   634   8    719    717    724    763
   635   8    726    717    724    763
   636   9    752    717    724    763
   637   6    719    717    726    718
   638   5    724    717    726    718
   639   7    752    717    726    718
   640   2    727    718    726    717
   641   2   1230    718    726    717
   642   1    720    718    726    717
   643   3    726    718    720    911
   644   4    727    718    720    911
   645   4   1230    718    720    911
   646   3    914    911    720    718
   647   4    916    911    720    718
   648   4    917    911    720    718
   649   1    735    731    734    732
   650   2    736    731    734    732
   651   2   1231    731    734    732
   652   3    734    731    735    733
   653   4    736    731    735    733
   654   4   1231    731    735    733
   655   7    705    732    734    731
   656   5    738    732    734    731
   657   6    740    732    734    731
   658   9    705    732    738    762
   659   8    734    732    738    762
   660   8    740    732    738    762
   661   7    705    732    740    928
   662   6    734    732    740    928
   663   5    738    732    740    928
   664   4    741    733    735    731
   665   4   1196    733    735    731
   666   3   1131    733    735    731
   667   1    735    733   1131   1123
   668   2    741    733   1131   1123
   669   2   1196    733   1131   1123
   670   1    930    928    740    732
   671   2    936    928    740    732
   672   2    937    928    740    732
   673   1    750    746    749    943
   674   2    751    746    749    943
   675   2   1232    746    749    943
   676   3    749    746    750    748
   677   4    751    746    750    748
   678   4   1232    746    750    748
   679   9    723    747    753   1198
   680   8    755    747    753   1198
   681   8   1141    747    753   1198
   682   7    723    747    755    748
   683   5    753    747    755    748
   684   6   1141    747    755    748
   685   7    723    747   1141   1138
   686   5    753    747   1141   1138
   687   6    755    747   1141   1138
   688   3    755    748    750    746
   689   4    756    748    750    746
   690   4    757    748    750    746
   691   1    750    748    755    747
   692   2    756    748    755    747
   693   2    757    748    755    747
   694   7    918    943    749    746
   695   5    949    943    749    746
   696   6    951    943    749    746
   697   4    798    793    797    795
   698   4    799    793    797    795
   699   3    996    793    797    795
   700   1    797    793    996    994
   701   2    798    793    996    994
   702   2    799    793    996    994
   703   5    801    794    796    603
   704   6    803    794    796    603
   705   7    832    794    796    603
   706   8    796    794    801    862
   707   8    803    794    801    862
   708   9    832    794    801    862
   709   6    796    794    803    795
   710   5    801    794    803    795
   711   7    832    794    803    795
   712   3    803    795    797    793
   713   4    804    795    797    793
   714   4   1233    795    797    793
   715   1    797    795    803    794
   716   2    804    795    803    794
   717   2   1233    795    803    794
   718   2    816    811    814    812
   719   2    817    811    814    812
   720   1    625    811    814    812
   721   5    819    812    814    811
   722   6    821    812    814    811
   723   7    848    812    814    811
   724   8    814    812    819    860
   725   8    821    812    819    860
   726   9    848    812    819    860
   727   6    814    812    821    813
   728   5    819    812    821    813
   729   7    848    812    821    813
   730   2    822    813    821    812
   731   2   1234    813    821    812
   732   1    815    813    821    812
   733   3    821    813    815   1010
   734   4    822    813    815   1010
   735   4   1234    813    815   1010
   736   3   1013   1010    815    813
   737   4   1014   1010    815    813
   738   4   1015   1010    815    813
   739   1    830    826    829    827
   740   2    831    826    829    827
   741   2   1235    826    829    827
   742   3    829    826    830    828
   743   4    831    826    830    828
   744   4   1235    826    830    828
   745   7    800    827    829    826
   746   5    833    827    829    826
   747   6    835    827    829    826
   748   9    800    827    833    859
   749   8    829    827    833    859
   750   8    835    827    833    859
   751   7    800    827    835   1026
   752   6    829    827    835   1026
   753   5    833    827    835   1026
   754   4    836    828    830    826
   755   4    837    828    830    826
   756   3    645    828    830    826
   757   1   1028   1026    835    827
   758   2   1034   1026    835    827
   759   2   1035   1026    835    827
   760   1    846    842    845   1041
   761   2    847    842    845   1041
   762   2   1236    842    845   1041
   763   3    845    842    846    844
   764   4    847    842    846    844
   765   4   1236    842    846    844
   766   9    818    843    849    861
   767   8    851    843    849    861
   768   8    654    843    849    861
   769   7    818    843    851    844
   770   5    849    843    851    844
   771   6    654    843    851    844
   772   3    851    844    846    842
   773   4    852    844    846    842
   774   4    853    844    846    842
   775   1    846    844    851    843
   776   2    852    844    851    843
   777   2    853    844    851    843
   778   7   1016   1041    845    842
   779   5   1047   1041    845    842
   780   6   1049   1041    845    842
   781   4    898    893    897    895
   782   4    899    893    897    895
   783   3   1094    893    897    895
   784   1    897    893   1094   1092
   785   2    898    893   1094   1092
   786   2    899    893   1094   1092
   787   5    901    894    896    698
   788   6    903    894    896    698
   789   7    932    894    896    698
   790   8    896    894    901    962
   791   8    903    894    901    962
   792   9    932    894    901    962
   793   6    896    894    903    895
   794   5    901    894    903    895
   795   7    932    894    903    895
   796   3    903    895    897    893
   797   4    904    895    897    893
   798   4   1237    895    897    893
   799   1    897    895    903    894
   800   2    904    895    903    894
   801   2   1237    895    903    894
   802   2    916    911    914    912
   803   2    917    911    914    912
   804   1    720    911    914    912
   805   5    919    912    914    911
   806   6    921    912    914    911
   807   7    948    912    914    911
   808   8    914    912    919    960
   809   8    921    912    919    960
   810   9    948    912    919    960
   811   6    914    912    921    913
   812   5    919    912    921    913
   813   7    948    912    921    913
   814   2    922    913    921    912
   815   2   1238    913    921    912
   816   1    915    913    921    912
   817   3    921    913    915   1108
   818   4    922    913    915   1108
   819   4   1238    913    915   1108
   820   3   1111   1108    915    913
   821   4   1112   1108    915    913
   822   4   1113   1108    915    913
   823   1    930    926    929    927
   824   2    931    926    929    927
   825   2   1239    926    929    927
   826   3    929    926    930    928
   827   4    931    926    930    928
   828   4   1239    926    930    928
   829   7    900    927    929    926
   830   5    933    927    929    926
   831   6    935    927    929    926
   832   9    900    927    933    959
   833   8    929    927    933    959
   834   8    935    927    933    959
   835   7    900    927    935   1124
   836   6    929    927    935   1124
   837   5    933    927    935   1124
   838   4    936    928    930    926
   839   4    937    928    930    926
   840   3    740    928    930    926
   841   1   1126   1124    935    927
   842   2   1132   1124    935    927
   843   2   1133   1124    935    927
   844   1    946    942    945   1139
   845   2    947    942    945   1139
   846   2   1240    942    945   1139
   847   3    945    942    946    944
   848   4    947    942    946    944
   849   4   1240    942    946    944
   850   9    918    943    949    961
   851   8    951    943    949    961
   852   8    749    943    949    961
   853   7    918    943    951    944
   854   5    949    943    951    944
   855   6    749    943    951    944
   856   3    951    944    946    942
   857   4    952    944    946    942
   858   4    953    944    946    942
   859   1    946    944    951    943
   860   2    952    944    951    943
   861   2    953    944    951    943
   862   7   1114   1139    945    942
   863   5   1145   1139    945    942
   864   6   1147   1139    945    942
   865   4   1187    993    997    995
   866   4    998    993    997    995
   867   3    606    993    997    995
   868   5   1000    994    996    793
   869   6   1002    994    996    793
   870   7   1030    994    996    793
   871   8    996    994   1000   1060
   872   8   1002    994   1000   1060
   873   9   1030    994   1000   1060
   874   6    996    994   1002    995
   875   5   1000    994   1002    995
   876   7   1030    994   1002    995
   877   3   1002    995    997    993
   878   4   1003    995    997    993
   879   4   1241    995    997    993
   880   1    997    995   1002    994
   881   2   1003    995   1002    994
   882   2   1241    995   1002    994
   883   2   1014   1010   1013   1011
   884   2   1015   1010   1013   1011
   885   1    815   1010   1013   1011
   886   5   1017   1011   1013   1010
   887   6   1019   1011   1013   1010
   888   7   1046   1011   1013   1010
   889   8   1013   1011   1017   1058
   890   8   1019   1011   1017   1058
   891   9   1046   1011   1017   1058
   892   6   1013   1011   1019   1012
   893   5   1017   1011   1019   1012
   894   7   1046   1011   1019   1012
   895   2   1020   1012   1019   1011
   896   2   1242   1012   1019   1011
   897   1   1188   1012   1019   1011
   898   3   1019   1012   1188    621
   899   4   1020   1012   1188    621
   900   4   1242   1012   1188    621
   901   1   1028   1024   1027   1025
   902   2   1029   1024   1027   1025
   903   2   1243   1024   1027   1025
   904   3   1027   1024   1028   1026
   905   4   1029   1024   1028   1026
   906   4   1243   1024   1028   1026
   907   7    999   1025   1027   1024
   908   5   1031   1025   1027   1024
   909   6   1033   1025   1027   1024
   910   9    999   1025   1031   1057
   911   8   1027   1025   1031   1057
   912   8   1033   1025   1031   1057
   913   7    999   1025   1033    638
   914   6   1027   1025   1033    638
   915   5   1031   1025   1033    638
   916   4   1034   1026   1028   1024
   917   4   1035   1026   1028   1024
   918   3    835   1026   1028   1024
   919   1   1044   1040   1043    652
   920   2   1045   1040   1043    652
   921   2   1244   1040   1043    652
   922   3   1043   1040   1044   1042
   923   4   1045   1040   1044   1042
   924   4   1244   1040   1044   1042
   925   9   1016   1041   1047   1059
   926   8   1049   1041   1047   1059
   927   8    845   1041   1047   1059
   928   7   1016   1041   1049   1042
   929   5   1047   1041   1049   1042
   930   6    845   1041   1049   1042
   931   3   1049   1042   1044   1040
   932   4   1050   1042   1044   1040
   933   4   1051   1042   1044   1040
   934   1   1044   1042   1049   1041
   935   2   1050   1042   1049   1041
   936   2   1051   1042   1049   1041
   937   4   1189   1091   1095   1093
   938   4   1096   1091   1095   1093
   939   3    701   1091   1095   1093
   940   5   1098   1092   1094    893
   941   6   1100   1092   1094    893
   942   7   1128   1092   1094    893
   943   8   1094   1092   1098   1158
   944   8   1100   1092   1098   1158
   945   9   1128   1092   1098   1158
   946   6   1094   1092   1100   1093
   947   5   1098   1092   1100   1093
   948   7   1128   1092   1100   1093
   949   3   1100   1093   1095   1091
   950   4   1101   1093   1095   1091
   951   4   1245   1093   1095   1091
   952   1   1095   1093   1100   1092
   953   2   1101   1093   1100   1092
   954   2   1245   1093   1100   1092
   955   2   1112   1108   1111   1109
   956   2   1113   1108   1111   1109
   957   1    915   1108   1111   1109
   958   5   1115   1109   1111   1108
   959   6   1117   1109   1111   1108
   960   7   1144   1109   1111   1108
   961   8   1111   1109   1115   1156
   962   8   1117   1109   1115   1156
   963   9   1144   1109   1115   1156
   964   6   1111   1109   1117   1110
   965   5   1115   1109   1117   1110
   966   7   1144   1109   1117   1110
   967   2   1118   1110   1117   1109
   968   2   1246   1110   1117   1109
   969   1   1190   1110   1117   1109
   970   3   1117   1110   1190    716
   971   4   1118   1110   1190    716
   972   4   1246   1110   1190    716
   973   1   1126   1122   1125   1123
   974   2   1127   1122   1125   1123
   975   2   1247   1122   1125   1123
   976   3   1125   1122   1126   1124
   977   4   1127   1122   1126   1124
   978   4   1247   1122   1126   1124
   979   7   1097   1123   1125   1122
   980   5   1129   1123   1125   1122
   981   6   1131   1123   1125   1122
   982   9   1097   1123   1129   1155
   983   8   1125   1123   1129   1155
   984   8   1131   1123   1129   1155
   985   7   1097   1123   1131    733
   986   6   1125   1123   1131    733
   987   5   1129   1123   1131    733
   988   4   1132   1124   1126   1122
   989   4   1133   1124   1126   1122
   990   3    935   1124   1126   1122
   991   1   1142   1138   1141    747
   992   2   1143   1138   1141    747
   993   2   1248   1138   1141    747
   994   3   1141   1138   1142   1140
   995   4   1143   1138   1142   1140
   996   4   1248   1138   1142   1140
   997   9   1114   1139   1145   1157
   998   8   1147   1139   1145   1157
   999   8    945   1139   1145   1157
  1000   7   1114   1139   1147   1140
  1001   5   1145   1139   1147   1140
  1002   6    945   1139   1147   1140
  1003   3   1147   1140   1142   1138
  1004   4   1148   1140   1142   1138
  1005   4   1149   1140   1142   1138
  1006   1   1142   1140   1147   1139
  1007   2   1148   1140   1147   1139
  1008   2   1149   1140   1147   1139

