LAMMPS data file. msi2lmp v3.9.11 / 6 Sep 2024 / CGCMM for <generated-by-msi2lmp>/Tob11H_car_mdf/tob11H_221

    300 atoms
    248 bonds
    376 angles
    360 dihedrals
    192 impropers

  11 atom types
   7 bond types
  12 angle types
  10 dihedral types
   6 improper types

    -4.023368865     9.356631135 xlo xhi
    -0.082175040    12.244080997 ylo yhi
    -0.813403283    21.956596717 zlo zhi
    -8.155477430     0.000000000     0.000000000 xy xz yz

Masses

   1  15.999400 # oc13
   2  40.080000 # ca+t
   3  15.999400 # oc14
   4  15.999400 # oc22
   5  15.999400 # oc12
   6  40.080000 # casl
   7  28.086000 # sc2
   8  28.086000 # sc3
   9  15.999400 # o*
  10   1.007970 # h*
  11   1.008000 # hoy

Pair Coeffs # lj/class2/coul/long

   1   0.0600000000   3.4500000000 # oc13
   2   0.2400000000   3.6500000000 # ca+t
   3   0.1200000000   3.6000000000 # oc14
   4   0.0600000000   3.4500000000 # oc22
   5   0.0600000000   3.4500000000 # oc12
   6   0.2400000000   3.4500000000 # casl
   7   0.2200000000   4.5000000000 # sc2
   8   0.2200000000   4.5000000000 # sc3
   9   0.2600000000   3.6100000000 # o*
  10   0.0130000000   1.0980000000 # h*
  11   0.0130000000   1.0980000000 # hoy

Bond Coeffs # class2

   1     1.6200   350.0000     0.0000     0.0000 # oc13-sc2
   2     1.6800   350.0000     0.0000     0.0000 # oc14-sc3
   3     0.9450   495.0000     0.0000     0.0000 # oc14-hoy
   4     1.5900   350.0000     0.0000     0.0000 # oc22-sc3
   5     1.7000   350.0000     0.0000     0.0000 # oc12-sc2
   6     1.7000   350.0000     0.0000     0.0000 # oc12-sc3
   7     0.9700   563.2800 -1428.2200  1902.1200 # o*-h*

Angle Coeffs # class2

   1   115.0000    50.0000     0.0000     0.0000 # sc3-oc14-hoy
   2   144.0000   100.0000     0.0000     0.0000 # sc2-oc12-sc2
   3   139.0000   100.0000     0.0000     0.0000 # sc2-oc12-sc3
   4   112.5000   100.0000     0.0000     0.0000 # oc13-sc2-oc13
   5   111.5000   100.0000     0.0000     0.0000 # oc13-sc2-oc12
   6   100.2000   100.0000     0.0000     0.0000 # oc12-sc2-oc12
   7   113.0000   100.0000     0.0000     0.0000 # oc14-sc3-oc14
   8   111.0000   100.0000     0.0000     0.0000 # oc14-sc3-oc12
   9   107.0000   100.0000     0.0000     0.0000 # oc12-sc3-oc12
  10   103.7000    49.8400   -11.6000    -8.0000 # h*-o*-h*
  11   111.0000   100.0000     0.0000     0.0000 # oc14-sc3-oc22
  12   107.0000   100.0000     0.0000     0.0000 # oc22-sc3-oc12

Dihedral Coeffs # class2

   1     0.0000     0.0000     0.0000     0.0000     0.0000     0.0000 # hoy-oc14-sc3-oc22
   2     0.0000     0.0000     0.0000     0.0000     0.0000     0.0000 # hoy-oc14-sc3-oc12
   3     0.0000     0.0000     0.0000     0.0000     0.0000     0.0000 # sc2-oc12-sc2-oc13
   4     0.0000     0.0000     0.0000     0.0000     0.0000     0.0000 # sc2-oc12-sc2-oc12
   5     0.0000     0.0000     0.0000     0.0000     0.0000     0.0000 # hoy-oc14-sc3-oc14
   6     0.0000     0.0000     0.0000     0.0000     0.0000     0.0000 # sc2-oc12-sc3-oc14
   7     0.0000     0.0000     0.0000     0.0000     0.0000     0.0000 # sc2-oc12-sc3-oc22
   8     0.0000     0.0000     0.0000     0.0000     0.0000     0.0000 # sc2-oc12-sc3-oc12
   9     0.0000     0.0000     0.0000     0.0000     0.0000     0.0000 # sc3-oc12-sc2-oc13
  10     0.0000     0.0000     0.0000     0.0000     0.0000     0.0000 # sc3-oc12-sc2-oc12

Improper Coeffs # class2

  1     0.0000     0.0000 
  2     0.0000     0.0000 
  3     0.0000     0.0000 
  4     0.0000     0.0000 
  5     0.0000     0.0000 
  6     0.0000     0.0000 

BondBond Coeffs

  1     0.0000     1.6800     0.9450 
  2     0.0000     1.7000     1.7000 
  3     0.0000     1.7000     1.7000 
  4     0.0000     1.6200     1.6200 
  5     0.0000     1.6200     1.7000 
  6     0.0000     1.7000     1.7000 
  7     0.0000     1.6800     1.6800 
  8     0.0000     1.6800     1.7000 
  9     0.0000     1.7000     1.7000 
 10    -9.5000     0.9700     0.9700 
 11     0.0000     1.6800     1.5900 
 12     0.0000     1.5900     1.7000 

BondAngle Coeffs

  1     0.0000     0.0000     1.6800     0.9450 
  2     0.0000     0.0000     1.7000     1.7000 
  3     0.0000     0.0000     1.7000     1.7000 
  4     0.0000     0.0000     1.6200     1.6200 
  5     0.0000     0.0000     1.6200     1.7000 
  6     0.0000     0.0000     1.7000     1.7000 
  7     0.0000     0.0000     1.6800     1.6800 
  8     0.0000     0.0000     1.6800     1.7000 
  9     0.0000     0.0000     1.7000     1.7000 
 10    22.3500    22.3500     0.9700     0.9700 
 11     0.0000     0.0000     1.6800     1.5900 
 12     0.0000     0.0000     1.5900     1.7000 

AngleAngle Coeffs

  1     0.0000     0.0000     0.0000   112.5000   111.5000   111.5000 
  2     0.0000     0.0000     0.0000   111.5000   100.2000   111.5000 
  3     0.0000     0.0000     0.0000   113.0000   111.0000   111.0000 
  4     0.0000     0.0000     0.0000   111.0000   107.0000   111.0000 
  5     0.0000     0.0000     0.0000   111.0000   107.0000   111.0000 
  6     0.0000     0.0000     0.0000   107.0000   107.0000   107.0000 

AngleAngleTorsion Coeffs

  1     0.0000   115.0000   111.0000 
  2     0.0000   115.0000   111.0000 
  3     0.0000   144.0000   111.5000 
  4     0.0000   144.0000   100.2000 
  5     0.0000   115.0000   113.0000 
  6     0.0000   139.0000   111.0000 
  7     0.0000   139.0000   107.0000 
  8     0.0000   139.0000   107.0000 
  9     0.0000   139.0000   111.5000 
 10     0.0000   139.0000   100.2000 

EndBondTorsion Coeffs

1     0.0000     0.0000     0.0000     0.0000     0.0000     0.0000     0.9450     1.5900 
2     0.0000     0.0000     0.0000     0.0000     0.0000     0.0000     0.9450     1.7000 
3     0.0000     0.0000     0.0000     0.0000     0.0000     0.0000     1.7000     1.6200 
4     0.0000     0.0000     0.0000     0.0000     0.0000     0.0000     1.7000     1.7000 
5     0.0000     0.0000     0.0000     0.0000     0.0000     0.0000     0.9450     1.6800 
6     0.0000     0.0000     0.0000     0.0000     0.0000     0.0000     1.7000     1.6800 
7     0.0000     0.0000     0.0000     0.0000     0.0000     0.0000     1.7000     1.5900 
8     0.0000     0.0000     0.0000     0.0000     0.0000     0.0000     1.7000     1.7000 
9     0.0000     0.0000     0.0000     0.0000     0.0000     0.0000     1.7000     1.6200 
10     0.0000     0.0000     0.0000     0.0000     0.0000     0.0000     1.7000     1.7000 

MiddleBondTorsion Coeffs

  1     0.0000     0.0000     0.0000     1.6800 
  2     0.0000     0.0000     0.0000     1.6800 
  3     0.0000     0.0000     0.0000     1.7000 
  4     0.0000     0.0000     0.0000     1.7000 
  5     0.0000     0.0000     0.0000     1.6800 
  6     0.0000     0.0000     0.0000     1.7000 
  7     0.0000     0.0000     0.0000     1.7000 
  8     0.0000     0.0000     0.0000     1.7000 
  9     0.0000     0.0000     0.0000     1.7000 
 10     0.0000     0.0000     0.0000     1.7000 

BondBond13 Coeffs

  1     0.0000     0.9450     1.5900 
  2     0.0000     0.9450     1.7000 
  3     0.0000     1.7000     1.6200 
  4     0.0000     1.7000     1.7000 
  5     0.0000     0.9450     1.6800 
  6     0.0000     1.7000     1.6800 
  7     0.0000     1.7000     1.5900 
  8     0.0000     1.7000     1.7000 
  9     0.0000     1.7000     1.6200 
 10     0.0000     1.7000     1.7000 

AngleTorsion Coeffs

  1     0.0000     0.0000     0.0000     0.0000     0.0000     0.0000   115.0000   111.0000 
  2     0.0000     0.0000     0.0000     0.0000     0.0000     0.0000   115.0000   111.0000 
  3     0.0000     0.0000     0.0000     0.0000     0.0000     0.0000   144.0000   111.5000 
  4     0.0000     0.0000     0.0000     0.0000     0.0000     0.0000   144.0000   100.2000 
  5     0.0000     0.0000     0.0000     0.0000     0.0000     0.0000   115.0000   113.0000 
  6     0.0000     0.0000     0.0000     0.0000     0.0000     0.0000   139.0000   111.0000 
  7     0.0000     0.0000     0.0000     0.0000     0.0000     0.0000   139.0000   107.0000 
  8     0.0000     0.0000     0.0000     0.0000     0.0000     0.0000   139.0000   107.0000 
  9     0.0000     0.0000     0.0000     0.0000     0.0000     0.0000   139.0000   111.5000 
 10     0.0000     0.0000     0.0000     0.0000     0.0000     0.0000   139.0000   100.2000 

Atoms # full

      1      1   1 -0.930000     1.782207279     2.200236703     9.353911892   0   0   0 # oc13
      2      1   2  1.500000     3.998065321     1.540782005    -0.000000000   0   0   0 # ca+t
      3      1   3 -0.690000    -4.405224891     4.838055495     2.573008870   0   0   0 # oc14
      4      1   1 -0.930000    -0.458300204     0.844348539     0.430352811   0   0   0 # oc13
      5      1   4 -1.000000    -3.251744492     5.602283369     4.804467890   0   0   0 # oc22
      6      1   5 -0.600000     1.672500000     0.000000000     7.923956520   0   0   0 # oc12
      7      1   1 -0.930000     1.721041198     2.292683623     0.430352811   0   0   0 # oc13
      8      1   6  1.700000     1.835599288     2.341988647     4.508458020   0   0   0 # casl
      9      1   3 -0.690000    -2.345138750     1.774980869     6.967616940   0   0   0 # oc14
     10      1   2  1.500000     3.998065321     1.540782005     9.404005870   0   0   0 # ca+t
     11      1   3 -0.690000    -1.064038954     2.619329408     4.850007870   0   0   0 # oc14
     12      1   5 -0.600000    -1.712023133     5.115396255     2.732398800   0   0   0 # oc12
     13      1   1 -0.930000    -0.397134123     0.751901618     9.353911892   0   0   0 # oc13
     14      1   5 -0.600000     0.979284418     1.047731763     2.732398800   0   0   0 # oc12
     15      1   5 -0.600000    -0.957641471     3.975217572     7.058696900   0   0   0 # oc12
     16      1   1 -0.930000    -0.252584340     5.275637584     0.430352811   0   0   0 # oc13
     17      1   7  1.000000     0.502188989     1.768817741     1.275119440   0   0   0 # sc2
     18      1   2  1.500000     1.959195964     4.622346014    -0.000000000   0   0   0 # ca+t
     19      1   8  1.000000    -1.138457044     2.570024384     6.421137180   0   0   0 # sc3
     20      1   7  1.000000     0.828408086     1.275767500     8.470436280   0   0   0 # sc2
     21      1   5 -0.600000     0.306457531     2.064647886     7.058696900   0   0   0 # oc12
     22      1   1 -0.930000    -0.317828159     5.374247632     9.353911892   0   0   0 # oc13
     23      1   5 -0.600000    -0.366369357     3.081564009     1.753289230   0   0   0 # oc12
     24      1   1 -0.930000    -2.501247300     3.932075676     9.353911892   0   0   0 # oc13
     25      1   1 -0.930000    -2.436003481     3.833465628     0.430352811   0   0   0 # oc13
     26      1   9 -0.820000     1.959195964     4.622346014     6.899306970   0   0   0 # o*
     27      1   7  1.000000    -1.210461271     4.357331509     1.275119440   0   0   0 # sc2
     28      1   8  1.000000    -3.251744492     5.602283369     3.210568590   0   0   0 # sc3
     29      1   7  1.000000    -1.536680369     4.850381751     8.493206270   0   0   0 # sc2
     30      1   9 -0.820000     3.998065321     1.540782005     2.504698900   0   0   0 # o*
     31      1   2  1.500000     1.959195964     4.622346014     9.404005870   0   0   0 # ca+t
     32      1  10  0.410000     3.281166523     1.953766247     3.244699001   0   0   0 # h*
     33      1  10  0.410000     4.923785505     2.153270504     2.504698900   0   0   0 # h*
     34      1  11  0.420000    -2.801922814     2.330454837     7.813132766   0   0   0 # hoy
     35      1  11  0.420000    -0.209274809     3.255958844     4.539876868   0   0   0 # hoy
     36      1  11  0.420000    -5.344258348     5.060052810     3.121673960   0   0   0 # hoy
     37      1  10  0.410000     1.242297165     5.035330257     7.639307071   0   0   0 # h*
     38      1  10  0.410000     2.884916148     5.234834514     6.899306970   0   0   0 # h*
     39      2   1 -0.930000     0.830054006     3.962891316    20.738911892   0   0   0 # oc13
     40      2   2  1.500000    -1.385804036     4.622346014    11.385000000   0   0   0 # ca+t
     41      2   3 -0.690000     7.017486176     1.325072524    13.958008870   0   0   0 # oc14
     42      2   1 -0.930000     3.070561489     5.318779480    11.815352811   0   0   0 # oc13
     43      2   4 -1.000000     5.864005777     0.560844650    16.189467890   0   0   0 # oc22
     44      2   5 -0.600000     0.939761285     6.163128019    19.308956520   0   0   0 # oc12
     45      2   1 -0.930000     0.891220087     3.870444396    11.815352811   0   0   0 # oc13
     46      2   3 -0.690000     4.957400035     4.388147150    18.352616940   0   0   0 # oc14
     47      2   2  1.500000    -1.385804036     4.622346014    20.789005870   0   0   0 # ca+t
     48      2   3 -0.690000     3.676300239     3.543798611    16.235007870   0   0   0 # oc14
     49      2   5 -0.600000     4.324284418     1.047731764    14.117398800   0   0   0 # oc12
     50      2   1 -0.930000     3.009395408     5.411226401    20.738911892   0   0   0 # oc13
     51      2   5 -0.600000     1.632976867     5.115396256    14.117398800   0   0   0 # oc12
     52      2   5 -0.600000     3.569902756     2.187910447    18.443696900   0   0   0 # oc12
     53      2   1 -0.930000     2.864845625     0.887490435    11.815352811   0   0   0 # oc13
     54      2   7  1.000000     2.110072296     4.394310278    12.660119440   0   0   0 # sc2
     55      2   2  1.500000     0.653065321     1.540782005    11.385000000   0   0   0 # ca+t
     56      2   8  1.000000     3.750718329     3.593103635    17.806137180   0   0   0 # sc3
     57      2   7  1.000000     1.783853199     4.887360519    19.855436280   0   0   0 # sc2
     58      2   5 -0.600000     2.305803754     4.098480133    18.443696900   0   0   0 # oc12
     59      2   1 -0.930000     2.930089444     0.788880387    20.738911892   0   0   0 # oc13
     60      2   5 -0.600000     2.978630642     3.081564010    13.138289230   0   0   0 # oc12
     61      2   1 -0.930000     5.113508585     2.231052343    20.738911892   0   0   0 # oc13
     62      2   1 -0.930000     5.048264766     2.329662391    11.815352811   0   0   0 # oc13
     63      2   9 -0.820000     0.653065321     1.540782005    18.284306970   0   0   0 # o*
     64      2   7  1.000000     3.822722556     1.805796510    12.660119440   0   0   0 # sc2
     65      2   8  1.000000     5.864005777     0.560844650    14.595568590   0   0   0 # sc3
     66      2   7  1.000000     4.148941654     1.312746268    19.878206270   0   0   0 # sc2
     67      2   9 -0.820000    -1.385804036     4.622346014    13.889698900   0   0   0 # o*
     68      2   2  1.500000     0.653065321     1.540782005    20.789005870   0   0   0 # ca+t
     69      2  10  0.410000    -0.668905238     4.209361772    14.629699001   0   0   0 # h*
     70      2  10  0.410000    -2.311524220     4.009857515    13.889698900   0   0   0 # h*
     71      2  11  0.420000     5.414184099     3.832673182    19.198132766   0   0   0 # hoy
     72      2  11  0.420000     2.821536094     2.907169175    15.924876868   0   0   0 # hoy
     73      2  11  0.420000     7.956519633     1.103075209    14.506673960   0   0   0 # hoy
     74      2  10  0.410000     1.369964120     1.127797762    19.024307071   0   0   0 # h*
     75      2  10  0.410000    -0.272654863     0.928293505    18.284306970   0   0   0 # h*
     76      3   1 -0.930000    -4.907792721     2.200236703     9.353911892   1   0   0 # oc13
     77      3   2  1.500000    -2.691934679     1.540782005    -0.000000000   1   0   0 # ca+t
     78      3   3 -0.690000     2.284775109     4.838055495     2.573008870   0   0   0 # oc14
     79      3   1 -0.930000     6.231699796     0.844348539     0.430352811   0   0   0 # oc13
     80      3   4 -1.000000     3.438255508     5.602283369     4.804467890   0   0   0 # oc22
     81      3   5 -0.600000     8.362500000     0.000000000     7.923956520   0   0   0 # oc12
     82      3   1 -0.930000    -4.968958802     2.292683623     0.430352811   1   0   0 # oc13
     83      3   3 -0.690000     4.344861250     1.774980869     6.967616940   0   0   0 # oc14
     84      3   2  1.500000    -2.691934679     1.540782005     9.404005870   1   0   0 # ca+t
     85      3   3 -0.690000     5.625961046     2.619329408     4.850007870   0   0   0 # oc14
     86      3   5 -0.600000     4.977976867     5.115396255     2.732398800   0   0   0 # oc12
     87      3   1 -0.930000     6.292865877     0.751901618     9.353911892   0   0   0 # oc13
     88      3   5 -0.600000     7.669284418     1.047731763     2.732398800   0   0   0 # oc12
     89      3   5 -0.600000     5.732358529     3.975217572     7.058696900   0   0   0 # oc12
     90      3   1 -0.930000    -6.942584340     5.275637584     0.430352811   1   0   0 # oc13
     91      3   7  1.000000     7.192188989     1.768817741     1.275119440   0   0   0 # sc2
     92      3   2  1.500000    -4.730804036     4.622346014    -0.000000000   1   0   0 # ca+t
     93      3   8  1.000000     5.551542956     2.570024384     6.421137180   0   0   0 # sc3
     94      3   7  1.000000     7.518408086     1.275767500     8.470436280   0   0   0 # sc2
     95      3   5 -0.600000     6.996457531     2.064647886     7.058696900   0   0   0 # oc12
     96      3   1 -0.930000    -7.007828159     5.374247632     9.353911892   1   0   0 # oc13
     97      3   5 -0.600000     6.323630643     3.081564009     1.753289230   0   0   0 # oc12
     98      3   1 -0.930000     4.188752700     3.932075676     9.353911892   0   0   0 # oc13
     99      3   1 -0.930000     4.253996519     3.833465628     0.430352811   0   0   0 # oc13
    100      3   9 -0.820000    -4.730804036     4.622346014     6.899306970   1   0   0 # o*
    101      3   7  1.000000     5.479538729     4.357331509     1.275119440   0   0   0 # sc2
    102      3   8  1.000000     3.438255508     5.602283369     3.210568590   0   0   0 # sc3
    103      3   7  1.000000     5.153319631     4.850381751     8.493206270   0   0   0 # sc2
    104      3   9 -0.820000    -2.691934679     1.540782005     2.504698900   1   0   0 # o*
    105      3   2  1.500000    -4.730804036     4.622346014     9.404005870   1   0   0 # ca+t
    106      3  10  0.410000    -3.408833477     1.953766247     3.244699001   1   0   0 # h*
    107      3  10  0.410000    -1.766214495     2.153270504     2.504698900   1   0   0 # h*
    108      3  11  0.420000     3.888077186     2.330454837     7.813132766   0   0   0 # hoy
    109      3  11  0.420000     6.480725191     3.255958844     4.539876868   0   0   0 # hoy
    110      3  11  0.420000     1.345741652     5.060052810     3.121673960   0   0   0 # hoy
    111      3  10  0.410000    -5.447702835     5.035330257     7.639307071   1   0   0 # h*
    112      3  10  0.410000    -3.805083852     5.234834514     6.899306970   1   0   0 # h*
    113      4   1 -0.930000    -5.859945994     3.962891316    20.738911892   1   0   0 # oc13
    114      4   2  1.500000     5.304195964     4.622346014    11.385000000   0   0   0 # ca+t
    115      4   3 -0.690000     0.327486176     1.325072524    13.958008870   1   0   0 # oc14
    116      4   1 -0.930000    -3.619438511     5.318779480    11.815352811   1   0   0 # oc13
    117      4   4 -1.000000    -0.825994223     0.560844650    16.189467890   1   0   0 # oc22
    118      4   5 -0.600000    -5.750238715     6.163128019    19.308956520   1   0   0 # oc12
    119      4   1 -0.930000    -5.798779913     3.870444396    11.815352811   1   0   0 # oc13
    120      4   6  1.700000    -5.913338003     3.821139372    15.893458020   1   0   0 # casl
    121      4   3 -0.690000    -1.732599965     4.388147150    18.352616940   1   0   0 # oc14
    122      4   2  1.500000     5.304195964     4.622346014    20.789005870   0   0   0 # ca+t
    123      4   3 -0.690000    -3.013699761     3.543798611    16.235007870   1   0   0 # oc14
    124      4   5 -0.600000    -2.365715582     1.047731764    14.117398800   1   0   0 # oc12
    125      4   1 -0.930000    -3.680604592     5.411226401    20.738911892   1   0   0 # oc13
    126      4   5 -0.600000    -5.057023133     5.115396256    14.117398800   1   0   0 # oc12
    127      4   5 -0.600000    -3.120097244     2.187910447    18.443696900   1   0   0 # oc12
    128      4   1 -0.930000    -3.825154375     0.887490435    11.815352811   1   0   0 # oc13
    129      4   7  1.000000    -4.579927704     4.394310278    12.660119440   1   0   0 # sc2
    130      4   2  1.500000     7.343065321     1.540782005    11.385000000   0   0   0 # ca+t
    131      4   8  1.000000    -2.939281671     3.593103635    17.806137180   1   0   0 # sc3
    132      4   7  1.000000    -4.906146801     4.887360519    19.855436280   1   0   0 # sc2
    133      4   5 -0.600000    -4.384196246     4.098480133    18.443696900   1   0   0 # oc12
    134      4   1 -0.930000    -3.759910556     0.788880387    20.738911892   1   0   0 # oc13
    135      4   5 -0.600000    -3.711369358     3.081564010    13.138289230   1   0   0 # oc12
    136      4   1 -0.930000    -1.576491415     2.231052343    20.738911892   1   0   0 # oc13
    137      4   1 -0.930000    -1.641735234     2.329662391    11.815352811   1   0   0 # oc13
    138      4   9 -0.820000     7.343065321     1.540782005    18.284306970   0   0   0 # o*
    139      4   7  1.000000    -2.867277444     1.805796510    12.660119440   1   0   0 # sc2
    140      4   8  1.000000    -0.825994223     0.560844650    14.595568590   1   0   0 # sc3
    141      4   7  1.000000    -2.541058346     1.312746268    19.878206270   1   0   0 # sc2
    142      4   9 -0.820000     5.304195964     4.622346014    13.889698900   0   0   0 # o*
    143      4   2  1.500000     7.343065321     1.540782005    20.789005870   0   0   0 # ca+t
    144      4  10  0.410000     6.021094762     4.209361772    14.629699001   0   0   0 # h*
    145      4  10  0.410000     4.378475780     4.009857515    13.889698900   0   0   0 # h*
    146      4  11  0.420000    -1.275815901     3.832673182    19.198132766   1   0   0 # hoy
    147      4  11  0.420000    -3.868463906     2.907169175    15.924876868   1   0   0 # hoy
    148      4  11  0.420000     1.266519633     1.103075209    14.506673960   1   0   0 # hoy
    149      4  10  0.410000     8.059964120     1.127797762    19.024307071   0   0   0 # h*
    150      4  10  0.410000     6.417345137     0.928293505    18.284306970   0   0   0 # h*
    151      5   1 -0.930000    -2.295531436     8.363364722     9.353911892   0   0   0 # oc13
    152      5   2  1.500000    -0.079673394     7.703910024    -0.000000000   0   0   0 # ca+t
    153      5   3 -0.690000    -8.482963606    11.001183514     2.573008870   0   0   0 # oc14
    154      5   1 -0.930000    -4.536038919     7.007476558     0.430352811   0   0   0 # oc13
    155      5   4 -1.000000    -7.329483207    11.765411388     4.804467890   0   0   0 # oc22
    156      5   5 -0.600000    -2.405238715     6.163128019     7.923956520   0   0   0 # oc12
    157      5   1 -0.930000    -2.356697517     8.455811642     0.430352811   0   0   0 # oc13
    158      5   6  1.700000    -2.242139427     8.505116666     4.508458020   0   0   0 # casl
    159      5   3 -0.690000    -6.422877465     7.938108888     6.967616940   0   0   0 # oc14
    160      5   2  1.500000    -0.079673394     7.703910024     9.404005870   0   0   0 # ca+t
    161      5   3 -0.690000    -5.141777669     8.782457427     4.850007870   0   0   0 # oc14
    162      5   5 -0.600000    -5.789761848    11.278524274     2.732398800   0   0   0 # oc12
    163      5   1 -0.930000    -4.474872838     6.915029637     9.353911892   0   0   0 # oc13
    164      5   5 -0.600000    -3.098454297     7.210859782     2.732398800   0   0   0 # oc12
    165      5   5 -0.600000    -5.035380186    10.138345591     7.058696900   0   0   0 # oc12
    166      5   1 -0.930000    -4.330323055    11.438765603     0.430352811   0   0   0 # oc13
    167      5   7  1.000000    -3.575549726     7.931945760     1.275119440   0   0   0 # sc2
    168      5   2  1.500000    -2.118542751    10.785474033    -0.000000000   0   0   0 # ca+t
    169      5   8  1.000000    -5.216195759     8.733152403     6.421137180   0   0   0 # sc3
    170      5   7  1.000000    -3.249330629     7.438895519     8.470436280   0   0   0 # sc2
    171      5   5 -0.600000    -3.771281184     8.227775905     7.058696900   0   0   0 # oc12
    172      5   1 -0.930000    -4.395566874    11.537375651     9.353911892   0   0   0 # oc13
    173      5   5 -0.600000    -4.444108072     9.244692028     1.753289230   0   0   0 # oc12
    174      5   1 -0.930000    -6.578986015    10.095203695     9.353911892   0   0   0 # oc13
    175      5   1 -0.930000    -6.513742196     9.996593647     0.430352811   0   0   0 # oc13
    176      5   9 -0.820000    -2.118542751    10.785474033     6.899306970   0   0   0 # o*
    177      5   7  1.000000    -5.288199986    10.520459528     1.275119440   0   0   0 # sc2
    178      5   8  1.000000    -7.329483207    11.765411388     3.210568590   0   0   0 # sc3
    179      5   7  1.000000    -5.614419084    11.013509770     8.493206270   0   0   0 # sc2
    180      5   9 -0.820000    -0.079673394     7.703910024     2.504698900   0   0   0 # o*
    181      5   2  1.500000    -2.118542751    10.785474033     9.404005870   0   0   0 # ca+t
    182      5  10  0.410000    -0.796572192     8.116894266     3.244699001   0   0   0 # h*
    183      5  10  0.410000     0.846046790     8.316398523     2.504698900   0   0   0 # h*
    184      5  11  0.420000    -6.879661529     8.493582856     7.813132766   0   0   0 # hoy
    185      5  11  0.420000    -4.287013524     9.419086863     4.539876868   0   0   0 # hoy
    186      5  11  0.420000    -9.421997063    11.223180829     3.121673960   0   0   0 # hoy
    187      5  10  0.410000    -2.835441550    11.198458276     7.639307071   0   0   0 # h*
    188      5  10  0.410000    -1.192822567    11.397962533     6.899306970   0   0   0 # h*
    189      6   1 -0.930000    -3.247684709    10.126019334    20.738911892   0   0   0 # oc13
    190      6   2  1.500000    -5.463542751    10.785474032    11.385000000   0   0   0 # ca+t
    191      6   3 -0.690000     2.939747461     7.488200542    13.958008870   0   0   0 # oc14
    192      6   1 -0.930000    -1.007177226    11.481907498    11.815352811   0   0   0 # oc13
    193      6   4 -1.000000     1.786267062     6.723972668    16.189467890   0   0   0 # oc22
    194      6   1 -0.930000    -3.186518628    10.033572414    11.815352811   0   0   0 # oc13
    195      6   3 -0.690000     0.879661320    10.551275168    18.352616940   0   0   0 # oc14
    196      6   2  1.500000    -5.463542751    10.785474032    20.789005870   0   0   0 # ca+t
    197      6   3 -0.690000    -0.401438476     9.706926629    16.235007870   0   0   0 # oc14
    198      6   5 -0.600000     0.246545703     7.210859782    14.117398800   0   0   0 # oc12
    199      6   1 -0.930000    -1.068343307    11.574354419    20.738911892   0   0   0 # oc13
    200      6   5 -0.600000    -2.444761848    11.278524274    14.117398800   0   0   0 # oc12
    201      6   5 -0.600000    -0.507835959     8.351038465    18.443696900   0   0   0 # oc12
    202      6   1 -0.930000    -1.212893090     7.050618453    11.815352811   0   0   0 # oc13
    203      6   7  1.000000    -1.967666419    10.557438296    12.660119440   0   0   0 # sc2
    204      6   2  1.500000    -3.424673394     7.703910023    11.385000000   0   0   0 # ca+t
    205      6   8  1.000000    -0.327020386     9.756231653    17.806137180   0   0   0 # sc3
    206      6   7  1.000000    -2.293885516    11.050488537    19.855436280   0   0   0 # sc2
    207      6   5 -0.600000    -1.771934961    10.261608151    18.443696900   0   0   0 # oc12
    208      6   1 -0.930000    -1.147649271     6.952008405    20.738911892   0   0   0 # oc13
    209      6   5 -0.600000    -1.099108073     9.244692028    13.138289230   0   0   0 # oc12
    210      6   1 -0.930000     1.035769870     8.394180361    20.738911892   0   0   0 # oc13
    211      6   1 -0.930000     0.970526051     8.492790409    11.815352811   0   0   0 # oc13
    212      6   9 -0.820000    -3.424673394     7.703910023    18.284306970   0   0   0 # o*
    213      6   7  1.000000    -0.255016159     7.968924528    12.660119440   0   0   0 # sc2
    214      6   8  1.000000     1.786267062     6.723972668    14.595568590   0   0   0 # sc3
    215      6   7  1.000000     0.071202939     7.475874286    19.878206270   0   0   0 # sc2
    216      6   9 -0.820000    -5.463542751    10.785474032    13.889698900   0   0   0 # o*
    217      6   2  1.500000    -3.424673394     7.703910023    20.789005870   0   0   0 # ca+t
    218      6  10  0.410000    -4.746643953    10.372489790    14.629699001   0   0   0 # h*
    219      6  10  0.410000    -6.389262935    10.172985533    13.889698900   0   0   0 # h*
    220      6  11  0.420000     1.336445384     9.995801200    19.198132766   0   0   0 # hoy
    221      6  11  0.420000    -1.256202621     9.070297193    15.924876868   0   0   0 # hoy
    222      6  11  0.420000     3.878780918     7.266203227    14.506673960   0   0   0 # hoy
    223      6  10  0.410000    -2.707774595     7.290925780    19.024307071   0   0   0 # h*
    224      6  10  0.410000    -4.350393578     7.091421523    18.284306970   0   0   0 # h*
    225      7   1 -0.930000    -8.985531436     8.363364722     9.353911892   1   0   0 # oc13
    226      7   2  1.500000    -6.769673394     7.703910024    -0.000000000   1   0   0 # ca+t
    227      7   3 -0.690000    -1.792963606    11.001183514     2.573008870   0   0   0 # oc14
    228      7   1 -0.930000     2.153961081     7.007476558     0.430352811   0   0   0 # oc13
    229      7   4 -1.000000    -0.639483207    11.765411388     4.804467890   0   0   0 # oc22
    230      7   5 -0.600000     4.284761285     6.163128019     7.923956520   0   0   0 # oc12
    231      7   1 -0.930000    -9.046697517     8.455811642     0.430352811   1   0   0 # oc13
    232      7   3 -0.690000     0.267122535     7.938108888     6.967616940   0   0   0 # oc14
    233      7   2  1.500000    -6.769673394     7.703910024     9.404005870   1   0   0 # ca+t
    234      7   3 -0.690000     1.548222331     8.782457427     4.850007870   0   0   0 # oc14
    235      7   5 -0.600000     0.900238152    11.278524274     2.732398800   0   0   0 # oc12
    236      7   1 -0.930000     2.215127162     6.915029637     9.353911892   0   0   0 # oc13
    237      7   5 -0.600000     3.591545703     7.210859782     2.732398800   0   0   0 # oc12
    238      7   5 -0.600000     1.654619814    10.138345591     7.058696900   0   0   0 # oc12
    239      7   1 -0.930000   -11.020323055    11.438765603     0.430352811   1   0   0 # oc13
    240      7   7  1.000000     3.114450274     7.931945760     1.275119440   0   0   0 # sc2
    241      7   2  1.500000    -8.808542751    10.785474033    -0.000000000   1   0   0 # ca+t
    242      7   8  1.000000     1.473804241     8.733152403     6.421137180   0   0   0 # sc3
    243      7   7  1.000000     3.440669371     7.438895519     8.470436280   0   0   0 # sc2
    244      7   5 -0.600000     2.918718816     8.227775905     7.058696900   0   0   0 # oc12
    245      7   1 -0.930000   -11.085566874    11.537375651     9.353911892   1   0   0 # oc13
    246      7   5 -0.600000     2.245891928     9.244692028     1.753289230   0   0   0 # oc12
    247      7   1 -0.930000     0.111013985    10.095203695     9.353911892   0   0   0 # oc13
    248      7   1 -0.930000     0.176257804     9.996593647     0.430352811   0   0   0 # oc13
    249      7   9 -0.820000    -8.808542751    10.785474033     6.899306970   1   0   0 # o*
    250      7   7  1.000000     1.401800014    10.520459528     1.275119440   0   0   0 # sc2
    251      7   8  1.000000    -0.639483207    11.765411388     3.210568590   0   0   0 # sc3
    252      7   7  1.000000     1.075580916    11.013509770     8.493206270   0   0   0 # sc2
    253      7   9 -0.820000    -6.769673394     7.703910024     2.504698900   1   0   0 # o*
    254      7   2  1.500000    -8.808542751    10.785474033     9.404005870   1   0   0 # ca+t
    255      7  10  0.410000    -7.486572192     8.116894266     3.244699001   1   0   0 # h*
    256      7  10  0.410000    -5.843953210     8.316398523     2.504698900   1   0   0 # h*
    257      7  11  0.420000    -0.189661529     8.493582856     7.813132766   0   0   0 # hoy
    258      7  11  0.420000     2.402986476     9.419086863     4.539876868   0   0   0 # hoy
    259      7  11  0.420000    -2.731997063    11.223180829     3.121673960   0   0   0 # hoy
    260      7  10  0.410000    -9.525441550    11.198458276     7.639307071   1   0   0 # h*
    261      7  10  0.410000    -7.882822567    11.397962533     6.899306970   1   0   0 # h*
    262      8   1 -0.930000    -9.937684709    10.126019334    20.738911892   1   0   0 # oc13
    263      8   2  1.500000     1.226457249    10.785474032    11.385000000   0   0   0 # ca+t
    264      8   3 -0.690000    -3.750252539     7.488200542    13.958008870   1   0   0 # oc14
    265      8   1 -0.930000    -7.697177226    11.481907498    11.815352811   1   0   0 # oc13
    266      8   4 -1.000000    -4.903732938     6.723972668    16.189467890   1   0   0 # oc22
    267      8   1 -0.930000    -9.876518628    10.033572414    11.815352811   1   0   0 # oc13
    268      8   6  1.700000    -9.991076718     9.984267390    15.893458020   1   0   0 # casl
    269      8   3 -0.690000    -5.810338680    10.551275168    18.352616940   1   0   0 # oc14
    270      8   2  1.500000     1.226457249    10.785474032    20.789005870   0   0   0 # ca+t
    271      8   3 -0.690000    -7.091438476     9.706926629    16.235007870   1   0   0 # oc14
    272      8   5 -0.600000    -6.443454297     7.210859782    14.117398800   1   0   0 # oc12
    273      8   1 -0.930000    -7.758343307    11.574354419    20.738911892   1   0   0 # oc13
    274      8   5 -0.600000    -9.134761848    11.278524274    14.117398800   1   0   0 # oc12
    275      8   5 -0.600000    -7.197835959     8.351038465    18.443696900   1   0   0 # oc12
    276      8   1 -0.930000    -7.902893090     7.050618453    11.815352811   1   0   0 # oc13
    277      8   7  1.000000    -8.657666419    10.557438296    12.660119440   1   0   0 # sc2
    278      8   2  1.500000     3.265326606     7.703910023    11.385000000   0   0   0 # ca+t
    279      8   8  1.000000    -7.017020386     9.756231653    17.806137180   1   0   0 # sc3
    280      8   7  1.000000    -8.983885516    11.050488537    19.855436280   1   0   0 # sc2
    281      8   5 -0.600000    -8.461934961    10.261608151    18.443696900   1   0   0 # oc12
    282      8   1 -0.930000    -7.837649271     6.952008405    20.738911892   1   0   0 # oc13
    283      8   5 -0.600000    -7.789108073     9.244692028    13.138289230   1   0   0 # oc12
    284      8   1 -0.930000    -5.654230130     8.394180361    20.738911892   1   0   0 # oc13
    285      8   1 -0.930000    -5.719473949     8.492790409    11.815352811   1   0   0 # oc13
    286      8   9 -0.820000     3.265326606     7.703910023    18.284306970   0   0   0 # o*
    287      8   7  1.000000    -6.945016159     7.968924528    12.660119440   1   0   0 # sc2
    288      8   8  1.000000    -4.903732938     6.723972668    14.595568590   1   0   0 # sc3
    289      8   7  1.000000    -6.618797061     7.475874286    19.878206270   1   0   0 # sc2
    290      8   9 -0.820000     1.226457249    10.785474032    13.889698900   0   0   0 # o*
    291      8   2  1.500000     3.265326606     7.703910023    20.789005870   0   0   0 # ca+t
    292      8  10  0.410000     1.943356047    10.372489790    14.629699001   0   0   0 # h*
    293      8  10  0.410000     0.300737065    10.172985533    13.889698900   0   0   0 # h*
    294      8  11  0.420000    -5.353554616     9.995801200    19.198132766   1   0   0 # hoy
    295      8  11  0.420000    -7.946202621     9.070297193    15.924876868   1   0   0 # hoy
    296      8  11  0.420000    -2.811219082     7.266203227    14.506673960   1   0   0 # hoy
    297      8  10  0.410000     3.982225405     7.290925780    19.024307071   0   0   0 # h*
    298      8  10  0.410000     2.339606422     7.091421523    18.284306970   0   0   0 # h*
    299      9   5 -0.600000     5.017500000     0.000000000    19.308956520   0   0   0 # oc12
    300     10   5 -0.600000    -1.672500000     0.000000000    19.308956520   1   0   0 # oc12

Bonds

     1   1      1     20
     2   2      3     28
     3   3      3     36
     4   1      4     17
     5   4      5     28
     6   5      6     20
     7   5      6    179
     8   1      7     17
     9   2      9     19
    10   3      9     34
    11   2     11     19
    12   3     11     35
    13   6     12     28
    14   5     12     27
    15   1     13     20
    16   5     14     17
    17   6     14    178
    18   6     15     19
    19   5     15     29
    20   1     16     27
    21   5     23     17
    22   6     21     19
    23   5     21     20
    24   1     22     29
    25   5     23     27
    26   1     24     29
    27   1     25     27
    28   7     26     37
    29   7     26     38
    30   6    164     28
    31   5    156     29
    32   7     30     32
    33   7     30     33
    34   1     39     57
    35   2     41     65
    36   3     41     73
    37   1     42     54
    38   4     43     65
    39   5     44     57
    40   5     44    215
    41   1     45     54
    42   2     46     56
    43   3     46     71
    44   2     48     56
    45   3     48     72
    46   6     49     65
    47   5     49     64
    48   1     50     57
    49   5     51     54
    50   6     51    214
    51   6     52     56
    52   5     52     66
    53   1     53     64
    54   5     60     54
    55   6     58     56
    56   5     58     57
    57   1     59     66
    58   5     60     64
    59   1     61     66
    60   1     62     64
    61   7     63     74
    62   7     63     75
    63   6    200     65
    64   5    299     66
    65   7     67     69
    66   7     67     70
    67   1     76     94
    68   2     78    102
    69   3     78    110
    70   1     79     91
    71   4     80    102
    72   5     81     94
    73   5     81    252
    74   1     82     91
    75   2     83     93
    76   3     83    108
    77   2     85     93
    78   3     85    109
    79   6     86    102
    80   5     86    101
    81   1     87     94
    82   5     88     91
    83   6     88    251
    84   6     89     93
    85   5     89    103
    86   1     90    101
    87   5     97     91
    88   6     95     93
    89   5     95     94
    90   1     96    103
    91   5     97    101
    92   1     98    103
    93   1     99    101
    94   7    100    111
    95   7    100    112
    96   6    237    102
    97   5    230    103
    98   7    104    106
    99   7    104    107
   100   1    113    132
   101   2    115    140
   102   3    115    148
   103   1    116    129
   104   4    117    140
   105   5    118    132
   106   5    118    289
   107   1    119    129
   108   2    121    131
   109   3    121    146
   110   2    123    131
   111   3    123    147
   112   6    124    140
   113   5    124    139
   114   1    125    132
   115   5    126    129
   116   6    126    288
   117   6    127    131
   118   5    127    141
   119   1    128    139
   120   5    135    129
   121   6    133    131
   122   5    133    132
   123   1    134    141
   124   5    135    139
   125   1    136    141
   126   1    137    139
   127   7    138    149
   128   7    138    150
   129   6    274    140
   130   5    300    141
   131   7    142    144
   132   7    142    145
   133   1    151    170
   134   2    153    178
   135   3    153    186
   136   1    154    167
   137   4    155    178
   138   5    156    170
   139   1    157    167
   140   2    159    169
   141   3    159    184
   142   2    161    169
   143   3    161    185
   144   6    162    178
   145   5    162    177
   146   1    163    170
   147   5    164    167
   148   6    165    169
   149   5    165    179
   150   1    166    177
   151   5    173    167
   152   6    171    169
   153   5    171    170
   154   1    172    179
   155   5    173    177
   156   1    174    179
   157   1    175    177
   158   7    176    187
   159   7    176    188
   160   7    180    182
   161   7    180    183
   162   1    189    206
   163   2    191    214
   164   3    191    222
   165   1    192    203
   166   4    193    214
   167   1    194    203
   168   2    195    205
   169   3    195    220
   170   2    197    205
   171   3    197    221
   172   6    198    214
   173   5    198    213
   174   1    199    206
   175   5    200    203
   176   6    201    205
   177   5    201    215
   178   1    202    213
   179   5    209    203
   180   6    207    205
   181   5    207    206
   182   5    299    206
   183   1    208    215
   184   5    209    213
   185   1    210    215
   186   1    211    213
   187   7    212    223
   188   7    212    224
   189   7    216    218
   190   7    216    219
   191   1    225    243
   192   2    227    251
   193   3    227    259
   194   1    228    240
   195   4    229    251
   196   5    230    243
   197   1    231    240
   198   2    232    242
   199   3    232    257
   200   2    234    242
   201   3    234    258
   202   6    235    251
   203   5    235    250
   204   1    236    243
   205   5    237    240
   206   6    238    242
   207   5    238    252
   208   1    239    250
   209   5    246    240
   210   6    244    242
   211   5    244    243
   212   1    245    252
   213   5    246    250
   214   1    247    252
   215   1    248    250
   216   7    249    260
   217   7    249    261
   218   7    253    255
   219   7    253    256
   220   1    262    280
   221   2    264    288
   222   3    264    296
   223   1    265    277
   224   4    266    288
   225   1    267    277
   226   2    269    279
   227   3    269    294
   228   2    271    279
   229   3    271    295
   230   6    272    288
   231   5    272    287
   232   1    273    280
   233   5    274    277
   234   6    275    279
   235   5    275    289
   236   1    276    287
   237   5    283    277
   238   6    281    279
   239   5    281    280
   240   5    300    280
   241   1    282    289
   242   5    283    287
   243   1    284    289
   244   1    285    287
   245   7    286    297
   246   7    286    298
   247   7    290    292
   248   7    290    293

Angles

     1   1     28      3     36
     2   2     20      6    179
     3   1     19      9     34
     4   1     19     11     35
     5   3     27     12     28
     6   3     17     14    178
     7   3     29     15     19
     8   4      4     17      7
     9   5      4     17     14
    10   5      4     17     23
    11   5      7     17     14
    12   5      7     17     23
    13   6     14     17     23
    14   7      9     19     11
    15   8      9     19     15
    16   8      9     19     21
    17   8     11     19     15
    18   8     11     19     21
    19   9     15     19     21
    20   5      1     20      6
    21   4      1     20     13
    22   5      1     20     21
    23   5     13     20      6
    24   6      6     20     21
    25   5     13     20     21
    26   3     20     21     19
    27   2     17     23     27
    28  10     37     26     38
    29   5     16     27     12
    30   6     12     27     23
    31   5     25     27     12
    32   5     16     27     23
    33   4     16     27     25
    34   5     25     27     23
    35  11      3     28      5
    36   8      3     28     12
    37   8      3     28    164
    38  12      5     28     12
    39  12      5     28    164
    40   9     12     28    164
    41   5     22     29     15
    42   5     24     29     15
    43   6     15     29    156
    44   4     22     29     24
    45   5     22     29    156
    46   5     24     29    156
    47  10     32     30     33
    48   1     65     41     73
    49   2     57     44    215
    50   1     56     46     71
    51   1     56     48     72
    52   3     64     49     65
    53   3     54     51    214
    54   3     66     52     56
    55   4     42     54     45
    56   5     42     54     51
    57   5     42     54     60
    58   5     45     54     51
    59   5     45     54     60
    60   6     51     54     60
    61   7     46     56     48
    62   8     46     56     52
    63   8     46     56     58
    64   8     48     56     52
    65   8     48     56     58
    66   9     52     56     58
    67   5     39     57     44
    68   4     39     57     50
    69   5     39     57     58
    70   5     50     57     44
    71   6     44     57     58
    72   5     50     57     58
    73   3     57     58     56
    74   2     54     60     64
    75  10     74     63     75
    76   5     53     64     49
    77   6     49     64     60
    78   5     62     64     49
    79   5     53     64     60
    80   4     53     64     62
    81   5     62     64     60
    82  11     41     65     43
    83   8     41     65     49
    84   8     41     65    200
    85  12     43     65     49
    86  12     43     65    200
    87   9     49     65    200
    88   5     59     66     52
    89   5     61     66     52
    90   6     52     66    299
    91   4     59     66     61
    92   5     59     66    299
    93   5     61     66    299
    94  10     69     67     70
    95   1    102     78    110
    96   2     94     81    252
    97   1     93     83    108
    98   1     93     85    109
    99   3    101     86    102
   100   3     91     88    251
   101   3    103     89     93
   102   4     79     91     82
   103   5     79     91     88
   104   5     79     91     97
   105   5     82     91     88
   106   5     82     91     97
   107   6     88     91     97
   108   7     83     93     85
   109   8     83     93     89
   110   8     83     93     95
   111   8     85     93     89
   112   8     85     93     95
   113   9     89     93     95
   114   5     76     94     81
   115   4     76     94     87
   116   5     76     94     95
   117   5     87     94     81
   118   6     81     94     95
   119   5     87     94     95
   120   3     94     95     93
   121   2     91     97    101
   122  10    111    100    112
   123   5     90    101     86
   124   6     86    101     97
   125   5     99    101     86
   126   5     90    101     97
   127   4     90    101     99
   128   5     99    101     97
   129  11     78    102     80
   130   8     78    102     86
   131   8     78    102    237
   132  12     80    102     86
   133  12     80    102    237
   134   9     86    102    237
   135   5     96    103     89
   136   5     98    103     89
   137   6     89    103    230
   138   4     96    103     98
   139   5     96    103    230
   140   5     98    103    230
   141  10    106    104    107
   142   1    140    115    148
   143   2    132    118    289
   144   1    131    121    146
   145   1    131    123    147
   146   3    139    124    140
   147   3    129    126    288
   148   3    141    127    131
   149   4    116    129    119
   150   5    116    129    126
   151   5    116    129    135
   152   5    119    129    126
   153   5    119    129    135
   154   6    126    129    135
   155   7    121    131    123
   156   8    121    131    127
   157   8    121    131    133
   158   8    123    131    127
   159   8    123    131    133
   160   9    127    131    133
   161   5    113    132    118
   162   4    113    132    125
   163   5    113    132    133
   164   5    125    132    118
   165   6    118    132    133
   166   5    125    132    133
   167   3    132    133    131
   168   2    129    135    139
   169  10    149    138    150
   170   5    128    139    124
   171   6    124    139    135
   172   5    137    139    124
   173   5    128    139    135
   174   4    128    139    137
   175   5    137    139    135
   176  11    115    140    117
   177   8    115    140    124
   178   8    115    140    274
   179  12    117    140    124
   180  12    117    140    274
   181   9    124    140    274
   182   5    134    141    127
   183   5    136    141    127
   184   6    127    141    300
   185   4    134    141    136
   186   5    134    141    300
   187   5    136    141    300
   188  10    144    142    145
   189   1    178    153    186
   190   2     29    156    170
   191   1    169    159    184
   192   1    169    161    185
   193   3    177    162    178
   194   3    167    164     28
   195   3    179    165    169
   196   4    154    167    157
   197   5    154    167    164
   198   5    154    167    173
   199   5    157    167    164
   200   5    157    167    173
   201   6    164    167    173
   202   7    159    169    161
   203   8    159    169    165
   204   8    159    169    171
   205   8    161    169    165
   206   8    161    169    171
   207   9    165    169    171
   208   5    151    170    156
   209   4    151    170    163
   210   5    151    170    171
   211   5    163    170    156
   212   6    156    170    171
   213   5    163    170    171
   214   3    170    171    169
   215   2    167    173    177
   216  10    187    176    188
   217   5    166    177    162
   218   6    162    177    173
   219   5    175    177    162
   220   5    166    177    173
   221   4    166    177    175
   222   5    175    177    173
   223  11    153    178    155
   224   8    153    178    162
   225   8    153    178     14
   226  12    155    178    162
   227  12    155    178     14
   228   9    162    178     14
   229   5    172    179    165
   230   5    174    179    165
   231   6    165    179      6
   232   4    172    179    174
   233   5    172    179      6
   234   5    174    179      6
   235  10    182    180    183
   236   1    214    191    222
   237   1    205    195    220
   238   1    205    197    221
   239   3    213    198    214
   240   3    203    200     65
   241   3    215    201    205
   242   4    192    203    194
   243   5    192    203    200
   244   5    192    203    209
   245   5    194    203    200
   246   5    194    203    209
   247   6    200    203    209
   248   7    195    205    197
   249   8    195    205    201
   250   8    195    205    207
   251   8    197    205    201
   252   8    197    205    207
   253   9    201    205    207
   254   4    189    206    199
   255   5    189    206    207
   256   5    189    206    299
   257   5    199    206    207
   258   5    199    206    299
   259   6    207    206    299
   260   3    206    207    205
   261   2    203    209    213
   262  10    223    212    224
   263   5    202    213    198
   264   6    198    213    209
   265   5    211    213    198
   266   5    202    213    209
   267   4    202    213    211
   268   5    211    213    209
   269   8    191    214     51
   270  12    193    214     51
   271   9     51    214    198
   272  11    191    214    193
   273   8    191    214    198
   274  12    193    214    198
   275   6     44    215    201
   276   5    208    215     44
   277   5    210    215     44
   278   5    208    215    201
   279   5    210    215    201
   280   4    208    215    210
   281  10    218    216    219
   282   1    251    227    259
   283   2    103    230    243
   284   1    242    232    257
   285   1    242    234    258
   286   3    250    235    251
   287   3    240    237    102
   288   3    252    238    242
   289   4    228    240    231
   290   5    228    240    237
   291   5    228    240    246
   292   5    231    240    237
   293   5    231    240    246
   294   6    237    240    246
   295   7    232    242    234
   296   8    232    242    238
   297   8    232    242    244
   298   8    234    242    238
   299   8    234    242    244
   300   9    238    242    244
   301   5    225    243    230
   302   4    225    243    236
   303   5    225    243    244
   304   5    236    243    230
   305   6    230    243    244
   306   5    236    243    244
   307   3    243    244    242
   308   2    240    246    250
   309  10    260    249    261
   310   5    239    250    235
   311   6    235    250    246
   312   5    248    250    235
   313   5    239    250    246
   314   4    239    250    248
   315   5    248    250    246
   316  11    227    251    229
   317   8    227    251    235
   318   8    227    251     88
   319  12    229    251    235
   320  12    229    251     88
   321   9    235    251     88
   322   5    245    252    238
   323   5    247    252    238
   324   6    238    252     81
   325   4    245    252    247
   326   5    245    252     81
   327   5    247    252     81
   328  10    255    253    256
   329   1    288    264    296
   330   1    279    269    294
   331   1    279    271    295
   332   3    287    272    288
   333   3    277    274    140
   334   3    289    275    279
   335   4    265    277    267
   336   5    265    277    274
   337   5    265    277    283
   338   5    267    277    274
   339   5    267    277    283
   340   6    274    277    283
   341   7    269    279    271
   342   8    269    279    275
   343   8    269    279    281
   344   8    271    279    275
   345   8    271    279    281
   346   9    275    279    281
   347   4    262    280    273
   348   5    262    280    281
   349   5    262    280    300
   350   5    273    280    281
   351   5    273    280    300
   352   6    281    280    300
   353   3    280    281    279
   354   2    277    283    287
   355  10    297    286    298
   356   5    276    287    272
   357   6    272    287    283
   358   5    285    287    272
   359   5    276    287    283
   360   4    276    287    285
   361   5    285    287    283
   362   8    264    288    126
   363  12    266    288    126
   364   9    126    288    272
   365  11    264    288    266
   366   8    264    288    272
   367  12    266    288    272
   368   6    118    289    275
   369   5    282    289    118
   370   5    284    289    118
   371   5    282    289    275
   372   5    284    289    275
   373   4    282    289    284
   374  10    292    290    293
   375   2     66    299    206
   376   2    141    300    280

Dihedrals

     1   1     36      3     28      5
     2   2     36      3     28     12
     3   2     36      3     28    164
     4   3    179      6     20      1
     5   3    179      6     20     13
     6   4    179      6     20     21
     7   4     20      6    179    165
     8   3     20      6    179    172
     9   3     20      6    179    174
    10   5     34      9     19     11
    11   2     34      9     19     15
    12   2     34      9     19     21
    13   5     35     11     19      9
    14   2     35     11     19     15
    15   2     35     11     19     21
    16   6     27     12     28      3
    17   7     27     12     28      5
    18   8     27     12     28    164
    19   9     28     12     27     16
    20  10     28     12     27     23
    21   9     28     12     27     25
    22   9    178     14     17      4
    23   9    178     14     17      7
    24  10    178     14     17     23
    25   6     17     14    178    153
    26   7     17     14    178    155
    27   8     17     14    178    162
    28   6     29     15     19      9
    29   6     29     15     19     11
    30   8     29     15     19     21
    31   9     19     15     29     22
    32   9     19     15     29     24
    33  10     19     15     29    156
    34   3     27     23     17      4
    35   3     27     23     17      7
    36   4     27     23     17     14
    37   6     20     21     19      9
    38   6     20     21     19     11
    39   8     20     21     19     15
    40   9     19     21     20      1
    41  10     19     21     20      6
    42   9     19     21     20     13
    43   4     17     23     27     12
    44   3     17     23     27     16
    45   3     17     23     27     25
    46   6    167    164     28      3
    47   7    167    164     28      5
    48   8    167    164     28     12
    49   4    170    156     29     15
    50   3    170    156     29     22
    51   3    170    156     29     24
    52   1     73     41     65     43
    53   2     73     41     65     49
    54   2     73     41     65    200
    55   3    215     44     57     39
    56   3    215     44     57     50
    57   4    215     44     57     58
    58   4     57     44    215    201
    59   3     57     44    215    208
    60   3     57     44    215    210
    61   5     71     46     56     48
    62   2     71     46     56     52
    63   2     71     46     56     58
    64   5     72     48     56     46
    65   2     72     48     56     52
    66   2     72     48     56     58
    67   6     64     49     65     41
    68   7     64     49     65     43
    69   8     64     49     65    200
    70   9     65     49     64     53
    71  10     65     49     64     60
    72   9     65     49     64     62
    73   9    214     51     54     42
    74   9    214     51     54     45
    75  10    214     51     54     60
    76   6     54     51    214    191
    77   7     54     51    214    193
    78   8     54     51    214    198
    79   6     66     52     56     46
    80   6     66     52     56     48
    81   8     66     52     56     58
    82   9     56     52     66     59
    83   9     56     52     66     61
    84  10     56     52     66    299
    85   3     64     60     54     42
    86   3     64     60     54     45
    87   4     64     60     54     51
    88   6     57     58     56     46
    89   6     57     58     56     48
    90   8     57     58     56     52
    91   9     56     58     57     39
    92  10     56     58     57     44
    93   9     56     58     57     50
    94   4     54     60     64     49
    95   3     54     60     64     53
    96   3     54     60     64     62
    97   6    203    200     65     41
    98   7    203    200     65     43
    99   8    203    200     65     49
   100   4    206    299     66     52
   101   3    206    299     66     59
   102   3    206    299     66     61
   103   1    110     78    102     80
   104   2    110     78    102     86
   105   2    110     78    102    237
   106   3    252     81     94     76
   107   3    252     81     94     87
   108   4    252     81     94     95
   109   4     94     81    252    238
   110   3     94     81    252    245
   111   3     94     81    252    247
   112   5    108     83     93     85
   113   2    108     83     93     89
   114   2    108     83     93     95
   115   5    109     85     93     83
   116   2    109     85     93     89
   117   2    109     85     93     95
   118   6    101     86    102     78
   119   7    101     86    102     80
   120   8    101     86    102    237
   121   9    102     86    101     90
   122  10    102     86    101     97
   123   9    102     86    101     99
   124   9    251     88     91     79
   125   9    251     88     91     82
   126  10    251     88     91     97
   127   6     91     88    251    227
   128   7     91     88    251    229
   129   8     91     88    251    235
   130   6    103     89     93     83
   131   6    103     89     93     85
   132   8    103     89     93     95
   133   9     93     89    103     96
   134   9     93     89    103     98
   135  10     93     89    103    230
   136   3    101     97     91     79
   137   3    101     97     91     82
   138   4    101     97     91     88
   139   6     94     95     93     83
   140   6     94     95     93     85
   141   8     94     95     93     89
   142   9     93     95     94     76
   143  10     93     95     94     81
   144   9     93     95     94     87
   145   4     91     97    101     86
   146   3     91     97    101     90
   147   3     91     97    101     99
   148   6    240    237    102     78
   149   7    240    237    102     80
   150   8    240    237    102     86
   151   4    243    230    103     89
   152   3    243    230    103     96
   153   3    243    230    103     98
   154   1    148    115    140    117
   155   2    148    115    140    124
   156   2    148    115    140    274
   157   3    289    118    132    113
   158   3    289    118    132    125
   159   4    289    118    132    133
   160   4    132    118    289    275
   161   3    132    118    289    282
   162   3    132    118    289    284
   163   5    146    121    131    123
   164   2    146    121    131    127
   165   2    146    121    131    133
   166   5    147    123    131    121
   167   2    147    123    131    127
   168   2    147    123    131    133
   169   6    139    124    140    115
   170   7    139    124    140    117
   171   8    139    124    140    274
   172   9    140    124    139    128
   173  10    140    124    139    135
   174   9    140    124    139    137
   175   9    288    126    129    116
   176   9    288    126    129    119
   177  10    288    126    129    135
   178   6    129    126    288    264
   179   7    129    126    288    266
   180   8    129    126    288    272
   181   6    141    127    131    121
   182   6    141    127    131    123
   183   8    141    127    131    133
   184   9    131    127    141    134
   185   9    131    127    141    136
   186  10    131    127    141    300
   187   3    139    135    129    116
   188   3    139    135    129    119
   189   4    139    135    129    126
   190   6    132    133    131    121
   191   6    132    133    131    123
   192   8    132    133    131    127
   193   9    131    133    132    113
   194  10    131    133    132    118
   195   9    131    133    132    125
   196   4    129    135    139    124
   197   3    129    135    139    128
   198   3    129    135    139    137
   199   6    277    274    140    115
   200   7    277    274    140    117
   201   8    277    274    140    124
   202   4    280    300    141    127
   203   3    280    300    141    134
   204   3    280    300    141    136
   205   1    186    153    178    155
   206   2    186    153    178    162
   207   2    186    153    178     14
   208   3     29    156    170    151
   209   3     29    156    170    163
   210   4     29    156    170    171
   211   5    184    159    169    161
   212   2    184    159    169    165
   213   2    184    159    169    171
   214   5    185    161    169    159
   215   2    185    161    169    165
   216   2    185    161    169    171
   217   6    177    162    178    153
   218   7    177    162    178    155
   219   8    177    162    178     14
   220   9    178    162    177    166
   221  10    178    162    177    173
   222   9    178    162    177    175
   223   9     28    164    167    154
   224   9     28    164    167    157
   225  10     28    164    167    173
   226   6    179    165    169    159
   227   6    179    165    169    161
   228   8    179    165    169    171
   229   9    169    165    179    172
   230   9    169    165    179    174
   231  10    169    165    179      6
   232   3    177    173    167    154
   233   3    177    173    167    157
   234   4    177    173    167    164
   235   6    170    171    169    159
   236   6    170    171    169    161
   237   8    170    171    169    165
   238   9    169    171    170    151
   239  10    169    171    170    156
   240   9    169    171    170    163
   241   4    167    173    177    162
   242   3    167    173    177    166
   243   3    167    173    177    175
   244   2    222    191    214     51
   245   1    222    191    214    193
   246   2    222    191    214    198
   247   5    220    195    205    197
   248   2    220    195    205    201
   249   2    220    195    205    207
   250   5    221    197    205    195
   251   2    221    197    205    201
   252   2    221    197    205    207
   253   8    213    198    214     51
   254   6    213    198    214    191
   255   7    213    198    214    193
   256   9    214    198    213    202
   257  10    214    198    213    209
   258   9    214    198    213    211
   259   9     65    200    203    192
   260   9     65    200    203    194
   261  10     65    200    203    209
   262   6    215    201    205    195
   263   6    215    201    205    197
   264   8    215    201    205    207
   265  10    205    201    215     44
   266   9    205    201    215    208
   267   9    205    201    215    210
   268   3    213    209    203    192
   269   3    213    209    203    194
   270   4    213    209    203    200
   271   6    206    207    205    195
   272   6    206    207    205    197
   273   8    206    207    205    201
   274   9    205    207    206    189
   275   9    205    207    206    199
   276  10    205    207    206    299
   277   3     66    299    206    189
   278   3     66    299    206    199
   279   4     66    299    206    207
   280   4    203    209    213    198
   281   3    203    209    213    202
   282   3    203    209    213    211
   283   1    259    227    251    229
   284   2    259    227    251    235
   285   2    259    227    251     88
   286   3    103    230    243    225
   287   3    103    230    243    236
   288   4    103    230    243    244
   289   5    257    232    242    234
   290   2    257    232    242    238
   291   2    257    232    242    244
   292   5    258    234    242    232
   293   2    258    234    242    238
   294   2    258    234    242    244
   295   6    250    235    251    227
   296   7    250    235    251    229
   297   8    250    235    251     88
   298   9    251    235    250    239
   299  10    251    235    250    246
   300   9    251    235    250    248
   301   9    102    237    240    228
   302   9    102    237    240    231
   303  10    102    237    240    246
   304   6    252    238    242    232
   305   6    252    238    242    234
   306   8    252    238    242    244
   307   9    242    238    252    245
   308   9    242    238    252    247
   309  10    242    238    252     81
   310   3    250    246    240    228
   311   3    250    246    240    231
   312   4    250    246    240    237
   313   6    243    244    242    232
   314   6    243    244    242    234
   315   8    243    244    242    238
   316   9    242    244    243    225
   317  10    242    244    243    230
   318   9    242    244    243    236
   319   4    240    246    250    235
   320   3    240    246    250    239
   321   3    240    246    250    248
   322   2    296    264    288    126
   323   1    296    264    288    266
   324   2    296    264    288    272
   325   5    294    269    279    271
   326   2    294    269    279    275
   327   2    294    269    279    281
   328   5    295    271    279    269
   329   2    295    271    279    275
   330   2    295    271    279    281
   331   8    287    272    288    126
   332   6    287    272    288    264
   333   7    287    272    288    266
   334   9    288    272    287    276
   335  10    288    272    287    283
   336   9    288    272    287    285
   337   9    140    274    277    265
   338   9    140    274    277    267
   339  10    140    274    277    283
   340   6    289    275    279    269
   341   6    289    275    279    271
   342   8    289    275    279    281
   343  10    279    275    289    118
   344   9    279    275    289    282
   345   9    279    275    289    284
   346   3    287    283    277    265
   347   3    287    283    277    267
   348   4    287    283    277    274
   349   6    280    281    279    269
   350   6    280    281    279    271
   351   8    280    281    279    275
   352   9    279    281    280    262
   353   9    279    281    280    273
   354  10    279    281    280    300
   355   3    141    300    280    262
   356   3    141    300    280    273
   357   4    141    300    280    281
   358   4    277    283    287    272
   359   3    277    283    287    276
   360   3    277    283    287    285

Impropers

     1   1      4     17      7     14 
     2   1      4     17      7     23 
     3   2      4     17     14     23 
     4   2      7     17     14     23 
     5   3      9     19     11     15 
     6   3      9     19     11     21 
     7   4      9     19     15     21 
     8   4     11     19     15     21 
     9   1      1     20     13      6 
    10   2      1     20      6     21 
    11   1      1     20     13     21 
    12   2     13     20      6     21 
    13   2     16     27     12     23 
    14   1     16     27     25     12 
    15   2     25     27     23     12 
    16   1     16     27     25     23 
    17   5      3     28      5     12 
    18   5      3     28      5    164 
    19   4      3     28     12    164 
    20   6      5     28     12    164 
    21   1     22     29     24     15 
    22   2     22     29     15    156 
    23   2     24     29     15    156 
    24   1     22     29     24    156 
    25   1     42     54     45     51 
    26   1     42     54     45     60 
    27   2     42     54     51     60 
    28   2     45     54     51     60 
    29   3     46     56     48     52 
    30   3     46     56     48     58 
    31   4     46     56     52     58 
    32   4     48     56     52     58 
    33   1     39     57     50     44 
    34   2     39     57     44     58 
    35   1     39     57     50     58 
    36   2     50     57     44     58 
    37   2     53     64     49     60 
    38   1     53     64     62     49 
    39   2     62     64     60     49 
    40   1     53     64     62     60 
    41   5     41     65     43     49 
    42   5     41     65     43    200 
    43   4     41     65     49    200 
    44   6     43     65     49    200 
    45   1     59     66     61     52 
    46   2     59     66     52    299 
    47   2     61     66     52    299 
    48   1     59     66     61    299 
    49   1     79     91     82     88 
    50   1     79     91     82     97 
    51   2     79     91     88     97 
    52   2     82     91     88     97 
    53   3     83     93     85     89 
    54   3     83     93     85     95 
    55   4     83     93     89     95 
    56   4     85     93     89     95 
    57   1     76     94     87     81 
    58   2     76     94     81     95 
    59   1     76     94     87     95 
    60   2     87     94     81     95 
    61   2     90    101     86     97 
    62   1     90    101     99     86 
    63   2     99    101     97     86 
    64   1     90    101     99     97 
    65   5     78    102     80     86 
    66   5     78    102     80    237 
    67   4     78    102     86    237 
    68   6     80    102     86    237 
    69   1     96    103     98     89 
    70   2     96    103     89    230 
    71   2     98    103     89    230 
    72   1     96    103     98    230 
    73   1    116    129    119    126 
    74   1    116    129    119    135 
    75   2    116    129    126    135 
    76   2    119    129    126    135 
    77   3    121    131    123    127 
    78   3    121    131    123    133 
    79   4    121    131    127    133 
    80   4    123    131    127    133 
    81   1    113    132    125    118 
    82   2    113    132    118    133 
    83   1    113    132    125    133 
    84   2    125    132    118    133 
    85   2    128    139    124    135 
    86   1    128    139    137    124 
    87   2    137    139    135    124 
    88   1    128    139    137    135 
    89   5    115    140    117    124 
    90   5    115    140    117    274 
    91   4    115    140    124    274 
    92   6    117    140    124    274 
    93   1    134    141    136    127 
    94   2    134    141    127    300 
    95   2    136    141    127    300 
    96   1    134    141    136    300 
    97   1    154    167    157    164 
    98   1    154    167    157    173 
    99   2    154    167    164    173 
   100   2    157    167    164    173 
   101   3    159    169    161    165 
   102   3    159    169    161    171 
   103   4    159    169    165    171 
   104   4    161    169    165    171 
   105   1    151    170    163    156 
   106   2    151    170    156    171 
   107   1    151    170    163    171 
   108   2    163    170    156    171 
   109   2    166    177    162    173 
   110   1    166    177    175    162 
   111   2    175    177    173    162 
   112   1    166    177    175    173 
   113   5    153    178    155    162 
   114   5    153    178    155     14 
   115   4    153    178    162     14 
   116   6    155    178    162     14 
   117   1    172    179    174    165 
   118   2    172    179    165      6 
   119   2    174    179    165      6 
   120   1    172    179    174      6 
   121   1    192    203    194    200 
   122   1    192    203    194    209 
   123   2    192    203    200    209 
   124   2    194    203    200    209 
   125   3    195    205    197    201 
   126   3    195    205    197    207 
   127   4    195    205    201    207 
   128   4    197    205    201    207 
   129   1    189    206    199    207 
   130   1    189    206    199    299 
   131   2    189    206    207    299 
   132   2    199    206    207    299 
   133   2    202    213    198    209 
   134   1    202    213    211    198 
   135   2    211    213    209    198 
   136   1    202    213    211    209 
   137   5    191    214    193     51 
   138   4    191    214     51    198 
   139   6    193    214     51    198 
   140   5    191    214    193    198 
   141   2    208    215    201     44 
   142   2    210    215    201     44 
   143   1    208    215    210     44 
   144   1    208    215    210    201 
   145   1    228    240    231    237 
   146   1    228    240    231    246 
   147   2    228    240    237    246 
   148   2    231    240    237    246 
   149   3    232    242    234    238 
   150   3    232    242    234    244 
   151   4    232    242    238    244 
   152   4    234    242    238    244 
   153   1    225    243    236    230 
   154   2    225    243    230    244 
   155   1    225    243    236    244 
   156   2    236    243    230    244 
   157   2    239    250    235    246 
   158   1    239    250    248    235 
   159   2    248    250    246    235 
   160   1    239    250    248    246 
   161   5    227    251    229    235 
   162   5    227    251    229     88 
   163   4    227    251    235     88 
   164   6    229    251    235     88 
   165   1    245    252    247    238 
   166   2    245    252    238     81 
   167   2    247    252    238     81 
   168   1    245    252    247     81 
   169   1    265    277    267    274 
   170   1    265    277    267    283 
   171   2    265    277    274    283 
   172   2    267    277    274    283 
   173   3    269    279    271    275 
   174   3    269    279    271    281 
   175   4    269    279    275    281 
   176   4    271    279    275    281 
   177   1    262    280    273    281 
   178   1    262    280    273    300 
   179   2    262    280    281    300 
   180   2    273    280    281    300 
   181   2    276    287    272    283 
   182   1    276    287    285    272 
   183   2    285    287    283    272 
   184   1    276    287    285    283 
   185   5    264    288    266    126 
   186   4    264    288    126    272 
   187   6    266    288    126    272 
   188   5    264    288    266    272 
   189   2    282    289    275    118 
   190   2    284    289    275    118 
   191   1    282    289    284    118 
   192   1    282    289    284    275 

