LAMMPS data file. msi2lmp v3.9.6 / 11 Sep 2014 / CGCMM for Tob11_100_Bulk_cV05_r00

   2112 atoms
   1728 bonds
   2400 angles
   2304 dihedrals
      0 impropers

  10 atom types
   7 bond types
  12 angle types
  11 dihedral types

    -0.146718119    45.853281881 xlo xhi
    -0.456875558    21.698124442 ylo yhi
    -2.809521643    19.677478357 zlo zhi

Masses

   1  28.086000 # sc2
   2  28.086000 # sc3
   3  15.999400 # oc12
   4  15.999400 # oc13
   5  15.999400 # ocx
   6  15.999400 # o*
   7  40.080000 # ca+t
   8   1.007970 # h*
   9  15.999400 # oc14
  10   1.008000 # hoy

Pair Coeffs # lj/cut/coul/long

   1   0.5099999995   4.0535891679 # sc2
   2   0.5099999995   4.0535891679 # sc3
   3   0.1599999980   3.0290556449 # oc12
   4   0.1400000021   2.7796039973 # oc13
   5   0.1599999980   3.0290556449 # ocx
   6   0.1554164124   3.1655200879 # o*
   7   0.2899999992   3.0290556424 # ca+t
   8   0.0000000000   0.0000000000 # h*
   9   0.1199999991   3.0914185538 # oc14
  10   0.0159969724   0.9666649776 # hoy

Bond Coeffs # harmonic

   1   300.0000     1.7100 # sc2-oc12
   2   300.0000     1.6200 # sc2-oc13
   3   300.0000     1.6700 # sc3-oc12
   4   300.0000     1.6200 # sc3-ocx
   5   430.0000     1.6800 # sc3-oc14
   6   540.6336     0.9600 # o*-h*
   7   495.0000     0.9450 # oc14-hoy

Angle Coeffs # harmonic

   1   170.0000   111.5000 # oc12-sc2-oc13
   2   170.0000   100.2000 # oc12-sc2-oc12
   3   170.0000   112.5000 # oc13-sc2-oc13
   4   170.0000   107.0000 # oc12-sc3-ocx
   5   170.0000   107.0000 # oc12-sc3-oc12
   6   170.0000   111.0000 # oc12-sc3-oc14
   7   170.0000   111.0000 # ocx-sc3-oc14
   8   170.0000   139.0000 # sc2-oc12-sc3
   9   170.0000   144.0000 # sc2-oc12-sc2
  10   170.0000   174.5000 # sc3-ocx-sc3
  11    50.0000   104.5000 # h*-o*-h*
  12    50.0000   115.0000 # sc3-oc14-hoy

Dihedral Coeffs # harmonic

  1     0.0000   1   3 # oc13-sc2-oc12-sc3
  2     0.0000   1   3 # oc12-sc2-oc12-sc3
  3     0.0000   1   3 # oc12-sc2-oc12-sc2
  4     0.0000   1   3 # oc13-sc2-oc12-sc2
  5     0.0000   1   3 # ocx-sc3-oc12-sc2
  6     0.0000   1   3 # oc12-sc3-oc12-sc2
  7     0.0000   1   3 # oc14-sc3-oc12-sc2
  8     0.0000   1   3 # oc12-sc3-ocx-sc3
  9     0.0000   1   3 # oc14-sc3-ocx-sc3
 10     0.0000   1   3 # oc12-sc3-oc14-hoy
 11     0.0000   1   3 # ocx-sc3-oc14-hoy

Atoms # full

      1      1   1  1.000000     4.069912720     0.052609600     3.539004087   0   0   0 # sc2
      2      1   1  1.000000     4.069912720     0.052609600    18.947995913   0   0  -1 # sc2
      3      1   2  1.000000     4.918150234     2.206037045     1.600174904   0   0   0 # sc3
      4      1   2  1.000000     4.918150234     2.206037045    -1.600174904   0   0   0 # sc3
      5      1   1  1.000000     4.076108265     4.357694626     3.546874523   0   0   0 # sc2
      6      1   1  1.000000     4.076108265     4.357694626    18.940125477   0   0  -1 # sc2
      7      1   3 -0.560000     4.142570782     0.888957560     2.118275404   0   0   0 # oc12
      8      1   3 -0.560000     4.142570782     0.888957560    -2.118275404   0   0   0 # oc12
      9      1   3 -0.560000     4.074981976     5.896728992     2.984025002   0   0   0 # oc12
     10      1   3 -0.560000     4.074981976     5.896728992    19.502974998   0   0  -1 # oc12
     11      1   4 -0.940000     5.347901154     0.327643037     4.456923485   0   0   0 # oc13
     12      1   4 -0.940000     5.347901154     0.327643037    18.030076515   0   0  -1 # oc13
     13      1   4 -0.940000     2.723209190     0.345485657     4.366975307   0   0   0 # oc13
     14      1   4 -0.940000     2.723209190     0.345485657    18.120024693   0   0  -1 # oc13
     15      1   5 -0.580000     4.835354137     2.207886934     0.000000000   0   0   0 # ocx
     16      1   6 -0.820000     1.320744562     2.208046198     2.111529350   0   0   0 # o*
     17      1   3 -0.560000     4.136938381     3.507678747     2.138513803   0   0   0 # oc12
     18      1   3 -0.560000     4.136938381     3.507678747    -2.138513803   0   0   0 # oc12
     19      1   4 -0.940000     2.745738554     4.057924271     4.387213707   0   0   0 # oc13
     20      1   4 -0.940000     2.745738554     4.057924271    18.099786293   0   0  -1 # oc13
     21      1   7  1.500000     1.293145823     2.217278719     4.622652531   0   0   0 # ca+t
     22      1   7  1.500000     4.023727226     4.045681000     6.599484921   0   0   0 # ca+t
     23      1   8  0.410000     1.599887356     1.426279111     1.586900342   0   0   0 # h*
     24      1   8  0.410000     0.551195049     2.491397026     1.563949433   0   0   0 # h*
     25      2   1  1.000000    15.334712720     0.052609600     3.539004087   0   0   0 # sc2
     26      2   1  1.000000    15.334712720     0.052609600    18.947995913   0   0  -1 # sc2
     27      2   2  1.000000    16.182950234     2.206037045     1.600174904   0   0   0 # sc3
     28      2   2  1.000000    16.182950234     2.206037045    -1.600174904   0   0   0 # sc3
     29      2   1  1.000000    15.340908265     4.357694626     3.546874523   0   0   0 # sc2
     30      2   1  1.000000    15.340908265     4.357694626    18.940125477   0   0  -1 # sc2
     31      2   3 -0.560000    15.407370782     0.888957560     2.118275404   0   0   0 # oc12
     32      2   3 -0.560000    15.407370782     0.888957560    -2.118275404   0   0   0 # oc12
     33      2   3 -0.560000    15.339781976     5.896728992     2.984025002   0   0   0 # oc12
     34      2   3 -0.560000    15.339781976     5.896728992    19.502974998   0   0  -1 # oc12
     35      2   4 -0.940000    16.612701154     0.327643037     4.456923485   0   0   0 # oc13
     36      2   4 -0.940000    16.612701154     0.327643037    18.030076515   0   0  -1 # oc13
     37      2   4 -0.940000    13.988009190     0.345485657     4.366975307   0   0   0 # oc13
     38      2   4 -0.940000    13.988009190     0.345485657    18.120024693   0   0  -1 # oc13
     39      2   5 -0.580000    16.100154137     2.207886934     0.000000000   0   0   0 # ocx
     40      2   6 -0.820000    12.585544562     2.208046198     2.111529350   0   0   0 # o*
     41      2   3 -0.560000    15.401738381     3.507678747     2.138513803   0   0   0 # oc12
     42      2   3 -0.560000    15.401738381     3.507678747    -2.138513803   0   0   0 # oc12
     43      2   4 -0.940000    14.010538554     4.057924271     4.387213707   0   0   0 # oc13
     44      2   4 -0.940000    14.010538554     4.057924271    18.099786293   0   0  -1 # oc13
     45      2   7  1.500000    12.557945823     2.217278719     4.622652531   0   0   0 # ca+t
     46      2   7  1.500000    15.288527226     4.045681000     6.599484921   0   0   0 # ca+t
     47      2   8  0.410000    12.864687356     1.426279111     1.586900342   0   0   0 # h*
     48      2   8  0.410000    11.815995049     2.491397026     1.563949433   0   0   0 # h*
     49      3   1  1.000000    26.599512720     0.052609600     3.539004087   0   0   0 # sc2
     50      3   1  1.000000    26.599512720     0.052609600    18.947995913   0   0  -1 # sc2
     51      3   2  1.000000    27.447750234     2.206037045     1.600174904   0   0   0 # sc3
     52      3   2  1.000000    27.447750234     2.206037045    -1.600174904   0   0   0 # sc3
     53      3   1  1.000000    26.605708265     4.357694626     3.546874523   0   0   0 # sc2
     54      3   1  1.000000    26.605708265     4.357694626    18.940125477   0   0  -1 # sc2
     55      3   3 -0.560000    26.672170782     0.888957560     2.118275404   0   0   0 # oc12
     56      3   3 -0.560000    26.672170782     0.888957560    -2.118275404   0   0   0 # oc12
     57      3   3 -0.560000    26.604581976     5.896728992     2.984025002   0   0   0 # oc12
     58      3   3 -0.560000    26.604581976     5.896728992    19.502974998   0   0  -1 # oc12
     59      3   4 -0.940000    27.877501154     0.327643037     4.456923485   0   0   0 # oc13
     60      3   4 -0.940000    27.877501154     0.327643037    18.030076515   0   0  -1 # oc13
     61      3   4 -0.940000    25.252809190     0.345485657     4.366975307   0   0   0 # oc13
     62      3   4 -0.940000    25.252809190     0.345485657    18.120024693   0   0  -1 # oc13
     63      3   5 -0.580000    27.364954137     2.207886934     0.000000000   0   0   0 # ocx
     64      3   6 -0.820000    23.850344562     2.208046198     2.111529350   0   0   0 # o*
     65      3   3 -0.560000    26.666538381     3.507678747     2.138513803   0   0   0 # oc12
     66      3   3 -0.560000    26.666538381     3.507678747    -2.138513803   0   0   0 # oc12
     67      3   4 -0.940000    25.275338554     4.057924271     4.387213707   0   0   0 # oc13
     68      3   4 -0.940000    25.275338554     4.057924271    18.099786293   0   0  -1 # oc13
     69      3   7  1.500000    23.822745823     2.217278719     4.622652531   0   0   0 # ca+t
     70      3   7  1.500000    26.553327226     4.045681000     6.599484921   0   0   0 # ca+t
     71      3   8  0.410000    24.129487356     1.426279111     1.586900342   0   0   0 # h*
     72      3   8  0.410000    23.080795049     2.491397026     1.563949433   0   0   0 # h*
     73      4   1  1.000000    37.864312720     0.052609600     3.539004087   0   0   0 # sc2
     74      4   1  1.000000    37.864312720     0.052609600    18.947995913   0   0  -1 # sc2
     75      4   2  1.000000    38.712550234     2.206037045     1.600174904   0   0   0 # sc3
     76      4   2  1.000000    38.712550234     2.206037045    -1.600174904   0   0   0 # sc3
     77      4   1  1.000000    37.870508265     4.357694626     3.546874523   0   0   0 # sc2
     78      4   1  1.000000    37.870508265     4.357694626    18.940125477   0   0  -1 # sc2
     79      4   3 -0.560000    37.936970782     0.888957560     2.118275404   0   0   0 # oc12
     80      4   3 -0.560000    37.936970782     0.888957560    -2.118275404   0   0   0 # oc12
     81      4   3 -0.560000    37.869381976     5.896728992     2.984025002   0   0   0 # oc12
     82      4   3 -0.560000    37.869381976     5.896728992    19.502974998   0   0  -1 # oc12
     83      4   4 -0.940000    39.142301154     0.327643037     4.456923485   0   0   0 # oc13
     84      4   4 -0.940000    39.142301154     0.327643037    18.030076515   0   0  -1 # oc13
     85      4   4 -0.940000    36.517609190     0.345485657     4.366975307   0   0   0 # oc13
     86      4   4 -0.940000    36.517609190     0.345485657    18.120024693   0   0  -1 # oc13
     87      4   5 -0.580000    38.629754137     2.207886934     0.000000000   0   0   0 # ocx
     88      4   6 -0.820000    35.115144562     2.208046198     2.111529350   0   0   0 # o*
     89      4   3 -0.560000    37.931338381     3.507678747     2.138513803   0   0   0 # oc12
     90      4   3 -0.560000    37.931338381     3.507678747    -2.138513803   0   0   0 # oc12
     91      4   4 -0.940000    36.540138554     4.057924271     4.387213707   0   0   0 # oc13
     92      4   4 -0.940000    36.540138554     4.057924271    18.099786293   0   0  -1 # oc13
     93      4   7  1.500000    35.087545823     2.217278719     4.622652531   0   0   0 # ca+t
     94      4   7  1.500000    37.818127226     4.045681000     6.599484921   0   0   0 # ca+t
     95      4   8  0.410000    35.394287356     1.426279111     1.586900342   0   0   0 # h*
     96      4   8  0.410000    34.345595049     2.491397026     1.563949433   0   0   0 # h*
     97      5   1  1.000000     4.069912720     7.437609600     3.539004087   0   0   0 # sc2
     98      5   1  1.000000     4.069912720     7.437609600    18.947995913   0   0  -1 # sc2
     99      5   2  1.000000     4.918150234     9.591037045     1.600174904   0   0   0 # sc3
    100      5   2  1.000000     4.918150234     9.591037045    -1.600174904   0   0   0 # sc3
    101      5   1  1.000000     4.076108265    11.742694626     3.546874523   0   0   0 # sc2
    102      5   1  1.000000     4.076108265    11.742694626    18.940125477   0   0  -1 # sc2
    103      5   3 -0.560000     4.142570782     8.273957560     2.118275404   0   0   0 # oc12
    104      5   3 -0.560000     4.142570782     8.273957560    -2.118275404   0   0   0 # oc12
    105      5   3 -0.560000     4.074981976    13.281728992     2.984025002   0   0   0 # oc12
    106      5   3 -0.560000     4.074981976    13.281728992    19.502974998   0   0  -1 # oc12
    107      5   4 -0.940000     5.347901154     7.712643037     4.456923485   0   0   0 # oc13
    108      5   4 -0.940000     5.347901154     7.712643037    18.030076515   0   0  -1 # oc13
    109      5   4 -0.940000     2.723209190     7.730485657     4.366975307   0   0   0 # oc13
    110      5   4 -0.940000     2.723209190     7.730485657    18.120024693   0   0  -1 # oc13
    111      5   5 -0.580000     4.835354137     9.592886934     0.000000000   0   0   0 # ocx
    112      5   6 -0.820000     1.320744562     9.593046198     2.111529350   0   0   0 # o*
    113      5   3 -0.560000     4.136938381    10.892678747     2.138513803   0   0   0 # oc12
    114      5   3 -0.560000     4.136938381    10.892678747    -2.138513803   0   0   0 # oc12
    115      5   4 -0.940000     2.745738554    11.442924271     4.387213707   0   0   0 # oc13
    116      5   4 -0.940000     2.745738554    11.442924271    18.099786293   0   0  -1 # oc13
    117      5   7  1.500000     1.293145823     9.602278719     4.622652531   0   0   0 # ca+t
    118      5   7  1.500000     4.023727226    11.430681000     6.599484921   0   0   0 # ca+t
    119      5   8  0.410000     1.599887356     8.811279111     1.586900342   0   0   0 # h*
    120      5   8  0.410000     0.551195049     9.876397026     1.563949433   0   0   0 # h*
    121      6   1  1.000000    15.334712720     7.437609600     3.539004087   0   0   0 # sc2
    122      6   1  1.000000    15.334712720     7.437609600    18.947995913   0   0  -1 # sc2
    123      6   2  1.000000    16.182950234     9.591037045     1.600174904   0   0   0 # sc3
    124      6   2  1.000000    16.182950234     9.591037045    -1.600174904   0   0   0 # sc3
    125      6   1  1.000000    15.340908265    11.742694626     3.546874523   0   0   0 # sc2
    126      6   1  1.000000    15.340908265    11.742694626    18.940125477   0   0  -1 # sc2
    127      6   3 -0.560000    15.407370782     8.273957560     2.118275404   0   0   0 # oc12
    128      6   3 -0.560000    15.407370782     8.273957560    -2.118275404   0   0   0 # oc12
    129      6   3 -0.560000    15.339781976    13.281728992     2.984025002   0   0   0 # oc12
    130      6   3 -0.560000    15.339781976    13.281728992    19.502974998   0   0  -1 # oc12
    131      6   4 -0.940000    16.612701154     7.712643037     4.456923485   0   0   0 # oc13
    132      6   4 -0.940000    16.612701154     7.712643037    18.030076515   0   0  -1 # oc13
    133      6   4 -0.940000    13.988009190     7.730485657     4.366975307   0   0   0 # oc13
    134      6   4 -0.940000    13.988009190     7.730485657    18.120024693   0   0  -1 # oc13
    135      6   5 -0.580000    16.100154137     9.592886934     0.000000000   0   0   0 # ocx
    136      6   6 -0.820000    12.585544562     9.593046198     2.111529350   0   0   0 # o*
    137      6   3 -0.560000    15.401738381    10.892678747     2.138513803   0   0   0 # oc12
    138      6   3 -0.560000    15.401738381    10.892678747    -2.138513803   0   0   0 # oc12
    139      6   4 -0.940000    14.010538554    11.442924271     4.387213707   0   0   0 # oc13
    140      6   4 -0.940000    14.010538554    11.442924271    18.099786293   0   0  -1 # oc13
    141      6   7  1.500000    12.557945823     9.602278719     4.622652531   0   0   0 # ca+t
    142      6   7  1.500000    15.288527226    11.430681000     6.599484921   0   0   0 # ca+t
    143      6   8  0.410000    12.864687356     8.811279111     1.586900342   0   0   0 # h*
    144      6   8  0.410000    11.815995049     9.876397026     1.563949433   0   0   0 # h*
    145      7   1  1.000000    26.599512720     7.437609600     3.539004087   0   0   0 # sc2
    146      7   1  1.000000    26.599512720     7.437609600    18.947995913   0   0  -1 # sc2
    147      7   2  1.000000    27.447750234     9.591037045     1.600174904   0   0   0 # sc3
    148      7   2  1.000000    27.447750234     9.591037045    -1.600174904   0   0   0 # sc3
    149      7   1  1.000000    26.605708265    11.742694626     3.546874523   0   0   0 # sc2
    150      7   1  1.000000    26.605708265    11.742694626    18.940125477   0   0  -1 # sc2
    151      7   3 -0.560000    26.672170782     8.273957560     2.118275404   0   0   0 # oc12
    152      7   3 -0.560000    26.672170782     8.273957560    -2.118275404   0   0   0 # oc12
    153      7   3 -0.560000    26.604581976    13.281728992     2.984025002   0   0   0 # oc12
    154      7   3 -0.560000    26.604581976    13.281728992    19.502974998   0   0  -1 # oc12
    155      7   4 -0.940000    27.877501154     7.712643037     4.456923485   0   0   0 # oc13
    156      7   4 -0.940000    27.877501154     7.712643037    18.030076515   0   0  -1 # oc13
    157      7   4 -0.940000    25.252809190     7.730485657     4.366975307   0   0   0 # oc13
    158      7   4 -0.940000    25.252809190     7.730485657    18.120024693   0   0  -1 # oc13
    159      7   5 -0.580000    27.364954137     9.592886934     0.000000000   0   0   0 # ocx
    160      7   6 -0.820000    23.850344562     9.593046198     2.111529350   0   0   0 # o*
    161      7   3 -0.560000    26.666538381    10.892678747     2.138513803   0   0   0 # oc12
    162      7   3 -0.560000    26.666538381    10.892678747    -2.138513803   0   0   0 # oc12
    163      7   4 -0.940000    25.275338554    11.442924271     4.387213707   0   0   0 # oc13
    164      7   4 -0.940000    25.275338554    11.442924271    18.099786293   0   0  -1 # oc13
    165      7   7  1.500000    23.822745823     9.602278719     4.622652531   0   0   0 # ca+t
    166      7   7  1.500000    26.553327226    11.430681000     6.599484921   0   0   0 # ca+t
    167      7   8  0.410000    24.129487356     8.811279111     1.586900342   0   0   0 # h*
    168      7   8  0.410000    23.080795049     9.876397026     1.563949433   0   0   0 # h*
    169      8   1  1.000000    37.864312720     7.437609600     3.539004087   0   0   0 # sc2
    170      8   1  1.000000    37.864312720     7.437609600    18.947995913   0   0  -1 # sc2
    171      8   2  1.000000    38.712550234     9.591037045     1.600174904   0   0   0 # sc3
    172      8   2  1.000000    38.712550234     9.591037045    -1.600174904   0   0   0 # sc3
    173      8   1  1.000000    37.870508265    11.742694626     3.546874523   0   0   0 # sc2
    174      8   1  1.000000    37.870508265    11.742694626    18.940125477   0   0  -1 # sc2
    175      8   3 -0.560000    37.936970782     8.273957560     2.118275404   0   0   0 # oc12
    176      8   3 -0.560000    37.936970782     8.273957560    -2.118275404   0   0   0 # oc12
    177      8   3 -0.560000    37.869381976    13.281728992     2.984025002   0   0   0 # oc12
    178      8   3 -0.560000    37.869381976    13.281728992    19.502974998   0   0  -1 # oc12
    179      8   4 -0.940000    39.142301154     7.712643037     4.456923485   0   0   0 # oc13
    180      8   4 -0.940000    39.142301154     7.712643037    18.030076515   0   0  -1 # oc13
    181      8   4 -0.940000    36.517609190     7.730485657     4.366975307   0   0   0 # oc13
    182      8   4 -0.940000    36.517609190     7.730485657    18.120024693   0   0  -1 # oc13
    183      8   5 -0.580000    38.629754137     9.592886934     0.000000000   0   0   0 # ocx
    184      8   6 -0.820000    35.115144562     9.593046198     2.111529350   0   0   0 # o*
    185      8   3 -0.560000    37.931338381    10.892678747     2.138513803   0   0   0 # oc12
    186      8   3 -0.560000    37.931338381    10.892678747    -2.138513803   0   0   0 # oc12
    187      8   4 -0.940000    36.540138554    11.442924271     4.387213707   0   0   0 # oc13
    188      8   4 -0.940000    36.540138554    11.442924271    18.099786293   0   0  -1 # oc13
    189      8   7  1.500000    35.087545823     9.602278719     4.622652531   0   0   0 # ca+t
    190      8   7  1.500000    37.818127226    11.430681000     6.599484921   0   0   0 # ca+t
    191      8   8  0.410000    35.394287356     8.811279111     1.586900342   0   0   0 # h*
    192      8   8  0.410000    34.345595049     9.876397026     1.563949433   0   0   0 # h*
    193      9   1  1.000000     4.069912720    14.822609600     3.539004087   0   0   0 # sc2
    194      9   1  1.000000     4.069912720    14.822609600    18.947995913   0   0  -1 # sc2
    195      9   2  1.000000     4.918150234    16.976037045     1.600174904   0   0   0 # sc3
    196      9   2  1.000000     4.918150234    16.976037045    -1.600174904   0   0   0 # sc3
    197      9   1  1.000000     4.076108265    19.127694626     3.546874523   0   0   0 # sc2
    198      9   1  1.000000     4.076108265    19.127694626    18.940125477   0   0  -1 # sc2
    199      9   3 -0.560000     4.142570782    15.658957560     2.118275404   0   0   0 # oc12
    200      9   3 -0.560000     4.142570782    15.658957560    -2.118275404   0   0   0 # oc12
    201      9   3 -0.560000     4.074981976    20.666728992     2.984025002   0   0   0 # oc12
    202      9   3 -0.560000     4.074981976    20.666728992    19.502974998   0   0  -1 # oc12
    203      9   4 -0.940000     5.347901154    15.097643037     4.456923485   0   0   0 # oc13
    204      9   4 -0.940000     5.347901154    15.097643037    18.030076515   0   0  -1 # oc13
    205      9   4 -0.940000     2.723209190    15.115485657     4.366975307   0   0   0 # oc13
    206      9   4 -0.940000     2.723209190    15.115485657    18.120024693   0   0  -1 # oc13
    207      9   5 -0.580000     4.835354137    16.977886934     0.000000000   0   0   0 # ocx
    208      9   6 -0.820000     1.320744562    16.978046198     2.111529350   0   0   0 # o*
    209      9   3 -0.560000     4.136938381    18.277678747     2.138513803   0   0   0 # oc12
    210      9   3 -0.560000     4.136938381    18.277678747    -2.138513803   0   0   0 # oc12
    211      9   4 -0.940000     2.745738554    18.827924271     4.387213707   0   0   0 # oc13
    212      9   4 -0.940000     2.745738554    18.827924271    18.099786293   0   0  -1 # oc13
    213      9   7  1.500000     1.293145823    16.987278719     4.622652531   0   0   0 # ca+t
    214      9   7  1.500000     4.023727226    18.815681000     6.599484921   0   0   0 # ca+t
    215      9   8  0.410000     1.599887356    16.196279111     1.586900342   0   0   0 # h*
    216      9   8  0.410000     0.551195049    17.261397026     1.563949433   0   0   0 # h*
    217     10   1  1.000000    15.334712720    14.822609600     3.539004087   0   0   0 # sc2
    218     10   1  1.000000    15.334712720    14.822609600    18.947995913   0   0  -1 # sc2
    219     10   2  1.000000    16.182950234    16.976037045     1.600174904   0   0   0 # sc3
    220     10   2  1.000000    16.182950234    16.976037045    -1.600174904   0   0   0 # sc3
    221     10   1  1.000000    15.340908265    19.127694626     3.546874523   0   0   0 # sc2
    222     10   1  1.000000    15.340908265    19.127694626    18.940125477   0   0  -1 # sc2
    223     10   3 -0.560000    15.407370782    15.658957560     2.118275404   0   0   0 # oc12
    224     10   3 -0.560000    15.407370782    15.658957560    -2.118275404   0   0   0 # oc12
    225     10   3 -0.560000    15.339781976    20.666728992     2.984025002   0   0   0 # oc12
    226     10   3 -0.560000    15.339781976    20.666728992    19.502974998   0   0  -1 # oc12
    227     10   4 -0.940000    16.612701154    15.097643037     4.456923485   0   0   0 # oc13
    228     10   4 -0.940000    16.612701154    15.097643037    18.030076515   0   0  -1 # oc13
    229     10   4 -0.940000    13.988009190    15.115485657     4.366975307   0   0   0 # oc13
    230     10   4 -0.940000    13.988009190    15.115485657    18.120024693   0   0  -1 # oc13
    231     10   5 -0.580000    16.100154137    16.977886934     0.000000000   0   0   0 # ocx
    232     10   6 -0.820000    12.585544562    16.978046198     2.111529350   0   0   0 # o*
    233     10   3 -0.560000    15.401738381    18.277678747     2.138513803   0   0   0 # oc12
    234     10   3 -0.560000    15.401738381    18.277678747    -2.138513803   0   0   0 # oc12
    235     10   4 -0.940000    14.010538554    18.827924271     4.387213707   0   0   0 # oc13
    236     10   4 -0.940000    14.010538554    18.827924271    18.099786293   0   0  -1 # oc13
    237     10   7  1.500000    12.557945823    16.987278719     4.622652531   0   0   0 # ca+t
    238     10   7  1.500000    15.288527226    18.815681000     6.599484921   0   0   0 # ca+t
    239     10   8  0.410000    12.864687356    16.196279111     1.586900342   0   0   0 # h*
    240     10   8  0.410000    11.815995049    17.261397026     1.563949433   0   0   0 # h*
    241     11   1  1.000000    26.599512720    14.822609600     3.539004087   0   0   0 # sc2
    242     11   1  1.000000    26.599512720    14.822609600    18.947995913   0   0  -1 # sc2
    243     11   2  1.000000    27.447750234    16.976037045     1.600174904   0   0   0 # sc3
    244     11   2  1.000000    27.447750234    16.976037045    -1.600174904   0   0   0 # sc3
    245     11   1  1.000000    26.605708265    19.127694626     3.546874523   0   0   0 # sc2
    246     11   1  1.000000    26.605708265    19.127694626    18.940125477   0   0  -1 # sc2
    247     11   3 -0.560000    26.672170782    15.658957560     2.118275404   0   0   0 # oc12
    248     11   3 -0.560000    26.672170782    15.658957560    -2.118275404   0   0   0 # oc12
    249     11   3 -0.560000    26.604581976    20.666728992     2.984025002   0   0   0 # oc12
    250     11   3 -0.560000    26.604581976    20.666728992    19.502974998   0   0  -1 # oc12
    251     11   4 -0.940000    27.877501154    15.097643037     4.456923485   0   0   0 # oc13
    252     11   4 -0.940000    27.877501154    15.097643037    18.030076515   0   0  -1 # oc13
    253     11   4 -0.940000    25.252809190    15.115485657     4.366975307   0   0   0 # oc13
    254     11   4 -0.940000    25.252809190    15.115485657    18.120024693   0   0  -1 # oc13
    255     11   5 -0.580000    27.364954137    16.977886934     0.000000000   0   0   0 # ocx
    256     11   6 -0.820000    23.850344562    16.978046198     2.111529350   0   0   0 # o*
    257     11   3 -0.560000    26.666538381    18.277678747     2.138513803   0   0   0 # oc12
    258     11   3 -0.560000    26.666538381    18.277678747    -2.138513803   0   0   0 # oc12
    259     11   4 -0.940000    25.275338554    18.827924271     4.387213707   0   0   0 # oc13
    260     11   4 -0.940000    25.275338554    18.827924271    18.099786293   0   0  -1 # oc13
    261     11   7  1.500000    23.822745823    16.987278719     4.622652531   0   0   0 # ca+t
    262     11   7  1.500000    26.553327226    18.815681000     6.599484921   0   0   0 # ca+t
    263     11   8  0.410000    24.129487356    16.196279111     1.586900342   0   0   0 # h*
    264     11   8  0.410000    23.080795049    17.261397026     1.563949433   0   0   0 # h*
    265     12   1  1.000000    37.864312720    14.822609600     3.539004087   0   0   0 # sc2
    266     12   1  1.000000    37.864312720    14.822609600    18.947995913   0   0  -1 # sc2
    267     12   2  1.000000    38.712550234    16.976037045     1.600174904   0   0   0 # sc3
    268     12   2  1.000000    38.712550234    16.976037045    -1.600174904   0   0   0 # sc3
    269     12   1  1.000000    37.870508265    19.127694626     3.546874523   0   0   0 # sc2
    270     12   1  1.000000    37.870508265    19.127694626    18.940125477   0   0  -1 # sc2
    271     12   3 -0.560000    37.936970782    15.658957560     2.118275404   0   0   0 # oc12
    272     12   3 -0.560000    37.936970782    15.658957560    -2.118275404   0   0   0 # oc12
    273     12   3 -0.560000    37.869381976    20.666728992     2.984025002   0   0   0 # oc12
    274     12   3 -0.560000    37.869381976    20.666728992    19.502974998   0   0  -1 # oc12
    275     12   4 -0.940000    39.142301154    15.097643037     4.456923485   0   0   0 # oc13
    276     12   4 -0.940000    39.142301154    15.097643037    18.030076515   0   0  -1 # oc13
    277     12   4 -0.940000    36.517609190    15.115485657     4.366975307   0   0   0 # oc13
    278     12   4 -0.940000    36.517609190    15.115485657    18.120024693   0   0  -1 # oc13
    279     12   5 -0.580000    38.629754137    16.977886934     0.000000000   0   0   0 # ocx
    280     12   6 -0.820000    35.115144562    16.978046198     2.111529350   0   0   0 # o*
    281     12   3 -0.560000    37.931338381    18.277678747     2.138513803   0   0   0 # oc12
    282     12   3 -0.560000    37.931338381    18.277678747    -2.138513803   0   0   0 # oc12
    283     12   4 -0.940000    36.540138554    18.827924271     4.387213707   0   0   0 # oc13
    284     12   4 -0.940000    36.540138554    18.827924271    18.099786293   0   0  -1 # oc13
    285     12   7  1.500000    35.087545823    16.987278719     4.622652531   0   0   0 # ca+t
    286     12   7  1.500000    37.818127226    18.815681000     6.599484921   0   0   0 # ca+t
    287     12   8  0.410000    35.394287356    16.196279111     1.586900342   0   0   0 # h*
    288     12   8  0.410000    34.345595049    17.261397026     1.563949433   0   0   0 # h*
    289     13   6 -0.820000     2.205029297     0.040508650     0.000000000   0   0   1 # o*
    290     13   6 -0.820000     4.750868607     5.889313221     0.000000000   0   0   1 # o*
    291     13   8  0.410000     2.844250461     0.062447581    -0.749387206   0   0   1 # h*
    292     13   8  0.410000     2.868221197     0.057370429     0.728448105   0   0   1 # h*
    293     13   8  0.410000     4.306146707     5.502648286    -0.786677261   0   0   1 # h*
    294     13   8  0.410000     4.220127139     5.470469727     0.712235902   0   0   1 # h*
    295     14   6 -0.820000    13.469829297     0.040508650     0.000000000   0   0   1 # o*
    296     14   6 -0.820000    16.015668607     5.889313221     0.000000000   0   0   1 # o*
    297     14   8  0.410000    14.109050461     0.062447581    -0.749387206   0   0   1 # h*
    298     14   8  0.410000    14.133021197     0.057370429     0.728448105   0   0   1 # h*
    299     14   8  0.410000    15.570946707     5.502648286    -0.786677261   0   0   1 # h*
    300     14   8  0.410000    15.484927139     5.470469727     0.712235902   0   0   1 # h*
    301     15   6 -0.820000    24.734629297     0.040508650     0.000000000   0   0   1 # o*
    302     15   6 -0.820000    27.280468607     5.889313221     0.000000000   0   0   1 # o*
    303     15   8  0.410000    25.373850461     0.062447581    -0.749387206   0   0   1 # h*
    304     15   8  0.410000    25.397821197     0.057370429     0.728448105   0   0   1 # h*
    305     15   8  0.410000    26.835746707     5.502648286    -0.786677261   0   0   1 # h*
    306     15   8  0.410000    26.749727139     5.470469727     0.712235902   0   0   1 # h*
    307     16   6 -0.820000    35.999429297     0.040508650     0.000000000   0   0   1 # o*
    308     16   6 -0.820000    38.545268607     5.889313221     0.000000000   0   0   1 # o*
    309     16   8  0.410000    36.638650461     0.062447581    -0.749387206   0   0   1 # h*
    310     16   8  0.410000    36.662621197     0.057370429     0.728448105   0   0   1 # h*
    311     16   8  0.410000    38.100546707     5.502648286    -0.786677261   0   0   1 # h*
    312     16   8  0.410000    38.014527139     5.470469727     0.712235902   0   0   1 # h*
    313     17   6 -0.820000     2.205029297     7.425508650     0.000000000   0   0   1 # o*
    314     17   6 -0.820000     4.750868607    13.274313221     0.000000000   0   0   1 # o*
    315     17   8  0.410000     2.844250461     7.447447581    -0.749387206   0   0   1 # h*
    316     17   8  0.410000     2.868221197     7.442370429     0.728448105   0   0   1 # h*
    317     17   8  0.410000     4.306146707    12.887648286    -0.786677261   0   0   1 # h*
    318     17   8  0.410000     4.220127139    12.855469727     0.712235902   0   0   1 # h*
    319     18   6 -0.820000    13.469829297     7.425508650     0.000000000   0   0   1 # o*
    320     18   6 -0.820000    16.015668607    13.274313221     0.000000000   0   0   1 # o*
    321     18   8  0.410000    14.109050461     7.447447581    -0.749387206   0   0   1 # h*
    322     18   8  0.410000    14.133021197     7.442370429     0.728448105   0   0   1 # h*
    323     18   8  0.410000    15.570946707    12.887648286    -0.786677261   0   0   1 # h*
    324     18   8  0.410000    15.484927139    12.855469727     0.712235902   0   0   1 # h*
    325     19   6 -0.820000    24.734629297     7.425508650     0.000000000   0   0   1 # o*
    326     19   6 -0.820000    27.280468607    13.274313221     0.000000000   0   0   1 # o*
    327     19   8  0.410000    25.373850461     7.447447581    -0.749387206   0   0   1 # h*
    328     19   8  0.410000    25.397821197     7.442370429     0.728448105   0   0   1 # h*
    329     19   8  0.410000    26.835746707    12.887648286    -0.786677261   0   0   1 # h*
    330     19   8  0.410000    26.749727139    12.855469727     0.712235902   0   0   1 # h*
    331     20   6 -0.820000    35.999429297     7.425508650     0.000000000   0   0   1 # o*
    332     20   6 -0.820000    38.545268607    13.274313221     0.000000000   0   0   1 # o*
    333     20   8  0.410000    36.638650461     7.447447581    -0.749387206   0   0   1 # h*
    334     20   8  0.410000    36.662621197     7.442370429     0.728448105   0   0   1 # h*
    335     20   8  0.410000    38.100546707    12.887648286    -0.786677261   0   0   1 # h*
    336     20   8  0.410000    38.014527139    12.855469727     0.712235902   0   0   1 # h*
    337     21   6 -0.820000     2.205029297    14.810508650     0.000000000   0   0   1 # o*
    338     21   6 -0.820000     4.750868607    20.659313221     0.000000000   0   0   1 # o*
    339     21   8  0.410000     2.844250461    14.832447581    -0.749387206   0   0   1 # h*
    340     21   8  0.410000     2.868221197    14.827370429     0.728448105   0   0   1 # h*
    341     21   8  0.410000     4.306146707    20.272648286    -0.786677261   0   0   1 # h*
    342     21   8  0.410000     4.220127139    20.240469727     0.712235902   0   0   1 # h*
    343     22   6 -0.820000    13.469829297    14.810508650     0.000000000   0   0   1 # o*
    344     22   6 -0.820000    16.015668607    20.659313221     0.000000000   0   0   1 # o*
    345     22   8  0.410000    14.109050461    14.832447581    -0.749387206   0   0   1 # h*
    346     22   8  0.410000    14.133021197    14.827370429     0.728448105   0   0   1 # h*
    347     22   8  0.410000    15.570946707    20.272648286    -0.786677261   0   0   1 # h*
    348     22   8  0.410000    15.484927139    20.240469727     0.712235902   0   0   1 # h*
    349     23   6 -0.820000    24.734629297    14.810508650     0.000000000   0   0   1 # o*
    350     23   6 -0.820000    27.280468607    20.659313221     0.000000000   0   0   1 # o*
    351     23   8  0.410000    25.373850461    14.832447581    -0.749387206   0   0   1 # h*
    352     23   8  0.410000    25.397821197    14.827370429     0.728448105   0   0   1 # h*
    353     23   8  0.410000    26.835746707    20.272648286    -0.786677261   0   0   1 # h*
    354     23   8  0.410000    26.749727139    20.240469727     0.712235902   0   0   1 # h*
    355     24   6 -0.820000    35.999429297    14.810508650     0.000000000   0   0   1 # o*
    356     24   6 -0.820000    38.545268607    20.659313221     0.000000000   0   0   1 # o*
    357     24   8  0.410000    36.638650461    14.832447581    -0.749387206   0   0   1 # h*
    358     24   8  0.410000    36.662621197    14.827370429     0.728448105   0   0   1 # h*
    359     24   8  0.410000    38.100546707    20.272648286    -0.786677261   0   0   1 # h*
    360     24   8  0.410000    38.014527139    20.240469727     0.712235902   0   0   1 # h*
    361     25   1  1.000000     1.253719139     1.898987055    14.782504082   0   0   0 # sc2
    362     25   1  1.000000     1.253719139     1.898987055     7.704495907   0   0   0 # sc2
    363     25   2  1.000000     2.101956654     4.052414417    12.843674660   0   0   0 # sc3
    364     25   2  1.000000     2.101956654     4.052414417     9.643324852   0   0   0 # sc3
    365     25   1  1.000000     1.259914684     6.204071999    14.790374756   0   0   0 # sc2
    366     25   1  1.000000     1.259914684     6.204071999     7.696625710   0   0   0 # sc2
    367     25   3 -0.560000     1.326376963     2.735334873    13.361775398   0   0   0 # oc12
    368     25   3 -0.560000     1.326376963     2.735334873     9.125225067   0   0   0 # oc12
    369     25   3 -0.560000     1.258788276     0.358106524    14.227524757   0   0   0 # oc12
    370     25   3 -0.560000     1.258788276     0.358106524     8.259474754   0   0   0 # oc12
    371     25   4 -0.940000     2.531707573     2.174020529    15.700423241   0   0   0 # oc13
    372     25   4 -0.940000     2.531707573     2.174020529     6.786576748   0   0   0 # oc13
    373     25   4 -0.940000    -0.092984554     2.191863060    15.610475540   0   0   0 # oc13
    374     25   4 -0.940000    -0.092984554     2.191863060     6.876524925   0   0   0 # oc13
    375     25   5 -0.580000     2.019160557     4.054264545    11.243499756   0   0   0 # ocx
    376     25   3 -0.560000     1.320744562     5.354056358    13.382014275   0   0   0 # oc12
    377     25   3 -0.560000     1.320744562     5.354056358     9.104986191   0   0   0 # oc12
    378     25   4 -0.940000    -0.070455161     5.904301643    15.630713463   0   0   0 # oc13
    379     25   4 -0.940000    -0.070455161     5.904301643     6.856286526   0   0   0 # oc13
    380     25   7  1.500000     1.207533646     5.892058849     4.644015312   0   0   0 # ca+t
    381     25   6 -0.820000     1.934675026     0.350690752    11.243499756   0   0   0 # o*
    382     25   8  0.410000     1.409205711     0.450983415    12.067331580   0   0   0 # h*
    383     25   8  0.410000     1.326012205     0.757812096    10.586948304   0   0   0 # h*
    384     26   1  1.000000    12.518519139     1.898987055    14.782504082   0   0   0 # sc2
    385     26   1  1.000000    12.518519139     1.898987055     7.704495907   0   0   0 # sc2
    386     26   2  1.000000    13.366756654     4.052414417    12.843674660   0   0   0 # sc3
    387     26   2  1.000000    13.366756654     4.052414417     9.643324852   0   0   0 # sc3
    388     26   1  1.000000    12.524714684     6.204071999    14.790374756   0   0   0 # sc2
    389     26   1  1.000000    12.524714684     6.204071999     7.696625710   0   0   0 # sc2
    390     26   3 -0.560000    12.591176963     2.735334873    13.361775398   0   0   0 # oc12
    391     26   3 -0.560000    12.591176963     2.735334873     9.125225067   0   0   0 # oc12
    392     26   3 -0.560000    12.523588276     0.358106524    14.227524757   0   0   0 # oc12
    393     26   3 -0.560000    12.523588276     0.358106524     8.259474754   0   0   0 # oc12
    394     26   4 -0.940000    13.796507573     2.174020529    15.700423241   0   0   0 # oc13
    395     26   4 -0.940000    13.796507573     2.174020529     6.786576748   0   0   0 # oc13
    396     26   4 -0.940000    11.171815446     2.191863060    15.610475540   0   0   0 # oc13
    397     26   4 -0.940000    11.171815446     2.191863060     6.876524925   0   0   0 # oc13
    398     26   5 -0.580000    13.283960557     4.054264545    11.243499756   0   0   0 # ocx
    399     26   3 -0.560000    12.585544562     5.354056358    13.382014275   0   0   0 # oc12
    400     26   3 -0.560000    12.585544562     5.354056358     9.104986191   0   0   0 # oc12
    401     26   4 -0.940000    11.194344839     5.904301643    15.630713463   0   0   0 # oc13
    402     26   4 -0.940000    11.194344839     5.904301643     6.856286526   0   0   0 # oc13
    403     26   7  1.500000    12.472333646     5.892058849     4.644015312   0   0   0 # ca+t
    404     26   6 -0.820000    13.199475026     0.350690752    11.243499756   0   0   0 # o*
    405     26   8  0.410000    12.674005711     0.450983415    12.067331580   0   0   0 # h*
    406     26   8  0.410000    12.590812205     0.757812096    10.586948304   0   0   0 # h*
    407     27   1  1.000000    23.783319139     1.898987055    14.782504082   0   0   0 # sc2
    408     27   1  1.000000    23.783319139     1.898987055     7.704495907   0   0   0 # sc2
    409     27   2  1.000000    24.631556654     4.052414417    12.843674660   0   0   0 # sc3
    410     27   2  1.000000    24.631556654     4.052414417     9.643324852   0   0   0 # sc3
    411     27   1  1.000000    23.789514684     6.204071999    14.790374756   0   0   0 # sc2
    412     27   1  1.000000    23.789514684     6.204071999     7.696625710   0   0   0 # sc2
    413     27   3 -0.560000    23.855976963     2.735334873    13.361775398   0   0   0 # oc12
    414     27   3 -0.560000    23.855976963     2.735334873     9.125225067   0   0   0 # oc12
    415     27   3 -0.560000    23.788388276     0.358106524    14.227524757   0   0   0 # oc12
    416     27   3 -0.560000    23.788388276     0.358106524     8.259474754   0   0   0 # oc12
    417     27   4 -0.940000    25.061307573     2.174020529    15.700423241   0   0   0 # oc13
    418     27   4 -0.940000    25.061307573     2.174020529     6.786576748   0   0   0 # oc13
    419     27   4 -0.940000    22.436615446     2.191863060    15.610475540   0   0   0 # oc13
    420     27   4 -0.940000    22.436615446     2.191863060     6.876524925   0   0   0 # oc13
    421     27   5 -0.580000    24.548760557     4.054264545    11.243499756   0   0   0 # ocx
    422     27   3 -0.560000    23.850344562     5.354056358    13.382014275   0   0   0 # oc12
    423     27   3 -0.560000    23.850344562     5.354056358     9.104986191   0   0   0 # oc12
    424     27   4 -0.940000    22.459144839     5.904301643    15.630713463   0   0   0 # oc13
    425     27   4 -0.940000    22.459144839     5.904301643     6.856286526   0   0   0 # oc13
    426     27   7  1.500000    23.737133646     5.892058849     4.644015312   0   0   0 # ca+t
    427     27   6 -0.820000    24.464275026     0.350690752    11.243499756   0   0   0 # o*
    428     27   8  0.410000    23.938805711     0.450983415    12.067331580   0   0   0 # h*
    429     27   8  0.410000    23.855612205     0.757812096    10.586948304   0   0   0 # h*
    430     28   1  1.000000    35.048119139     1.898987055    14.782504082   0   0   0 # sc2
    431     28   1  1.000000    35.048119139     1.898987055     7.704495907   0   0   0 # sc2
    432     28   2  1.000000    35.896356654     4.052414417    12.843674660   0   0   0 # sc3
    433     28   2  1.000000    35.896356654     4.052414417     9.643324852   0   0   0 # sc3
    434     28   1  1.000000    35.054314684     6.204071999    14.790374756   0   0   0 # sc2
    435     28   1  1.000000    35.054314684     6.204071999     7.696625710   0   0   0 # sc2
    436     28   3 -0.560000    35.120776963     2.735334873    13.361775398   0   0   0 # oc12
    437     28   3 -0.560000    35.120776963     2.735334873     9.125225067   0   0   0 # oc12
    438     28   3 -0.560000    35.053188276     0.358106524    14.227524757   0   0   0 # oc12
    439     28   3 -0.560000    35.053188276     0.358106524     8.259474754   0   0   0 # oc12
    440     28   4 -0.940000    36.326107573     2.174020529    15.700423241   0   0   0 # oc13
    441     28   4 -0.940000    36.326107573     2.174020529     6.786576748   0   0   0 # oc13
    442     28   4 -0.940000    33.701415446     2.191863060    15.610475540   0   0   0 # oc13
    443     28   4 -0.940000    33.701415446     2.191863060     6.876524925   0   0   0 # oc13
    444     28   5 -0.580000    35.813560557     4.054264545    11.243499756   0   0   0 # ocx
    445     28   3 -0.560000    35.115144562     5.354056358    13.382014275   0   0   0 # oc12
    446     28   3 -0.560000    35.115144562     5.354056358     9.104986191   0   0   0 # oc12
    447     28   4 -0.940000    33.723944839     5.904301643    15.630713463   0   0   0 # oc13
    448     28   4 -0.940000    33.723944839     5.904301643     6.856286526   0   0   0 # oc13
    449     28   7  1.500000    35.001933646     5.892058849     4.644015312   0   0   0 # ca+t
    450     28   6 -0.820000    35.729075026     0.350690752    11.243499756   0   0   0 # o*
    451     28   8  0.410000    35.203605711     0.450983415    12.067331580   0   0   0 # h*
    452     28   8  0.410000    35.120412205     0.757812096    10.586948304   0   0   0 # h*
    453     29   1  1.000000     1.253719139     9.283987055    14.782504082   0   0   0 # sc2
    454     29   1  1.000000     1.253719139     9.283987055     7.704495907   0   0   0 # sc2
    455     29   2  1.000000     2.101956654    11.437414417    12.843674660   0   0   0 # sc3
    456     29   2  1.000000     2.101956654    11.437414417     9.643324852   0   0   0 # sc3
    457     29   1  1.000000     1.259914684    13.589071999    14.790374756   0   0   0 # sc2
    458     29   1  1.000000     1.259914684    13.589071999     7.696625710   0   0   0 # sc2
    459     29   3 -0.560000     1.326376963    10.120334873    13.361775398   0   0   0 # oc12
    460     29   3 -0.560000     1.326376963    10.120334873     9.125225067   0   0   0 # oc12
    461     29   3 -0.560000     1.258788276     7.743106524    14.227524757   0   0   0 # oc12
    462     29   3 -0.560000     1.258788276     7.743106524     8.259474754   0   0   0 # oc12
    463     29   4 -0.940000     2.531707573     9.559020529    15.700423241   0   0   0 # oc13
    464     29   4 -0.940000     2.531707573     9.559020529     6.786576748   0   0   0 # oc13
    465     29   4 -0.940000    -0.092984554     9.576863060    15.610475540   0   0   0 # oc13
    466     29   4 -0.940000    -0.092984554     9.576863060     6.876524925   0   0   0 # oc13
    467     29   5 -0.580000     2.019160557    11.439264545    11.243499756   0   0   0 # ocx
    468     29   3 -0.560000     1.320744562    12.739056358    13.382014275   0   0   0 # oc12
    469     29   3 -0.560000     1.320744562    12.739056358     9.104986191   0   0   0 # oc12
    470     29   4 -0.940000    -0.070455161    13.289301643    15.630713463   0   0   0 # oc13
    471     29   4 -0.940000    -0.070455161    13.289301643     6.856286526   0   0   0 # oc13
    472     29   7  1.500000     1.207533646    13.277058849     4.644015312   0   0   0 # ca+t
    473     29   6 -0.820000     1.934675026     7.735690752    11.243499756   0   0   0 # o*
    474     29   8  0.410000     1.409205711     7.835983415    12.067331580   0   0   0 # h*
    475     29   8  0.410000     1.326012205     8.142812096    10.586948304   0   0   0 # h*
    476     30   1  1.000000    12.518519139     9.283987055    14.782504082   0   0   0 # sc2
    477     30   1  1.000000    12.518519139     9.283987055     7.704495907   0   0   0 # sc2
    478     30   2  1.000000    13.366756654    11.437414417    12.843674660   0   0   0 # sc3
    479     30   2  1.000000    13.366756654    11.437414417     9.643324852   0   0   0 # sc3
    480     30   1  1.000000    12.524714684    13.589071999    14.790374756   0   0   0 # sc2
    481     30   1  1.000000    12.524714684    13.589071999     7.696625710   0   0   0 # sc2
    482     30   3 -0.560000    12.591176963    10.120334873    13.361775398   0   0   0 # oc12
    483     30   3 -0.560000    12.591176963    10.120334873     9.125225067   0   0   0 # oc12
    484     30   3 -0.560000    12.523588276     7.743106524    14.227524757   0   0   0 # oc12
    485     30   3 -0.560000    12.523588276     7.743106524     8.259474754   0   0   0 # oc12
    486     30   4 -0.940000    13.796507573     9.559020529    15.700423241   0   0   0 # oc13
    487     30   4 -0.940000    13.796507573     9.559020529     6.786576748   0   0   0 # oc13
    488     30   4 -0.940000    11.171815446     9.576863060    15.610475540   0   0   0 # oc13
    489     30   4 -0.940000    11.171815446     9.576863060     6.876524925   0   0   0 # oc13
    490     30   5 -0.580000    13.283960557    11.439264545    11.243499756   0   0   0 # ocx
    491     30   3 -0.560000    12.585544562    12.739056358    13.382014275   0   0   0 # oc12
    492     30   3 -0.560000    12.585544562    12.739056358     9.104986191   0   0   0 # oc12
    493     30   4 -0.940000    11.194344839    13.289301643    15.630713463   0   0   0 # oc13
    494     30   4 -0.940000    11.194344839    13.289301643     6.856286526   0   0   0 # oc13
    495     30   7  1.500000    12.472333646    13.277058849     4.644015312   0   0   0 # ca+t
    496     30   6 -0.820000    13.199475026     7.735690752    11.243499756   0   0   0 # o*
    497     30   8  0.410000    12.674005711     7.835983415    12.067331580   0   0   0 # h*
    498     30   8  0.410000    12.590812205     8.142812096    10.586948304   0   0   0 # h*
    499     31   1  1.000000    23.783319139     9.283987055    14.782504082   0   0   0 # sc2
    500     31   1  1.000000    23.783319139     9.283987055     7.704495907   0   0   0 # sc2
    501     31   2  1.000000    24.631556654    11.437414417    12.843674660   0   0   0 # sc3
    502     31   2  1.000000    24.631556654    11.437414417     9.643324852   0   0   0 # sc3
    503     31   1  1.000000    23.789514684    13.589071999    14.790374756   0   0   0 # sc2
    504     31   1  1.000000    23.789514684    13.589071999     7.696625710   0   0   0 # sc2
    505     31   3 -0.560000    23.855976963    10.120334873    13.361775398   0   0   0 # oc12
    506     31   3 -0.560000    23.855976963    10.120334873     9.125225067   0   0   0 # oc12
    507     31   3 -0.560000    23.788388276     7.743106524    14.227524757   0   0   0 # oc12
    508     31   3 -0.560000    23.788388276     7.743106524     8.259474754   0   0   0 # oc12
    509     31   4 -0.940000    25.061307573     9.559020529    15.700423241   0   0   0 # oc13
    510     31   4 -0.940000    25.061307573     9.559020529     6.786576748   0   0   0 # oc13
    511     31   4 -0.940000    22.436615446     9.576863060    15.610475540   0   0   0 # oc13
    512     31   4 -0.940000    22.436615446     9.576863060     6.876524925   0   0   0 # oc13
    513     31   5 -0.580000    24.548760557    11.439264545    11.243499756   0   0   0 # ocx
    514     31   3 -0.560000    23.850344562    12.739056358    13.382014275   0   0   0 # oc12
    515     31   3 -0.560000    23.850344562    12.739056358     9.104986191   0   0   0 # oc12
    516     31   4 -0.940000    22.459144839    13.289301643    15.630713463   0   0   0 # oc13
    517     31   4 -0.940000    22.459144839    13.289301643     6.856286526   0   0   0 # oc13
    518     31   7  1.500000    23.737133646    13.277058849     4.644015312   0   0   0 # ca+t
    519     31   6 -0.820000    24.464275026     7.735690752    11.243499756   0   0   0 # o*
    520     31   8  0.410000    23.938805711     7.835983415    12.067331580   0   0   0 # h*
    521     31   8  0.410000    23.855612205     8.142812096    10.586948304   0   0   0 # h*
    522     32   1  1.000000    35.048119139     9.283987055    14.782504082   0   0   0 # sc2
    523     32   1  1.000000    35.048119139     9.283987055     7.704495907   0   0   0 # sc2
    524     32   2  1.000000    35.896356654    11.437414417    12.843674660   0   0   0 # sc3
    525     32   2  1.000000    35.896356654    11.437414417     9.643324852   0   0   0 # sc3
    526     32   1  1.000000    35.054314684    13.589071999    14.790374756   0   0   0 # sc2
    527     32   1  1.000000    35.054314684    13.589071999     7.696625710   0   0   0 # sc2
    528     32   3 -0.560000    35.120776963    10.120334873    13.361775398   0   0   0 # oc12
    529     32   3 -0.560000    35.120776963    10.120334873     9.125225067   0   0   0 # oc12
    530     32   3 -0.560000    35.053188276     7.743106524    14.227524757   0   0   0 # oc12
    531     32   3 -0.560000    35.053188276     7.743106524     8.259474754   0   0   0 # oc12
    532     32   4 -0.940000    36.326107573     9.559020529    15.700423241   0   0   0 # oc13
    533     32   4 -0.940000    36.326107573     9.559020529     6.786576748   0   0   0 # oc13
    534     32   4 -0.940000    33.701415446     9.576863060    15.610475540   0   0   0 # oc13
    535     32   4 -0.940000    33.701415446     9.576863060     6.876524925   0   0   0 # oc13
    536     32   5 -0.580000    35.813560557    11.439264545    11.243499756   0   0   0 # ocx
    537     32   3 -0.560000    35.115144562    12.739056358    13.382014275   0   0   0 # oc12
    538     32   3 -0.560000    35.115144562    12.739056358     9.104986191   0   0   0 # oc12
    539     32   4 -0.940000    33.723944839    13.289301643    15.630713463   0   0   0 # oc13
    540     32   4 -0.940000    33.723944839    13.289301643     6.856286526   0   0   0 # oc13
    541     32   7  1.500000    35.001933646    13.277058849     4.644015312   0   0   0 # ca+t
    542     32   6 -0.820000    35.729075026     7.735690752    11.243499756   0   0   0 # o*
    543     32   8  0.410000    35.203605711     7.835983415    12.067331580   0   0   0 # h*
    544     32   8  0.410000    35.120412205     8.142812096    10.586948304   0   0   0 # h*
    545     33   1  1.000000     1.253719139    16.668987055    14.782504082   0   0   0 # sc2
    546     33   1  1.000000     1.253719139    16.668987055     7.704495907   0   0   0 # sc2
    547     33   2  1.000000     2.101956654    18.822414417    12.843674660   0   0   0 # sc3
    548     33   2  1.000000     2.101956654    18.822414417     9.643324852   0   0   0 # sc3
    549     33   1  1.000000     1.259914684    20.974071999    14.790374756   0   0   0 # sc2
    550     33   1  1.000000     1.259914684    20.974071999     7.696625710   0   0   0 # sc2
    551     33   3 -0.560000     1.326376963    17.505334873    13.361775398   0   0   0 # oc12
    552     33   3 -0.560000     1.326376963    17.505334873     9.125225067   0   0   0 # oc12
    553     33   3 -0.560000     1.258788276    15.128106524    14.227524757   0   0   0 # oc12
    554     33   3 -0.560000     1.258788276    15.128106524     8.259474754   0   0   0 # oc12
    555     33   4 -0.940000     2.531707573    16.944020529    15.700423241   0   0   0 # oc13
    556     33   4 -0.940000     2.531707573    16.944020529     6.786576748   0   0   0 # oc13
    557     33   4 -0.940000    -0.092984554    16.961863060    15.610475540   0   0   0 # oc13
    558     33   4 -0.940000    -0.092984554    16.961863060     6.876524925   0   0   0 # oc13
    559     33   5 -0.580000     2.019160557    18.824264545    11.243499756   0   0   0 # ocx
    560     33   3 -0.560000     1.320744562    20.124056358    13.382014275   0   0   0 # oc12
    561     33   3 -0.560000     1.320744562    20.124056358     9.104986191   0   0   0 # oc12
    562     33   4 -0.940000    -0.070455161    20.674301643    15.630713463   0   0   0 # oc13
    563     33   4 -0.940000    -0.070455161    20.674301643     6.856286526   0   0   0 # oc13
    564     33   7  1.500000     1.207533646    20.662058849     4.644015312   0   0   0 # ca+t
    565     33   6 -0.820000     1.934675026    15.120690752    11.243499756   0   0   0 # o*
    566     33   8  0.410000     1.409205711    15.220983415    12.067331580   0   0   0 # h*
    567     33   8  0.410000     1.326012205    15.527812096    10.586948304   0   0   0 # h*
    568     34   1  1.000000    12.518519139    16.668987055    14.782504082   0   0   0 # sc2
    569     34   1  1.000000    12.518519139    16.668987055     7.704495907   0   0   0 # sc2
    570     34   2  1.000000    13.366756654    18.822414417    12.843674660   0   0   0 # sc3
    571     34   2  1.000000    13.366756654    18.822414417     9.643324852   0   0   0 # sc3
    572     34   1  1.000000    12.524714684    20.974071999    14.790374756   0   0   0 # sc2
    573     34   1  1.000000    12.524714684    20.974071999     7.696625710   0   0   0 # sc2
    574     34   3 -0.560000    12.591176963    17.505334873    13.361775398   0   0   0 # oc12
    575     34   3 -0.560000    12.591176963    17.505334873     9.125225067   0   0   0 # oc12
    576     34   3 -0.560000    12.523588276    15.128106524    14.227524757   0   0   0 # oc12
    577     34   3 -0.560000    12.523588276    15.128106524     8.259474754   0   0   0 # oc12
    578     34   4 -0.940000    13.796507573    16.944020529    15.700423241   0   0   0 # oc13
    579     34   4 -0.940000    13.796507573    16.944020529     6.786576748   0   0   0 # oc13
    580     34   4 -0.940000    11.171815446    16.961863060    15.610475540   0   0   0 # oc13
    581     34   4 -0.940000    11.171815446    16.961863060     6.876524925   0   0   0 # oc13
    582     34   5 -0.580000    13.283960557    18.824264545    11.243499756   0   0   0 # ocx
    583     34   3 -0.560000    12.585544562    20.124056358    13.382014275   0   0   0 # oc12
    584     34   3 -0.560000    12.585544562    20.124056358     9.104986191   0   0   0 # oc12
    585     34   4 -0.940000    11.194344839    20.674301643    15.630713463   0   0   0 # oc13
    586     34   4 -0.940000    11.194344839    20.674301643     6.856286526   0   0   0 # oc13
    587     34   7  1.500000    12.472333646    20.662058849     4.644015312   0   0   0 # ca+t
    588     34   6 -0.820000    13.199475026    15.120690752    11.243499756   0   0   0 # o*
    589     34   8  0.410000    12.674005711    15.220983415    12.067331580   0   0   0 # h*
    590     34   8  0.410000    12.590812205    15.527812096    10.586948304   0   0   0 # h*
    591     35   1  1.000000    23.783319139    16.668987055    14.782504082   0   0   0 # sc2
    592     35   1  1.000000    23.783319139    16.668987055     7.704495907   0   0   0 # sc2
    593     35   2  1.000000    24.631556654    18.822414417    12.843674660   0   0   0 # sc3
    594     35   2  1.000000    24.631556654    18.822414417     9.643324852   0   0   0 # sc3
    595     35   1  1.000000    23.789514684    20.974071999    14.790374756   0   0   0 # sc2
    596     35   1  1.000000    23.789514684    20.974071999     7.696625710   0   0   0 # sc2
    597     35   3 -0.560000    23.855976963    17.505334873    13.361775398   0   0   0 # oc12
    598     35   3 -0.560000    23.855976963    17.505334873     9.125225067   0   0   0 # oc12
    599     35   3 -0.560000    23.788388276    15.128106524    14.227524757   0   0   0 # oc12
    600     35   3 -0.560000    23.788388276    15.128106524     8.259474754   0   0   0 # oc12
    601     35   4 -0.940000    25.061307573    16.944020529    15.700423241   0   0   0 # oc13
    602     35   4 -0.940000    25.061307573    16.944020529     6.786576748   0   0   0 # oc13
    603     35   4 -0.940000    22.436615446    16.961863060    15.610475540   0   0   0 # oc13
    604     35   4 -0.940000    22.436615446    16.961863060     6.876524925   0   0   0 # oc13
    605     35   5 -0.580000    24.548760557    18.824264545    11.243499756   0   0   0 # ocx
    606     35   3 -0.560000    23.850344562    20.124056358    13.382014275   0   0   0 # oc12
    607     35   3 -0.560000    23.850344562    20.124056358     9.104986191   0   0   0 # oc12
    608     35   4 -0.940000    22.459144839    20.674301643    15.630713463   0   0   0 # oc13
    609     35   4 -0.940000    22.459144839    20.674301643     6.856286526   0   0   0 # oc13
    610     35   7  1.500000    23.737133646    20.662058849     4.644015312   0   0   0 # ca+t
    611     35   6 -0.820000    24.464275026    15.120690752    11.243499756   0   0   0 # o*
    612     35   8  0.410000    23.938805711    15.220983415    12.067331580   0   0   0 # h*
    613     35   8  0.410000    23.855612205    15.527812096    10.586948304   0   0   0 # h*
    614     36   1  1.000000    35.048119139    16.668987055    14.782504082   0   0   0 # sc2
    615     36   1  1.000000    35.048119139    16.668987055     7.704495907   0   0   0 # sc2
    616     36   2  1.000000    35.896356654    18.822414417    12.843674660   0   0   0 # sc3
    617     36   2  1.000000    35.896356654    18.822414417     9.643324852   0   0   0 # sc3
    618     36   1  1.000000    35.054314684    20.974071999    14.790374756   0   0   0 # sc2
    619     36   1  1.000000    35.054314684    20.974071999     7.696625710   0   0   0 # sc2
    620     36   3 -0.560000    35.120776963    17.505334873    13.361775398   0   0   0 # oc12
    621     36   3 -0.560000    35.120776963    17.505334873     9.125225067   0   0   0 # oc12
    622     36   3 -0.560000    35.053188276    15.128106524    14.227524757   0   0   0 # oc12
    623     36   3 -0.560000    35.053188276    15.128106524     8.259474754   0   0   0 # oc12
    624     36   4 -0.940000    36.326107573    16.944020529    15.700423241   0   0   0 # oc13
    625     36   4 -0.940000    36.326107573    16.944020529     6.786576748   0   0   0 # oc13
    626     36   4 -0.940000    33.701415446    16.961863060    15.610475540   0   0   0 # oc13
    627     36   4 -0.940000    33.701415446    16.961863060     6.876524925   0   0   0 # oc13
    628     36   5 -0.580000    35.813560557    18.824264545    11.243499756   0   0   0 # ocx
    629     36   3 -0.560000    35.115144562    20.124056358    13.382014275   0   0   0 # oc12
    630     36   3 -0.560000    35.115144562    20.124056358     9.104986191   0   0   0 # oc12
    631     36   4 -0.940000    33.723944839    20.674301643    15.630713463   0   0   0 # oc13
    632     36   4 -0.940000    33.723944839    20.674301643     6.856286526   0   0   0 # oc13
    633     36   7  1.500000    35.001933646    20.662058849     4.644015312   0   0   0 # ca+t
    634     36   6 -0.820000    35.729075026    15.120690752    11.243499756   0   0   0 # o*
    635     36   8  0.410000    35.203605711    15.220983415    12.067331580   0   0   0 # h*
    636     36   8  0.410000    35.120412205    15.527812096    10.586948304   0   0   0 # h*
    637     37   9 -0.670000     6.491276073     2.207812309     2.113778114   0   0   0 # oc14
    638     37   9 -0.670000     6.491276073     2.207812309    -2.113778114   0   0   0 # oc14
    639     38   9 -0.670000    17.756076073     2.207812309     2.113778114   0   0   0 # oc14
    640     38   9 -0.670000    17.756076073     2.207812309    -2.113778114   0   0   0 # oc14
    641     39   9 -0.670000    29.020876073     2.207812309     2.113778114   0   0   0 # oc14
    642     39   9 -0.670000    29.020876073     2.207812309    -2.113778114   0   0   0 # oc14
    643     40   9 -0.670000    40.285676073     2.207812309     2.113778114   0   0   0 # oc14
    644     40   9 -0.670000    40.285676073     2.207812309    -2.113778114   0   0   0 # oc14
    645     41   9 -0.670000     6.491276073     9.592812309     2.113778114   0   0   0 # oc14
    646     41   9 -0.670000     6.491276073     9.592812309    -2.113778114   0   0   0 # oc14
    647     42   9 -0.670000    17.756076073     9.592812309     2.113778114   0   0   0 # oc14
    648     42   9 -0.670000    17.756076073     9.592812309    -2.113778114   0   0   0 # oc14
    649     43   9 -0.670000    29.020876073     9.592812309     2.113778114   0   0   0 # oc14
    650     43   9 -0.670000    29.020876073     9.592812309    -2.113778114   0   0   0 # oc14
    651     44   9 -0.670000    40.285676073     9.592812309     2.113778114   0   0   0 # oc14
    652     44   9 -0.670000    40.285676073     9.592812309    -2.113778114   0   0   0 # oc14
    653     45   9 -0.670000     6.491276073    16.977812309     2.113778114   0   0   0 # oc14
    654     45   9 -0.670000     6.491276073    16.977812309    -2.113778114   0   0   0 # oc14
    655     46   9 -0.670000    17.756076073    16.977812309     2.113778114   0   0   0 # oc14
    656     46   9 -0.670000    17.756076073    16.977812309    -2.113778114   0   0   0 # oc14
    657     47   9 -0.670000    29.020876073    16.977812309     2.113778114   0   0   0 # oc14
    658     47   9 -0.670000    29.020876073    16.977812309    -2.113778114   0   0   0 # oc14
    659     48   9 -0.670000    40.285676073    16.977812309     2.113778114   0   0   0 # oc14
    660     48   9 -0.670000    40.285676073    16.977812309    -2.113778114   0   0   0 # oc14
    661     49   9 -0.670000     3.675082493     4.054189682    13.357277870   0   0   0 # oc14
    662     49   9 -0.670000     3.675082493     4.054189682     9.129721642   0   0   0 # oc14
    663     49   6 -0.820000     4.136938381     0.361668795    13.355029106   0   0   0 # o*
    664     49   6 -0.820000     4.136938381     0.361668795     9.131970406   0   0   0 # o*
    665     49   7  1.500000     4.109339523     0.370901227    15.866152763   0   0   0 # ca+t
    666     49   7  1.500000     4.109339523     0.370901227     6.620847702   0   0   0 # ca+t
    667     49   6 -0.820000     5.021222878     5.579131126    11.243499756   0   0   0 # o*
    668     49   6 -0.820000     4.993061352     2.503280163    11.243499756   0   0   0 # o*
    669     49   8  0.410000     5.789841869     6.008555017    10.805583619   0   0   0 # h*
    670     49   8  0.410000     4.357327484     5.710762453    10.533399564   0   0   0 # h*
    671     49   8  0.410000     5.969723743     2.446745261    11.343537229   0   0   0 # h*
    672     49   8  0.410000     4.727343989     2.147804186    12.120679020   0   0   0 # h*
    673     49   8  0.410000     4.770510092    -0.275567974    12.952222032   0   0   0 # h*
    674     49   8  0.410000     3.327528660     0.355838544     9.696209337   0   0   0 # h*
    675     49   8  0.410000     3.388308796     0.283588732    12.719479681   0   0   0 # h*
    676     49   8  0.410000     4.691993447     0.997958827     9.637624106   0   0   0 # h*
    677     50   9 -0.670000    14.939882493     4.054189682    13.357277870   0   0   0 # oc14
    678     50   9 -0.670000    14.939882493     4.054189682     9.129721642   0   0   0 # oc14
    679     50   6 -0.820000    15.401738381     0.361668795    13.355029106   0   0   0 # o*
    680     50   6 -0.820000    15.401738381     0.361668795     9.131970406   0   0   0 # o*
    681     50   7  1.500000    15.374139523     0.370901227    15.866152763   0   0   0 # ca+t
    682     50   7  1.500000    15.374139523     0.370901227     6.620847702   0   0   0 # ca+t
    683     50   6 -0.820000    16.286022878     5.579131126    11.243499756   0   0   0 # o*
    684     50   6 -0.820000    16.257861352     2.503280163    11.243499756   0   0   0 # o*
    685     50   8  0.410000    17.054641869     6.008555017    10.805583619   0   0   0 # h*
    686     50   8  0.410000    15.622127484     5.710762453    10.533399564   0   0   0 # h*
    687     50   8  0.410000    17.234523743     2.446745261    11.343537229   0   0   0 # h*
    688     50   8  0.410000    15.992143989     2.147804186    12.120679020   0   0   0 # h*
    689     50   8  0.410000    16.035310092    -0.275567974    12.952222032   0   0   0 # h*
    690     50   8  0.410000    14.592328660     0.355838544     9.696209337   0   0   0 # h*
    691     50   8  0.410000    14.653108796     0.283588732    12.719479681   0   0   0 # h*
    692     50   8  0.410000    15.956793447     0.997958827     9.637624106   0   0   0 # h*
    693     51   9 -0.670000    26.204682493     4.054189682    13.357277870   0   0   0 # oc14
    694     51   9 -0.670000    26.204682493     4.054189682     9.129721642   0   0   0 # oc14
    695     51   6 -0.820000    26.666538381     0.361668795    13.355029106   0   0   0 # o*
    696     51   6 -0.820000    26.666538381     0.361668795     9.131970406   0   0   0 # o*
    697     51   7  1.500000    26.638939523     0.370901227    15.866152763   0   0   0 # ca+t
    698     51   7  1.500000    26.638939523     0.370901227     6.620847702   0   0   0 # ca+t
    699     51   6 -0.820000    27.550822878     5.579131126    11.243499756   0   0   0 # o*
    700     51   6 -0.820000    27.522661352     2.503280163    11.243499756   0   0   0 # o*
    701     51   8  0.410000    28.319441869     6.008555017    10.805583619   0   0   0 # h*
    702     51   8  0.410000    26.886927484     5.710762453    10.533399564   0   0   0 # h*
    703     51   8  0.410000    28.499323743     2.446745261    11.343537229   0   0   0 # h*
    704     51   8  0.410000    27.256943989     2.147804186    12.120679020   0   0   0 # h*
    705     51   8  0.410000    27.300110092    -0.275567974    12.952222032   0   0   0 # h*
    706     51   8  0.410000    25.857128660     0.355838544     9.696209337   0   0   0 # h*
    707     51   8  0.410000    25.917908796     0.283588732    12.719479681   0   0   0 # h*
    708     51   8  0.410000    27.221593447     0.997958827     9.637624106   0   0   0 # h*
    709     52   9 -0.670000    37.469482493     4.054189682    13.357277870   0   0   0 # oc14
    710     52   9 -0.670000    37.469482493     4.054189682     9.129721642   0   0   0 # oc14
    711     52   6 -0.820000    37.931338381     0.361668795    13.355029106   0   0   0 # o*
    712     52   6 -0.820000    37.931338381     0.361668795     9.131970406   0   0   0 # o*
    713     52   7  1.500000    37.903739523     0.370901227    15.866152763   0   0   0 # ca+t
    714     52   7  1.500000    37.903739523     0.370901227     6.620847702   0   0   0 # ca+t
    715     52   6 -0.820000    38.815622878     5.579131126    11.243499756   0   0   0 # o*
    716     52   6 -0.820000    38.787461352     2.503280163    11.243499756   0   0   0 # o*
    717     52   8  0.410000    39.584241869     6.008555017    10.805583619   0   0   0 # h*
    718     52   8  0.410000    38.151727484     5.710762453    10.533399564   0   0   0 # h*
    719     52   8  0.410000    39.764123743     2.446745261    11.343537229   0   0   0 # h*
    720     52   8  0.410000    38.521743989     2.147804186    12.120679020   0   0   0 # h*
    721     52   8  0.410000    38.564910092    -0.275567974    12.952222032   0   0   0 # h*
    722     52   8  0.410000    37.121928660     0.355838544     9.696209337   0   0   0 # h*
    723     52   8  0.410000    37.182708796     0.283588732    12.719479681   0   0   0 # h*
    724     52   8  0.410000    38.486393447     0.997958827     9.637624106   0   0   0 # h*
    725     53   9 -0.670000     3.675082493    11.439189682    13.357277870   0   0   0 # oc14
    726     53   9 -0.670000     3.675082493    11.439189682     9.129721642   0   0   0 # oc14
    727     53   6 -0.820000     4.136938381     7.746668795    13.355029106   0   0   0 # o*
    728     53   6 -0.820000     4.136938381     7.746668795     9.131970406   0   0   0 # o*
    729     53   7  1.500000     4.109339523     7.755901227    15.866152763   0   0   0 # ca+t
    730     53   7  1.500000     4.109339523     7.755901227     6.620847702   0   0   0 # ca+t
    731     53   6 -0.820000     5.021222878    12.964131126    11.243499756   0   0   0 # o*
    732     53   6 -0.820000     4.993061352     9.888280163    11.243499756   0   0   0 # o*
    733     53   8  0.410000     5.789841869    13.393555017    10.805583619   0   0   0 # h*
    734     53   8  0.410000     4.357327484    13.095762453    10.533399564   0   0   0 # h*
    735     53   8  0.410000     5.969723743     9.831745261    11.343537229   0   0   0 # h*
    736     53   8  0.410000     4.727343989     9.532804186    12.120679020   0   0   0 # h*
    737     53   8  0.410000     4.770510092     7.109432026    12.952222032   0   0   0 # h*
    738     53   8  0.410000     3.327528660     7.740838544     9.696209337   0   0   0 # h*
    739     53   8  0.410000     3.388308796     7.668588732    12.719479681   0   0   0 # h*
    740     53   8  0.410000     4.691993447     8.382958827     9.637624106   0   0   0 # h*
    741     54   9 -0.670000    14.939882493    11.439189682    13.357277870   0   0   0 # oc14
    742     54   9 -0.670000    14.939882493    11.439189682     9.129721642   0   0   0 # oc14
    743     54   6 -0.820000    15.401738381     7.746668795    13.355029106   0   0   0 # o*
    744     54   6 -0.820000    15.401738381     7.746668795     9.131970406   0   0   0 # o*
    745     54   7  1.500000    15.374139523     7.755901227    15.866152763   0   0   0 # ca+t
    746     54   7  1.500000    15.374139523     7.755901227     6.620847702   0   0   0 # ca+t
    747     54   6 -0.820000    16.286022878    12.964131126    11.243499756   0   0   0 # o*
    748     54   6 -0.820000    16.257861352     9.888280163    11.243499756   0   0   0 # o*
    749     54   8  0.410000    17.054641869    13.393555017    10.805583619   0   0   0 # h*
    750     54   8  0.410000    15.622127484    13.095762453    10.533399564   0   0   0 # h*
    751     54   8  0.410000    17.234523743     9.831745261    11.343537229   0   0   0 # h*
    752     54   8  0.410000    15.992143989     9.532804186    12.120679020   0   0   0 # h*
    753     54   8  0.410000    16.035310092     7.109432026    12.952222032   0   0   0 # h*
    754     54   8  0.410000    14.592328660     7.740838544     9.696209337   0   0   0 # h*
    755     54   8  0.410000    14.653108796     7.668588732    12.719479681   0   0   0 # h*
    756     54   8  0.410000    15.956793447     8.382958827     9.637624106   0   0   0 # h*
    757     55   9 -0.670000    26.204682493    11.439189682    13.357277870   0   0   0 # oc14
    758     55   9 -0.670000    26.204682493    11.439189682     9.129721642   0   0   0 # oc14
    759     55   6 -0.820000    26.666538381     7.746668795    13.355029106   0   0   0 # o*
    760     55   6 -0.820000    26.666538381     7.746668795     9.131970406   0   0   0 # o*
    761     55   7  1.500000    26.638939523     7.755901227    15.866152763   0   0   0 # ca+t
    762     55   7  1.500000    26.638939523     7.755901227     6.620847702   0   0   0 # ca+t
    763     55   6 -0.820000    27.550822878    12.964131126    11.243499756   0   0   0 # o*
    764     55   6 -0.820000    27.522661352     9.888280163    11.243499756   0   0   0 # o*
    765     55   8  0.410000    28.319441869    13.393555017    10.805583619   0   0   0 # h*
    766     55   8  0.410000    26.886927484    13.095762453    10.533399564   0   0   0 # h*
    767     55   8  0.410000    28.499323743     9.831745261    11.343537229   0   0   0 # h*
    768     55   8  0.410000    27.256943989     9.532804186    12.120679020   0   0   0 # h*
    769     55   8  0.410000    27.300110092     7.109432026    12.952222032   0   0   0 # h*
    770     55   8  0.410000    25.857128660     7.740838544     9.696209337   0   0   0 # h*
    771     55   8  0.410000    25.917908796     7.668588732    12.719479681   0   0   0 # h*
    772     55   8  0.410000    27.221593447     8.382958827     9.637624106   0   0   0 # h*
    773     56   9 -0.670000    37.469482493    11.439189682    13.357277870   0   0   0 # oc14
    774     56   9 -0.670000    37.469482493    11.439189682     9.129721642   0   0   0 # oc14
    775     56   6 -0.820000    37.931338381     7.746668795    13.355029106   0   0   0 # o*
    776     56   6 -0.820000    37.931338381     7.746668795     9.131970406   0   0   0 # o*
    777     56   7  1.500000    37.903739523     7.755901227    15.866152763   0   0   0 # ca+t
    778     56   7  1.500000    37.903739523     7.755901227     6.620847702   0   0   0 # ca+t
    779     56   6 -0.820000    38.815622878    12.964131126    11.243499756   0   0   0 # o*
    780     56   6 -0.820000    38.787461352     9.888280163    11.243499756   0   0   0 # o*
    781     56   8  0.410000    39.584241869    13.393555017    10.805583619   0   0   0 # h*
    782     56   8  0.410000    38.151727484    13.095762453    10.533399564   0   0   0 # h*
    783     56   8  0.410000    39.764123743     9.831745261    11.343537229   0   0   0 # h*
    784     56   8  0.410000    38.521743989     9.532804186    12.120679020   0   0   0 # h*
    785     56   8  0.410000    38.564910092     7.109432026    12.952222032   0   0   0 # h*
    786     56   8  0.410000    37.121928660     7.740838544     9.696209337   0   0   0 # h*
    787     56   8  0.410000    37.182708796     7.668588732    12.719479681   0   0   0 # h*
    788     56   8  0.410000    38.486393447     8.382958827     9.637624106   0   0   0 # h*
    789     57   9 -0.670000     3.675082493    18.824189682    13.357277870   0   0   0 # oc14
    790     57   9 -0.670000     3.675082493    18.824189682     9.129721642   0   0   0 # oc14
    791     57   6 -0.820000     4.136938381    15.131668795    13.355029106   0   0   0 # o*
    792     57   6 -0.820000     4.136938381    15.131668795     9.131970406   0   0   0 # o*
    793     57   7  1.500000     4.109339523    15.140901227    15.866152763   0   0   0 # ca+t
    794     57   7  1.500000     4.109339523    15.140901227     6.620847702   0   0   0 # ca+t
    795     57   6 -0.820000     5.021222878    20.349131126    11.243499756   0   0   0 # o*
    796     57   6 -0.820000     4.993061352    17.273280163    11.243499756   0   0   0 # o*
    797     57   8  0.410000     5.789841869    20.778555017    10.805583619   0   0   0 # h*
    798     57   8  0.410000     4.357327484    20.480762453    10.533399564   0   0   0 # h*
    799     57   8  0.410000     5.969723743    17.216745261    11.343537229   0   0   0 # h*
    800     57   8  0.410000     4.727343989    16.917804186    12.120679020   0   0   0 # h*
    801     57   8  0.410000     4.770510092    14.494432026    12.952222032   0   0   0 # h*
    802     57   8  0.410000     3.327528660    15.125838544     9.696209337   0   0   0 # h*
    803     57   8  0.410000     3.388308796    15.053588732    12.719479681   0   0   0 # h*
    804     57   8  0.410000     4.691993447    15.767958827     9.637624106   0   0   0 # h*
    805     58   9 -0.670000    14.939882493    18.824189682    13.357277870   0   0   0 # oc14
    806     58   9 -0.670000    14.939882493    18.824189682     9.129721642   0   0   0 # oc14
    807     58   6 -0.820000    15.401738381    15.131668795    13.355029106   0   0   0 # o*
    808     58   6 -0.820000    15.401738381    15.131668795     9.131970406   0   0   0 # o*
    809     58   7  1.500000    15.374139523    15.140901227    15.866152763   0   0   0 # ca+t
    810     58   7  1.500000    15.374139523    15.140901227     6.620847702   0   0   0 # ca+t
    811     58   6 -0.820000    16.286022878    20.349131126    11.243499756   0   0   0 # o*
    812     58   6 -0.820000    16.257861352    17.273280163    11.243499756   0   0   0 # o*
    813     58   8  0.410000    17.054641869    20.778555017    10.805583619   0   0   0 # h*
    814     58   8  0.410000    15.622127484    20.480762453    10.533399564   0   0   0 # h*
    815     58   8  0.410000    17.234523743    17.216745261    11.343537229   0   0   0 # h*
    816     58   8  0.410000    15.992143989    16.917804186    12.120679020   0   0   0 # h*
    817     58   8  0.410000    16.035310092    14.494432026    12.952222032   0   0   0 # h*
    818     58   8  0.410000    14.592328660    15.125838544     9.696209337   0   0   0 # h*
    819     58   8  0.410000    14.653108796    15.053588732    12.719479681   0   0   0 # h*
    820     58   8  0.410000    15.956793447    15.767958827     9.637624106   0   0   0 # h*
    821     59   9 -0.670000    26.204682493    18.824189682    13.357277870   0   0   0 # oc14
    822     59   9 -0.670000    26.204682493    18.824189682     9.129721642   0   0   0 # oc14
    823     59   6 -0.820000    26.666538381    15.131668795    13.355029106   0   0   0 # o*
    824     59   6 -0.820000    26.666538381    15.131668795     9.131970406   0   0   0 # o*
    825     59   7  1.500000    26.638939523    15.140901227    15.866152763   0   0   0 # ca+t
    826     59   7  1.500000    26.638939523    15.140901227     6.620847702   0   0   0 # ca+t
    827     59   6 -0.820000    27.550822878    20.349131126    11.243499756   0   0   0 # o*
    828     59   6 -0.820000    27.522661352    17.273280163    11.243499756   0   0   0 # o*
    829     59   8  0.410000    28.319441869    20.778555017    10.805583619   0   0   0 # h*
    830     59   8  0.410000    26.886927484    20.480762453    10.533399564   0   0   0 # h*
    831     59   8  0.410000    28.499323743    17.216745261    11.343537229   0   0   0 # h*
    832     59   8  0.410000    27.256943989    16.917804186    12.120679020   0   0   0 # h*
    833     59   8  0.410000    27.300110092    14.494432026    12.952222032   0   0   0 # h*
    834     59   8  0.410000    25.857128660    15.125838544     9.696209337   0   0   0 # h*
    835     59   8  0.410000    25.917908796    15.053588732    12.719479681   0   0   0 # h*
    836     59   8  0.410000    27.221593447    15.767958827     9.637624106   0   0   0 # h*
    837     60   9 -0.670000    37.469482493    18.824189682    13.357277870   0   0   0 # oc14
    838     60   9 -0.670000    37.469482493    18.824189682     9.129721642   0   0   0 # oc14
    839     60   6 -0.820000    37.931338381    15.131668795    13.355029106   0   0   0 # o*
    840     60   6 -0.820000    37.931338381    15.131668795     9.131970406   0   0   0 # o*
    841     60   7  1.500000    37.903739523    15.140901227    15.866152763   0   0   0 # ca+t
    842     60   7  1.500000    37.903739523    15.140901227     6.620847702   0   0   0 # ca+t
    843     60   6 -0.820000    38.815622878    20.349131126    11.243499756   0   0   0 # o*
    844     60   6 -0.820000    38.787461352    17.273280163    11.243499756   0   0   0 # o*
    845     60   8  0.410000    39.584241869    20.778555017    10.805583619   0   0   0 # h*
    846     60   8  0.410000    38.151727484    20.480762453    10.533399564   0   0   0 # h*
    847     60   8  0.410000    39.764123743    17.216745261    11.343537229   0   0   0 # h*
    848     60   8  0.410000    38.521743989    16.917804186    12.120679020   0   0   0 # h*
    849     60   8  0.410000    38.564910092    14.494432026    12.952222032   0   0   0 # h*
    850     60   8  0.410000    37.121928660    15.125838544     9.696209337   0   0   0 # h*
    851     60   8  0.410000    37.182708796    15.053588732    12.719479681   0   0   0 # h*
    852     60   8  0.410000    38.486393447    15.767958827     9.637624106   0   0   0 # h*
    853     61   7  1.500000     4.023727226     4.045681000    15.887515068   0   0   0 # ca+t
    854     62   7  1.500000    15.288527226     4.045681000    15.887515068   0   0   0 # ca+t
    855     63   7  1.500000    26.553327226     4.045681000    15.887515068   0   0   0 # ca+t
    856     64   7  1.500000    37.818127226     4.045681000    15.887515068   0   0   0 # ca+t
    857     65   7  1.500000     4.023727226    11.430681000    15.887515068   0   0   0 # ca+t
    858     66   7  1.500000    15.288527226    11.430681000    15.887515068   0   0   0 # ca+t
    859     67   7  1.500000    26.553327226    11.430681000    15.887515068   0   0   0 # ca+t
    860     68   7  1.500000    37.818127226    11.430681000    15.887515068   0   0   0 # ca+t
    861     69   7  1.500000     4.023727226    18.815681000    15.887515068   0   0   0 # ca+t
    862     70   7  1.500000    15.288527226    18.815681000    15.887515068   0   0   0 # ca+t
    863     71   7  1.500000    26.553327226    18.815681000    15.887515068   0   0   0 # ca+t
    864     72   7  1.500000    37.818127226    18.815681000    15.887515068   0   0   0 # ca+t
    865     73  10  0.400000     7.115700273     2.626625098     1.524329225   0   0   0 # hoy
    866     74  10  0.400000    18.380500273     2.626625098     1.524329225   0   0   0 # hoy
    867     75  10  0.400000    29.645300273     2.626625098     1.524329225   0   0   0 # hoy
    868     76  10  0.400000    40.910100273     2.626625098     1.524329225   0   0   0 # hoy
    869     77  10  0.400000     7.115700273    10.011625098     1.524329225   0   0   0 # hoy
    870     78  10  0.400000    18.380500273    10.011625098     1.524329225   0   0   0 # hoy
    871     79  10  0.400000    29.645300273    10.011625098     1.524329225   0   0   0 # hoy
    872     80  10  0.400000    40.910100273    10.011625098     1.524329225   0   0   0 # hoy
    873     81  10  0.400000     7.115700273    17.396625098     1.524329225   0   0   0 # hoy
    874     82  10  0.400000    18.380500273    17.396625098     1.524329225   0   0   0 # hoy
    875     83  10  0.400000    29.645300273    17.396625098     1.524329225   0   0   0 # hoy
    876     84  10  0.400000    40.910100273    17.396625098     1.524329225   0   0   0 # hoy
    877     85  10  0.400000     4.322240482     4.355332396    12.724908090   0   0   0 # hoy
    878     86  10  0.400000    15.587040482     4.355332396    12.724908090   0   0   0 # hoy
    879     87  10  0.400000    26.851840482     4.355332396    12.724908090   0   0   0 # hoy
    880     88  10  0.400000    38.116640482     4.355332396    12.724908090   0   0   0 # hoy
    881     89  10  0.400000     4.322240482    11.740332396    12.724908090   0   0   0 # hoy
    882     90  10  0.400000    15.587040482    11.740332396    12.724908090   0   0   0 # hoy
    883     91  10  0.400000    26.851840482    11.740332396    12.724908090   0   0   0 # hoy
    884     92  10  0.400000    38.116640482    11.740332396    12.724908090   0   0   0 # hoy
    885     93  10  0.400000     4.322240482    19.125332396    12.724908090   0   0   0 # hoy
    886     94  10  0.400000    15.587040482    19.125332396    12.724908090   0   0   0 # hoy
    887     95  10  0.400000    26.851840482    19.125332396    12.724908090   0   0   0 # hoy
    888     96  10  0.400000    38.116640482    19.125332396    12.724908090   0   0   0 # hoy
    889     97  10  0.400000     7.141250758     1.934522722    -1.472039056   0   0   0 # hoy
    890     98  10  0.400000    18.406050758     1.934522722    -1.472039056   0   0   0 # hoy
    891     99  10  0.400000    29.670850758     1.934522722    -1.472039056   0   0   0 # hoy
    892    100  10  0.400000    40.935650758     1.934522722    -1.472039056   0   0   0 # hoy
    893    101  10  0.400000     7.141250758     9.319522722    -1.472039056   0   0   0 # hoy
    894    102  10  0.400000    18.406050758     9.319522722    -1.472039056   0   0   0 # hoy
    895    103  10  0.400000    29.670850758     9.319522722    -1.472039056   0   0   0 # hoy
    896    104  10  0.400000    40.935650758     9.319522722    -1.472039056   0   0   0 # hoy
    897    105  10  0.400000     7.141250758    16.704522722    -1.472039056   0   0   0 # hoy
    898    106  10  0.400000    18.406050758    16.704522722    -1.472039056   0   0   0 # hoy
    899    107  10  0.400000    29.670850758    16.704522722    -1.472039056   0   0   0 # hoy
    900    108  10  0.400000    40.935650758    16.704522722    -1.472039056   0   0   0 # hoy
    901    109   1  1.000000     9.702299881     3.744854689     3.539004087   0   0   0 # sc2
    902    109   1  1.000000     9.702299881     3.744854689    18.947995913   0   0  -1 # sc2
    903    109   2  1.000000    10.550537872     5.898282051     1.600174904   0   0   0 # sc3
    904    109   2  1.000000    10.550537872     5.898282051    -1.600174904   0   0   0 # sc3
    905    109   1  1.000000     9.708495903     0.664939880     3.546874523   0   0   0 # sc2
    906    109   1  1.000000     9.708495903     0.664939880    18.940125477   0   0  -1 # sc2
    907    109   3 -0.560000     9.774957466     4.581202507     2.118275404   0   0   0 # oc12
    908    109   3 -0.560000     9.774957466     4.581202507    -2.118275404   0   0   0 # oc12
    909    109   3 -0.560000     9.707369614     2.203974247     2.984025002   0   0   0 # oc12
    910    109   3 -0.560000     9.707369614     2.203974247    19.502974998   0   0  -1 # oc12
    911    109   4 -0.940000    10.980288315     4.019887924     4.456923485   0   0   0 # oc13
    912    109   4 -0.940000    10.980288315     4.019887924    18.030076515   0   0  -1 # oc13
    913    109   4 -0.940000     8.355596352     4.037730694     4.366975307   0   0   0 # oc13
    914    109   4 -0.940000     8.355596352     4.037730694    18.120024693   0   0  -1 # oc13
    915    109   5 -0.580000    10.467741776     5.900132179     0.000000000   0   0   0 # ocx
    916    109   6 -0.820000     6.953131962     5.900291443     2.111529350   0   0   0 # o*
    917    109   3 -0.560000     9.769325066     7.199923992     2.138513803   0   0   0 # oc12
    918    109   3 -0.560000     9.769325066     7.199923992    -2.138513803   0   0   0 # oc12
    919    109   4 -0.940000     8.378125954     0.365169197     4.387213707   0   0   0 # oc13
    920    109   4 -0.940000     8.378125954     0.365169197    18.099786293   0   0  -1 # oc13
    921    109   7  1.500000     6.925533104     5.909523964     4.622652531   0   0   0 # ca+t
    922    109   7  1.500000     9.656114388     0.352926284     6.599484921   0   0   0 # ca+t
    923    109   6 -0.820000    10.383255768     2.196558475     0.000000000   0   0   0 # o*
    924    109   8  0.410000     9.856434915     2.009330029     0.805880017   0   0   0 # h*
    925    109   8  0.410000     9.827286209     1.771574710    -0.690273314   0   0   0 # h*
    926    109   8  0.410000     7.534922750     5.265369149     1.634546213   0   0   0 # h*
    927    109   8  0.410000     6.174905674     5.906809908     1.506701131   0   0   0 # h*
    928    110   1  1.000000    20.967099881     3.744854689     3.539004087   0   0   0 # sc2
    929    110   1  1.000000    20.967099881     3.744854689    18.947995913   0   0  -1 # sc2
    930    110   2  1.000000    21.815337872     5.898282051     1.600174904   0   0   0 # sc3
    931    110   2  1.000000    21.815337872     5.898282051    -1.600174904   0   0   0 # sc3
    932    110   1  1.000000    20.973295903     0.664939880     3.546874523   0   0   0 # sc2
    933    110   1  1.000000    20.973295903     0.664939880    18.940125477   0   0  -1 # sc2
    934    110   3 -0.560000    21.039757466     4.581202507     2.118275404   0   0   0 # oc12
    935    110   3 -0.560000    21.039757466     4.581202507    -2.118275404   0   0   0 # oc12
    936    110   3 -0.560000    20.972169614     2.203974247     2.984025002   0   0   0 # oc12
    937    110   3 -0.560000    20.972169614     2.203974247    19.502974998   0   0  -1 # oc12
    938    110   4 -0.940000    22.245088315     4.019887924     4.456923485   0   0   0 # oc13
    939    110   4 -0.940000    22.245088315     4.019887924    18.030076515   0   0  -1 # oc13
    940    110   4 -0.940000    19.620396352     4.037730694     4.366975307   0   0   0 # oc13
    941    110   4 -0.940000    19.620396352     4.037730694    18.120024693   0   0  -1 # oc13
    942    110   5 -0.580000    21.732541776     5.900132179     0.000000000   0   0   0 # ocx
    943    110   6 -0.820000    18.217931962     5.900291443     2.111529350   0   0   0 # o*
    944    110   3 -0.560000    21.034125066     7.199923992     2.138513803   0   0   0 # oc12
    945    110   3 -0.560000    21.034125066     7.199923992    -2.138513803   0   0   0 # oc12
    946    110   4 -0.940000    19.642925954     0.365169197     4.387213707   0   0   0 # oc13
    947    110   4 -0.940000    19.642925954     0.365169197    18.099786293   0   0  -1 # oc13
    948    110   7  1.500000    18.190333104     5.909523964     4.622652531   0   0   0 # ca+t
    949    110   7  1.500000    20.920914388     0.352926284     6.599484921   0   0   0 # ca+t
    950    110   6 -0.820000    21.648055768     2.196558475     0.000000000   0   0   0 # o*
    951    110   8  0.410000    21.121234915     2.009330029     0.805880017   0   0   0 # h*
    952    110   8  0.410000    21.092086209     1.771574710    -0.690273314   0   0   0 # h*
    953    110   8  0.410000    18.799722750     5.265369149     1.634546213   0   0   0 # h*
    954    110   8  0.410000    17.439705674     5.906809908     1.506701131   0   0   0 # h*
    955    111   1  1.000000    32.231899881     3.744854689     3.539004087   0   0   0 # sc2
    956    111   1  1.000000    32.231899881     3.744854689    18.947995913   0   0  -1 # sc2
    957    111   2  1.000000    33.080137872     5.898282051     1.600174904   0   0   0 # sc3
    958    111   2  1.000000    33.080137872     5.898282051    -1.600174904   0   0   0 # sc3
    959    111   1  1.000000    32.238095903     0.664939880     3.546874523   0   0   0 # sc2
    960    111   1  1.000000    32.238095903     0.664939880    18.940125477   0   0  -1 # sc2
    961    111   3 -0.560000    32.304557466     4.581202507     2.118275404   0   0   0 # oc12
    962    111   3 -0.560000    32.304557466     4.581202507    -2.118275404   0   0   0 # oc12
    963    111   3 -0.560000    32.236969614     2.203974247     2.984025002   0   0   0 # oc12
    964    111   3 -0.560000    32.236969614     2.203974247    19.502974998   0   0  -1 # oc12
    965    111   4 -0.940000    33.509888315     4.019887924     4.456923485   0   0   0 # oc13
    966    111   4 -0.940000    33.509888315     4.019887924    18.030076515   0   0  -1 # oc13
    967    111   4 -0.940000    30.885196352     4.037730694     4.366975307   0   0   0 # oc13
    968    111   4 -0.940000    30.885196352     4.037730694    18.120024693   0   0  -1 # oc13
    969    111   5 -0.580000    32.997341776     5.900132179     0.000000000   0   0   0 # ocx
    970    111   6 -0.820000    29.482731962     5.900291443     2.111529350   0   0   0 # o*
    971    111   3 -0.560000    32.298925066     7.199923992     2.138513803   0   0   0 # oc12
    972    111   3 -0.560000    32.298925066     7.199923992    -2.138513803   0   0   0 # oc12
    973    111   4 -0.940000    30.907725954     0.365169197     4.387213707   0   0   0 # oc13
    974    111   4 -0.940000    30.907725954     0.365169197    18.099786293   0   0  -1 # oc13
    975    111   7  1.500000    29.455133104     5.909523964     4.622652531   0   0   0 # ca+t
    976    111   7  1.500000    32.185714388     0.352926284     6.599484921   0   0   0 # ca+t
    977    111   6 -0.820000    32.912855768     2.196558475     0.000000000   0   0   0 # o*
    978    111   8  0.410000    32.386034915     2.009330029     0.805880017   0   0   0 # h*
    979    111   8  0.410000    32.356886209     1.771574710    -0.690273314   0   0   0 # h*
    980    111   8  0.410000    30.064522750     5.265369149     1.634546213   0   0   0 # h*
    981    111   8  0.410000    28.704505674     5.906809908     1.506701131   0   0   0 # h*
    982    112   1  1.000000    43.496699881     3.744854689     3.539004087   0   0   0 # sc2
    983    112   1  1.000000    43.496699881     3.744854689    18.947995913   0   0  -1 # sc2
    984    112   2  1.000000    44.344937872     5.898282051     1.600174904   0   0   0 # sc3
    985    112   2  1.000000    44.344937872     5.898282051    -1.600174904   0   0   0 # sc3
    986    112   1  1.000000    43.502895903     0.664939880     3.546874523   0   0   0 # sc2
    987    112   1  1.000000    43.502895903     0.664939880    18.940125477   0   0  -1 # sc2
    988    112   3 -0.560000    43.569357466     4.581202507     2.118275404   0   0   0 # oc12
    989    112   3 -0.560000    43.569357466     4.581202507    -2.118275404   0   0   0 # oc12
    990    112   3 -0.560000    43.501769614     2.203974247     2.984025002   0   0   0 # oc12
    991    112   3 -0.560000    43.501769614     2.203974247    19.502974998   0   0  -1 # oc12
    992    112   4 -0.940000    44.774688315     4.019887924     4.456923485   0   0   0 # oc13
    993    112   4 -0.940000    44.774688315     4.019887924    18.030076515   0   0  -1 # oc13
    994    112   4 -0.940000    42.149996352     4.037730694     4.366975307   0   0   0 # oc13
    995    112   4 -0.940000    42.149996352     4.037730694    18.120024693   0   0  -1 # oc13
    996    112   5 -0.580000    44.262141776     5.900132179     0.000000000   0   0   0 # ocx
    997    112   6 -0.820000    40.747531962     5.900291443     2.111529350   0   0   0 # o*
    998    112   3 -0.560000    43.563725066     7.199923992     2.138513803   0   0   0 # oc12
    999    112   3 -0.560000    43.563725066     7.199923992    -2.138513803   0   0   0 # oc12
   1000    112   4 -0.940000    42.172525954     0.365169197     4.387213707   0   0   0 # oc13
   1001    112   4 -0.940000    42.172525954     0.365169197    18.099786293   0   0  -1 # oc13
   1002    112   7  1.500000    40.719933104     5.909523964     4.622652531   0   0   0 # ca+t
   1003    112   7  1.500000    43.450514388     0.352926284     6.599484921   0   0   0 # ca+t
   1004    112   6 -0.820000    44.177655768     2.196558475     0.000000000   0   0   0 # o*
   1005    112   8  0.410000    43.650834915     2.009330029     0.805880017   0   0   0 # h*
   1006    112   8  0.410000    43.621686209     1.771574710    -0.690273314   0   0   0 # h*
   1007    112   8  0.410000    41.329322750     5.265369149     1.634546213   0   0   0 # h*
   1008    112   8  0.410000    39.969305674     5.906809908     1.506701131   0   0   0 # h*
   1009    113   1  1.000000     9.702299881    11.129854689     3.539004087   0   0   0 # sc2
   1010    113   1  1.000000     9.702299881    11.129854689    18.947995913   0   0  -1 # sc2
   1011    113   2  1.000000    10.550537872    13.283282051     1.600174904   0   0   0 # sc3
   1012    113   2  1.000000    10.550537872    13.283282051    -1.600174904   0   0   0 # sc3
   1013    113   1  1.000000     9.708495903     8.049939880     3.546874523   0   0   0 # sc2
   1014    113   1  1.000000     9.708495903     8.049939880    18.940125477   0   0  -1 # sc2
   1015    113   3 -0.560000     9.774957466    11.966202507     2.118275404   0   0   0 # oc12
   1016    113   3 -0.560000     9.774957466    11.966202507    -2.118275404   0   0   0 # oc12
   1017    113   3 -0.560000     9.707369614     9.588974247     2.984025002   0   0   0 # oc12
   1018    113   3 -0.560000     9.707369614     9.588974247    19.502974998   0   0  -1 # oc12
   1019    113   4 -0.940000    10.980288315    11.404887924     4.456923485   0   0   0 # oc13
   1020    113   4 -0.940000    10.980288315    11.404887924    18.030076515   0   0  -1 # oc13
   1021    113   4 -0.940000     8.355596352    11.422730694     4.366975307   0   0   0 # oc13
   1022    113   4 -0.940000     8.355596352    11.422730694    18.120024693   0   0  -1 # oc13
   1023    113   5 -0.580000    10.467741776    13.285132179     0.000000000   0   0   0 # ocx
   1024    113   6 -0.820000     6.953131962    13.285291443     2.111529350   0   0   0 # o*
   1025    113   3 -0.560000     9.769325066    14.584923992     2.138513803   0   0   0 # oc12
   1026    113   3 -0.560000     9.769325066    14.584923992    -2.138513803   0   0   0 # oc12
   1027    113   4 -0.940000     8.378125954     7.750169197     4.387213707   0   0   0 # oc13
   1028    113   4 -0.940000     8.378125954     7.750169197    18.099786293   0   0  -1 # oc13
   1029    113   7  1.500000     6.925533104    13.294523964     4.622652531   0   0   0 # ca+t
   1030    113   7  1.500000     9.656114388     7.737926284     6.599484921   0   0   0 # ca+t
   1031    113   6 -0.820000    10.383255768     9.581558475     0.000000000   0   0   0 # o*
   1032    113   8  0.410000     9.856434915     9.394330029     0.805880017   0   0   0 # h*
   1033    113   8  0.410000     9.827286209     9.156574710    -0.690273314   0   0   0 # h*
   1034    113   8  0.410000     7.534922750    12.650369149     1.634546213   0   0   0 # h*
   1035    113   8  0.410000     6.174905674    13.291809908     1.506701131   0   0   0 # h*
   1036    114   1  1.000000    20.967099881    11.129854689     3.539004087   0   0   0 # sc2
   1037    114   1  1.000000    20.967099881    11.129854689    18.947995913   0   0  -1 # sc2
   1038    114   2  1.000000    21.815337872    13.283282051     1.600174904   0   0   0 # sc3
   1039    114   2  1.000000    21.815337872    13.283282051    -1.600174904   0   0   0 # sc3
   1040    114   1  1.000000    20.973295903     8.049939880     3.546874523   0   0   0 # sc2
   1041    114   1  1.000000    20.973295903     8.049939880    18.940125477   0   0  -1 # sc2
   1042    114   3 -0.560000    21.039757466    11.966202507     2.118275404   0   0   0 # oc12
   1043    114   3 -0.560000    21.039757466    11.966202507    -2.118275404   0   0   0 # oc12
   1044    114   3 -0.560000    20.972169614     9.588974247     2.984025002   0   0   0 # oc12
   1045    114   3 -0.560000    20.972169614     9.588974247    19.502974998   0   0  -1 # oc12
   1046    114   4 -0.940000    22.245088315    11.404887924     4.456923485   0   0   0 # oc13
   1047    114   4 -0.940000    22.245088315    11.404887924    18.030076515   0   0  -1 # oc13
   1048    114   4 -0.940000    19.620396352    11.422730694     4.366975307   0   0   0 # oc13
   1049    114   4 -0.940000    19.620396352    11.422730694    18.120024693   0   0  -1 # oc13
   1050    114   5 -0.580000    21.732541776    13.285132179     0.000000000   0   0   0 # ocx
   1051    114   6 -0.820000    18.217931962    13.285291443     2.111529350   0   0   0 # o*
   1052    114   3 -0.560000    21.034125066    14.584923992     2.138513803   0   0   0 # oc12
   1053    114   3 -0.560000    21.034125066    14.584923992    -2.138513803   0   0   0 # oc12
   1054    114   4 -0.940000    19.642925954     7.750169197     4.387213707   0   0   0 # oc13
   1055    114   4 -0.940000    19.642925954     7.750169197    18.099786293   0   0  -1 # oc13
   1056    114   7  1.500000    18.190333104    13.294523964     4.622652531   0   0   0 # ca+t
   1057    114   7  1.500000    20.920914388     7.737926284     6.599484921   0   0   0 # ca+t
   1058    114   6 -0.820000    21.648055768     9.581558475     0.000000000   0   0   0 # o*
   1059    114   8  0.410000    21.121234915     9.394330029     0.805880017   0   0   0 # h*
   1060    114   8  0.410000    21.092086209     9.156574710    -0.690273314   0   0   0 # h*
   1061    114   8  0.410000    18.799722750    12.650369149     1.634546213   0   0   0 # h*
   1062    114   8  0.410000    17.439705674    13.291809908     1.506701131   0   0   0 # h*
   1063    115   1  1.000000    32.231899881    11.129854689     3.539004087   0   0   0 # sc2
   1064    115   1  1.000000    32.231899881    11.129854689    18.947995913   0   0  -1 # sc2
   1065    115   2  1.000000    33.080137872    13.283282051     1.600174904   0   0   0 # sc3
   1066    115   2  1.000000    33.080137872    13.283282051    -1.600174904   0   0   0 # sc3
   1067    115   1  1.000000    32.238095903     8.049939880     3.546874523   0   0   0 # sc2
   1068    115   1  1.000000    32.238095903     8.049939880    18.940125477   0   0  -1 # sc2
   1069    115   3 -0.560000    32.304557466    11.966202507     2.118275404   0   0   0 # oc12
   1070    115   3 -0.560000    32.304557466    11.966202507    -2.118275404   0   0   0 # oc12
   1071    115   3 -0.560000    32.236969614     9.588974247     2.984025002   0   0   0 # oc12
   1072    115   3 -0.560000    32.236969614     9.588974247    19.502974998   0   0  -1 # oc12
   1073    115   4 -0.940000    33.509888315    11.404887924     4.456923485   0   0   0 # oc13
   1074    115   4 -0.940000    33.509888315    11.404887924    18.030076515   0   0  -1 # oc13
   1075    115   4 -0.940000    30.885196352    11.422730694     4.366975307   0   0   0 # oc13
   1076    115   4 -0.940000    30.885196352    11.422730694    18.120024693   0   0  -1 # oc13
   1077    115   5 -0.580000    32.997341776    13.285132179     0.000000000   0   0   0 # ocx
   1078    115   6 -0.820000    29.482731962    13.285291443     2.111529350   0   0   0 # o*
   1079    115   3 -0.560000    32.298925066    14.584923992     2.138513803   0   0   0 # oc12
   1080    115   3 -0.560000    32.298925066    14.584923992    -2.138513803   0   0   0 # oc12
   1081    115   4 -0.940000    30.907725954     7.750169197     4.387213707   0   0   0 # oc13
   1082    115   4 -0.940000    30.907725954     7.750169197    18.099786293   0   0  -1 # oc13
   1083    115   7  1.500000    29.455133104    13.294523964     4.622652531   0   0   0 # ca+t
   1084    115   7  1.500000    32.185714388     7.737926284     6.599484921   0   0   0 # ca+t
   1085    115   6 -0.820000    32.912855768     9.581558475     0.000000000   0   0   0 # o*
   1086    115   8  0.410000    32.386034915     9.394330029     0.805880017   0   0   0 # h*
   1087    115   8  0.410000    32.356886209     9.156574710    -0.690273314   0   0   0 # h*
   1088    115   8  0.410000    30.064522750    12.650369149     1.634546213   0   0   0 # h*
   1089    115   8  0.410000    28.704505674    13.291809908     1.506701131   0   0   0 # h*
   1090    116   1  1.000000    43.496699881    11.129854689     3.539004087   0   0   0 # sc2
   1091    116   1  1.000000    43.496699881    11.129854689    18.947995913   0   0  -1 # sc2
   1092    116   2  1.000000    44.344937872    13.283282051     1.600174904   0   0   0 # sc3
   1093    116   2  1.000000    44.344937872    13.283282051    -1.600174904   0   0   0 # sc3
   1094    116   1  1.000000    43.502895903     8.049939880     3.546874523   0   0   0 # sc2
   1095    116   1  1.000000    43.502895903     8.049939880    18.940125477   0   0  -1 # sc2
   1096    116   3 -0.560000    43.569357466    11.966202507     2.118275404   0   0   0 # oc12
   1097    116   3 -0.560000    43.569357466    11.966202507    -2.118275404   0   0   0 # oc12
   1098    116   3 -0.560000    43.501769614     9.588974247     2.984025002   0   0   0 # oc12
   1099    116   3 -0.560000    43.501769614     9.588974247    19.502974998   0   0  -1 # oc12
   1100    116   4 -0.940000    44.774688315    11.404887924     4.456923485   0   0   0 # oc13
   1101    116   4 -0.940000    44.774688315    11.404887924    18.030076515   0   0  -1 # oc13
   1102    116   4 -0.940000    42.149996352    11.422730694     4.366975307   0   0   0 # oc13
   1103    116   4 -0.940000    42.149996352    11.422730694    18.120024693   0   0  -1 # oc13
   1104    116   5 -0.580000    44.262141776    13.285132179     0.000000000   0   0   0 # ocx
   1105    116   6 -0.820000    40.747531962    13.285291443     2.111529350   0   0   0 # o*
   1106    116   3 -0.560000    43.563725066    14.584923992     2.138513803   0   0   0 # oc12
   1107    116   3 -0.560000    43.563725066    14.584923992    -2.138513803   0   0   0 # oc12
   1108    116   4 -0.940000    42.172525954     7.750169197     4.387213707   0   0   0 # oc13
   1109    116   4 -0.940000    42.172525954     7.750169197    18.099786293   0   0  -1 # oc13
   1110    116   7  1.500000    40.719933104    13.294523964     4.622652531   0   0   0 # ca+t
   1111    116   7  1.500000    43.450514388     7.737926284     6.599484921   0   0   0 # ca+t
   1112    116   6 -0.820000    44.177655768     9.581558475     0.000000000   0   0   0 # o*
   1113    116   8  0.410000    43.650834915     9.394330029     0.805880017   0   0   0 # h*
   1114    116   8  0.410000    43.621686209     9.156574710    -0.690273314   0   0   0 # h*
   1115    116   8  0.410000    41.329322750    12.650369149     1.634546213   0   0   0 # h*
   1116    116   8  0.410000    39.969305674    13.291809908     1.506701131   0   0   0 # h*
   1117    117   1  1.000000     9.702299881    18.514854689     3.539004087   0   0   0 # sc2
   1118    117   1  1.000000     9.702299881    18.514854689    18.947995913   0   0  -1 # sc2
   1119    117   2  1.000000    10.550537872    20.668282051     1.600174904   0   0   0 # sc3
   1120    117   2  1.000000    10.550537872    20.668282051    -1.600174904   0   0   0 # sc3
   1121    117   1  1.000000     9.708495903    15.434939880     3.546874523   0   0   0 # sc2
   1122    117   1  1.000000     9.708495903    15.434939880    18.940125477   0   0  -1 # sc2
   1123    117   3 -0.560000     9.774957466    19.351202507     2.118275404   0   0   0 # oc12
   1124    117   3 -0.560000     9.774957466    19.351202507    -2.118275404   0   0   0 # oc12
   1125    117   3 -0.560000     9.707369614    16.973974247     2.984025002   0   0   0 # oc12
   1126    117   3 -0.560000     9.707369614    16.973974247    19.502974998   0   0  -1 # oc12
   1127    117   4 -0.940000    10.980288315    18.789887924     4.456923485   0   0   0 # oc13
   1128    117   4 -0.940000    10.980288315    18.789887924    18.030076515   0   0  -1 # oc13
   1129    117   4 -0.940000     8.355596352    18.807730694     4.366975307   0   0   0 # oc13
   1130    117   4 -0.940000     8.355596352    18.807730694    18.120024693   0   0  -1 # oc13
   1131    117   5 -0.580000    10.467741776    20.670132179     0.000000000   0   0   0 # ocx
   1132    117   6 -0.820000     6.953131962    20.670291443     2.111529350   0   0   0 # o*
   1133    117   3 -0.560000     9.769325066    -0.185076008     2.138513803   0   1   0 # oc12
   1134    117   3 -0.560000     9.769325066    -0.185076008    -2.138513803   0   1   0 # oc12
   1135    117   4 -0.940000     8.378125954    15.135169197     4.387213707   0   0   0 # oc13
   1136    117   4 -0.940000     8.378125954    15.135169197    18.099786293   0   0  -1 # oc13
   1137    117   7  1.500000     6.925533104    20.679523964     4.622652531   0   0   0 # ca+t
   1138    117   7  1.500000     9.656114388    15.122926284     6.599484921   0   0   0 # ca+t
   1139    117   6 -0.820000    10.383255768    16.966558475     0.000000000   0   0   0 # o*
   1140    117   8  0.410000     9.856434915    16.779330029     0.805880017   0   0   0 # h*
   1141    117   8  0.410000     9.827286209    16.541574710    -0.690273314   0   0   0 # h*
   1142    117   8  0.410000     7.534922750    20.035369149     1.634546213   0   0   0 # h*
   1143    117   8  0.410000     6.174905674    20.676809908     1.506701131   0   0   0 # h*
   1144    118   1  1.000000    20.967099881    18.514854689     3.539004087   0   0   0 # sc2
   1145    118   1  1.000000    20.967099881    18.514854689    18.947995913   0   0  -1 # sc2
   1146    118   2  1.000000    21.815337872    20.668282051     1.600174904   0   0   0 # sc3
   1147    118   2  1.000000    21.815337872    20.668282051    -1.600174904   0   0   0 # sc3
   1148    118   1  1.000000    20.973295903    15.434939880     3.546874523   0   0   0 # sc2
   1149    118   1  1.000000    20.973295903    15.434939880    18.940125477   0   0  -1 # sc2
   1150    118   3 -0.560000    21.039757466    19.351202507     2.118275404   0   0   0 # oc12
   1151    118   3 -0.560000    21.039757466    19.351202507    -2.118275404   0   0   0 # oc12
   1152    118   3 -0.560000    20.972169614    16.973974247     2.984025002   0   0   0 # oc12
   1153    118   3 -0.560000    20.972169614    16.973974247    19.502974998   0   0  -1 # oc12
   1154    118   4 -0.940000    22.245088315    18.789887924     4.456923485   0   0   0 # oc13
   1155    118   4 -0.940000    22.245088315    18.789887924    18.030076515   0   0  -1 # oc13
   1156    118   4 -0.940000    19.620396352    18.807730694     4.366975307   0   0   0 # oc13
   1157    118   4 -0.940000    19.620396352    18.807730694    18.120024693   0   0  -1 # oc13
   1158    118   5 -0.580000    21.732541776    20.670132179     0.000000000   0   0   0 # ocx
   1159    118   6 -0.820000    18.217931962    20.670291443     2.111529350   0   0   0 # o*
   1160    118   3 -0.560000    21.034125066    -0.185076008     2.138513803   0   1   0 # oc12
   1161    118   3 -0.560000    21.034125066    -0.185076008    -2.138513803   0   1   0 # oc12
   1162    118   4 -0.940000    19.642925954    15.135169197     4.387213707   0   0   0 # oc13
   1163    118   4 -0.940000    19.642925954    15.135169197    18.099786293   0   0  -1 # oc13
   1164    118   7  1.500000    18.190333104    20.679523964     4.622652531   0   0   0 # ca+t
   1165    118   7  1.500000    20.920914388    15.122926284     6.599484921   0   0   0 # ca+t
   1166    118   6 -0.820000    21.648055768    16.966558475     0.000000000   0   0   0 # o*
   1167    118   8  0.410000    21.121234915    16.779330029     0.805880017   0   0   0 # h*
   1168    118   8  0.410000    21.092086209    16.541574710    -0.690273314   0   0   0 # h*
   1169    118   8  0.410000    18.799722750    20.035369149     1.634546213   0   0   0 # h*
   1170    118   8  0.410000    17.439705674    20.676809908     1.506701131   0   0   0 # h*
   1171    119   1  1.000000    32.231899881    18.514854689     3.539004087   0   0   0 # sc2
   1172    119   1  1.000000    32.231899881    18.514854689    18.947995913   0   0  -1 # sc2
   1173    119   2  1.000000    33.080137872    20.668282051     1.600174904   0   0   0 # sc3
   1174    119   2  1.000000    33.080137872    20.668282051    -1.600174904   0   0   0 # sc3
   1175    119   1  1.000000    32.238095903    15.434939880     3.546874523   0   0   0 # sc2
   1176    119   1  1.000000    32.238095903    15.434939880    18.940125477   0   0  -1 # sc2
   1177    119   3 -0.560000    32.304557466    19.351202507     2.118275404   0   0   0 # oc12
   1178    119   3 -0.560000    32.304557466    19.351202507    -2.118275404   0   0   0 # oc12
   1179    119   3 -0.560000    32.236969614    16.973974247     2.984025002   0   0   0 # oc12
   1180    119   3 -0.560000    32.236969614    16.973974247    19.502974998   0   0  -1 # oc12
   1181    119   4 -0.940000    33.509888315    18.789887924     4.456923485   0   0   0 # oc13
   1182    119   4 -0.940000    33.509888315    18.789887924    18.030076515   0   0  -1 # oc13
   1183    119   4 -0.940000    30.885196352    18.807730694     4.366975307   0   0   0 # oc13
   1184    119   4 -0.940000    30.885196352    18.807730694    18.120024693   0   0  -1 # oc13
   1185    119   5 -0.580000    32.997341776    20.670132179     0.000000000   0   0   0 # ocx
   1186    119   6 -0.820000    29.482731962    20.670291443     2.111529350   0   0   0 # o*
   1187    119   3 -0.560000    32.298925066    -0.185076008     2.138513803   0   1   0 # oc12
   1188    119   3 -0.560000    32.298925066    -0.185076008    -2.138513803   0   1   0 # oc12
   1189    119   4 -0.940000    30.907725954    15.135169197     4.387213707   0   0   0 # oc13
   1190    119   4 -0.940000    30.907725954    15.135169197    18.099786293   0   0  -1 # oc13
   1191    119   7  1.500000    29.455133104    20.679523964     4.622652531   0   0   0 # ca+t
   1192    119   7  1.500000    32.185714388    15.122926284     6.599484921   0   0   0 # ca+t
   1193    119   6 -0.820000    32.912855768    16.966558475     0.000000000   0   0   0 # o*
   1194    119   8  0.410000    32.386034915    16.779330029     0.805880017   0   0   0 # h*
   1195    119   8  0.410000    32.356886209    16.541574710    -0.690273314   0   0   0 # h*
   1196    119   8  0.410000    30.064522750    20.035369149     1.634546213   0   0   0 # h*
   1197    119   8  0.410000    28.704505674    20.676809908     1.506701131   0   0   0 # h*
   1198    120   1  1.000000    43.496699881    18.514854689     3.539004087   0   0   0 # sc2
   1199    120   1  1.000000    43.496699881    18.514854689    18.947995913   0   0  -1 # sc2
   1200    120   2  1.000000    44.344937872    20.668282051     1.600174904   0   0   0 # sc3
   1201    120   2  1.000000    44.344937872    20.668282051    -1.600174904   0   0   0 # sc3
   1202    120   1  1.000000    43.502895903    15.434939880     3.546874523   0   0   0 # sc2
   1203    120   1  1.000000    43.502895903    15.434939880    18.940125477   0   0  -1 # sc2
   1204    120   3 -0.560000    43.569357466    19.351202507     2.118275404   0   0   0 # oc12
   1205    120   3 -0.560000    43.569357466    19.351202507    -2.118275404   0   0   0 # oc12
   1206    120   3 -0.560000    43.501769614    16.973974247     2.984025002   0   0   0 # oc12
   1207    120   3 -0.560000    43.501769614    16.973974247    19.502974998   0   0  -1 # oc12
   1208    120   4 -0.940000    44.774688315    18.789887924     4.456923485   0   0   0 # oc13
   1209    120   4 -0.940000    44.774688315    18.789887924    18.030076515   0   0  -1 # oc13
   1210    120   4 -0.940000    42.149996352    18.807730694     4.366975307   0   0   0 # oc13
   1211    120   4 -0.940000    42.149996352    18.807730694    18.120024693   0   0  -1 # oc13
   1212    120   5 -0.580000    44.262141776    20.670132179     0.000000000   0   0   0 # ocx
   1213    120   6 -0.820000    40.747531962    20.670291443     2.111529350   0   0   0 # o*
   1214    120   3 -0.560000    43.563725066    -0.185076008     2.138513803   0   1   0 # oc12
   1215    120   3 -0.560000    43.563725066    -0.185076008    -2.138513803   0   1   0 # oc12
   1216    120   4 -0.940000    42.172525954    15.135169197     4.387213707   0   0   0 # oc13
   1217    120   4 -0.940000    42.172525954    15.135169197    18.099786293   0   0  -1 # oc13
   1218    120   7  1.500000    40.719933104    20.679523964     4.622652531   0   0   0 # ca+t
   1219    120   7  1.500000    43.450514388    15.122926284     6.599484921   0   0   0 # ca+t
   1220    120   6 -0.820000    44.177655768    16.966558475     0.000000000   0   0   0 # o*
   1221    120   8  0.410000    43.650834915    16.779330029     0.805880017   0   0   0 # h*
   1222    120   8  0.410000    43.621686209    16.541574710    -0.690273314   0   0   0 # h*
   1223    120   8  0.410000    41.329322750    20.035369149     1.634546213   0   0   0 # h*
   1224    120   8  0.410000    39.969305674    20.676809908     1.506701131   0   0   0 # h*
   1225    121   6 -0.820000     7.837416458     3.732753754     0.000000000   0   0   1 # o*
   1226    121   8  0.410000     8.821590449     3.745874364    -0.021602700   0   0   1 # h*
   1227    121   8  0.410000     7.659799842     4.109749895    -0.890763131   0   0   1 # h*
   1228    122   6 -0.820000    19.102216458     3.732753754     0.000000000   0   0   1 # o*
   1229    122   8  0.410000    20.086390449     3.745874364    -0.021602700   0   0   1 # h*
   1230    122   8  0.410000    18.924599842     4.109749895    -0.890763131   0   0   1 # h*
   1231    123   6 -0.820000    30.367016458     3.732753754     0.000000000   0   0   1 # o*
   1232    123   8  0.410000    31.351190449     3.745874364    -0.021602700   0   0   1 # h*
   1233    123   8  0.410000    30.189399842     4.109749895    -0.890763131   0   0   1 # h*
   1234    124   6 -0.820000    41.631816458     3.732753754     0.000000000   0   0   1 # o*
   1235    124   8  0.410000    42.615990449     3.745874364    -0.021602700   0   0   1 # h*
   1236    124   8  0.410000    41.454199842     4.109749895    -0.890763131   0   0   1 # h*
   1237    125   6 -0.820000     7.837416458    11.117753754     0.000000000   0   0   1 # o*
   1238    125   8  0.410000     8.821590449    11.130874364    -0.021602700   0   0   1 # h*
   1239    125   8  0.410000     7.659799842    11.494749895    -0.890763131   0   0   1 # h*
   1240    126   6 -0.820000    19.102216458    11.117753754     0.000000000   0   0   1 # o*
   1241    126   8  0.410000    20.086390449    11.130874364    -0.021602700   0   0   1 # h*
   1242    126   8  0.410000    18.924599842    11.494749895    -0.890763131   0   0   1 # h*
   1243    127   6 -0.820000    30.367016458    11.117753754     0.000000000   0   0   1 # o*
   1244    127   8  0.410000    31.351190449    11.130874364    -0.021602700   0   0   1 # h*
   1245    127   8  0.410000    30.189399842    11.494749895    -0.890763131   0   0   1 # h*
   1246    128   6 -0.820000    41.631816458    11.117753754     0.000000000   0   0   1 # o*
   1247    128   8  0.410000    42.615990449    11.130874364    -0.021602700   0   0   1 # h*
   1248    128   8  0.410000    41.454199842    11.494749895    -0.890763131   0   0   1 # h*
   1249    129   6 -0.820000     7.837416458    18.502753754     0.000000000   0   0   1 # o*
   1250    129   8  0.410000     8.821590449    18.515874364    -0.021602700   0   0   1 # h*
   1251    129   8  0.410000     7.659799842    18.879749895    -0.890763131   0   0   1 # h*
   1252    130   6 -0.820000    19.102216458    18.502753754     0.000000000   0   0   1 # o*
   1253    130   8  0.410000    20.086390449    18.515874364    -0.021602700   0   0   1 # h*
   1254    130   8  0.410000    18.924599842    18.879749895    -0.890763131   0   0   1 # h*
   1255    131   6 -0.820000    30.367016458    18.502753754     0.000000000   0   0   1 # o*
   1256    131   8  0.410000    31.351190449    18.515874364    -0.021602700   0   0   1 # h*
   1257    131   8  0.410000    30.189399842    18.879749895    -0.890763131   0   0   1 # h*
   1258    132   6 -0.820000    41.631816458    18.502753754     0.000000000   0   0   1 # o*
   1259    132   8  0.410000    42.615990449    18.515874364    -0.021602700   0   0   1 # h*
   1260    132   8  0.410000    41.454199842    18.879749895    -0.890763131   0   0   1 # h*
   1261    133   1  1.000000     6.886106300     5.591232300    14.782504082   0   0   0 # sc2
   1262    133   1  1.000000     6.886106300     5.591232300     7.704495907   0   0   0 # sc2
   1263    133   2  1.000000     7.734343815     0.359659672    12.843674660   0   0   0 # sc3
   1264    133   2  1.000000     7.734343815     0.359659672     9.643324852   0   0   0 # sc3
   1265    133   1  1.000000     6.892301846     2.511317253    14.790374756   0   0   0 # sc2
   1266    133   1  1.000000     6.892301846     2.511317253     7.696625710   0   0   0 # sc2
   1267    133   3 -0.560000     6.958764362     6.427579880    13.361775398   0   0   0 # oc12
   1268    133   3 -0.560000     6.958764362     6.427579880     9.125225067   0   0   0 # oc12
   1269    133   3 -0.560000     6.891175556     4.050351620    14.227524757   0   0   0 # oc12
   1270    133   3 -0.560000     6.891175556     4.050351620     8.259474754   0   0   0 # oc12
   1271    133   4 -0.940000     8.164094734     5.866265774    15.700423241   0   0   0 # oc13
   1272    133   4 -0.940000     8.164094734     5.866265774     6.786576748   0   0   0 # oc13
   1273    133   4 -0.940000     5.539402771     5.884108067    15.610475540   0   0   0 # oc13
   1274    133   4 -0.940000     5.539402771     5.884108067     6.876524925   0   0   0 # oc13
   1275    133   5 -0.580000     7.651547718     0.361509591    11.243499756   0   0   0 # ocx
   1276    133   3 -0.560000     6.953131962     1.661301255    13.382014275   0   0   0 # oc12
   1277    133   3 -0.560000     6.953131962     1.661301255     9.104986191   0   0   0 # oc12
   1278    133   4 -0.940000     5.561931896     2.211546659    15.630713463   0   0   0 # oc13
   1279    133   4 -0.940000     5.561931896     2.211546659     6.856286526   0   0   0 # oc13
   1280    133   7  1.500000     6.839920807     2.199303627     4.644015312   0   0   0 # ca+t
   1281    133   6 -0.820000     7.567062187     4.042935848    11.243499756   0   0   0 # o*
   1282    133   8  0.410000     7.034224519     4.134419708    10.423515706   0   0   0 # h*
   1283    133   8  0.410000     6.959306385     4.445371949    11.903722836   0   0   0 # h*
   1284    134   1  1.000000    18.150906300     5.591232300    14.782504082   0   0   0 # sc2
   1285    134   1  1.000000    18.150906300     5.591232300     7.704495907   0   0   0 # sc2
   1286    134   2  1.000000    18.999143815     0.359659672    12.843674660   0   0   0 # sc3
   1287    134   2  1.000000    18.999143815     0.359659672     9.643324852   0   0   0 # sc3
   1288    134   1  1.000000    18.157101846     2.511317253    14.790374756   0   0   0 # sc2
   1289    134   1  1.000000    18.157101846     2.511317253     7.696625710   0   0   0 # sc2
   1290    134   3 -0.560000    18.223564362     6.427579880    13.361775398   0   0   0 # oc12
   1291    134   3 -0.560000    18.223564362     6.427579880     9.125225067   0   0   0 # oc12
   1292    134   3 -0.560000    18.155975556     4.050351620    14.227524757   0   0   0 # oc12
   1293    134   3 -0.560000    18.155975556     4.050351620     8.259474754   0   0   0 # oc12
   1294    134   4 -0.940000    19.428894734     5.866265774    15.700423241   0   0   0 # oc13
   1295    134   4 -0.940000    19.428894734     5.866265774     6.786576748   0   0   0 # oc13
   1296    134   4 -0.940000    16.804202771     5.884108067    15.610475540   0   0   0 # oc13
   1297    134   4 -0.940000    16.804202771     5.884108067     6.876524925   0   0   0 # oc13
   1298    134   5 -0.580000    18.916347718     0.361509591    11.243499756   0   0   0 # ocx
   1299    134   3 -0.560000    18.217931962     1.661301255    13.382014275   0   0   0 # oc12
   1300    134   3 -0.560000    18.217931962     1.661301255     9.104986191   0   0   0 # oc12
   1301    134   4 -0.940000    16.826731896     2.211546659    15.630713463   0   0   0 # oc13
   1302    134   4 -0.940000    16.826731896     2.211546659     6.856286526   0   0   0 # oc13
   1303    134   7  1.500000    18.104720807     2.199303627     4.644015312   0   0   0 # ca+t
   1304    134   6 -0.820000    18.831862187     4.042935848    11.243499756   0   0   0 # o*
   1305    134   8  0.410000    18.299024519     4.134419708    10.423515706   0   0   0 # h*
   1306    134   8  0.410000    18.224106385     4.445371949    11.903722836   0   0   0 # h*
   1307    135   1  1.000000    29.415706300     5.591232300    14.782504082   0   0   0 # sc2
   1308    135   1  1.000000    29.415706300     5.591232300     7.704495907   0   0   0 # sc2
   1309    135   2  1.000000    30.263943815     0.359659672    12.843674660   0   0   0 # sc3
   1310    135   2  1.000000    30.263943815     0.359659672     9.643324852   0   0   0 # sc3
   1311    135   1  1.000000    29.421901846     2.511317253    14.790374756   0   0   0 # sc2
   1312    135   1  1.000000    29.421901846     2.511317253     7.696625710   0   0   0 # sc2
   1313    135   3 -0.560000    29.488364362     6.427579880    13.361775398   0   0   0 # oc12
   1314    135   3 -0.560000    29.488364362     6.427579880     9.125225067   0   0   0 # oc12
   1315    135   3 -0.560000    29.420775556     4.050351620    14.227524757   0   0   0 # oc12
   1316    135   3 -0.560000    29.420775556     4.050351620     8.259474754   0   0   0 # oc12
   1317    135   4 -0.940000    30.693694734     5.866265774    15.700423241   0   0   0 # oc13
   1318    135   4 -0.940000    30.693694734     5.866265774     6.786576748   0   0   0 # oc13
   1319    135   4 -0.940000    28.069002771     5.884108067    15.610475540   0   0   0 # oc13
   1320    135   4 -0.940000    28.069002771     5.884108067     6.876524925   0   0   0 # oc13
   1321    135   5 -0.580000    30.181147718     0.361509591    11.243499756   0   0   0 # ocx
   1322    135   3 -0.560000    29.482731962     1.661301255    13.382014275   0   0   0 # oc12
   1323    135   3 -0.560000    29.482731962     1.661301255     9.104986191   0   0   0 # oc12
   1324    135   4 -0.940000    28.091531896     2.211546659    15.630713463   0   0   0 # oc13
   1325    135   4 -0.940000    28.091531896     2.211546659     6.856286526   0   0   0 # oc13
   1326    135   7  1.500000    29.369520807     2.199303627     4.644015312   0   0   0 # ca+t
   1327    135   6 -0.820000    30.096662187     4.042935848    11.243499756   0   0   0 # o*
   1328    135   8  0.410000    29.563824519     4.134419708    10.423515706   0   0   0 # h*
   1329    135   8  0.410000    29.488906385     4.445371949    11.903722836   0   0   0 # h*
   1330    136   1  1.000000    40.680506300     5.591232300    14.782504082   0   0   0 # sc2
   1331    136   1  1.000000    40.680506300     5.591232300     7.704495907   0   0   0 # sc2
   1332    136   2  1.000000    41.528743815     0.359659672    12.843674660   0   0   0 # sc3
   1333    136   2  1.000000    41.528743815     0.359659672     9.643324852   0   0   0 # sc3
   1334    136   1  1.000000    40.686701846     2.511317253    14.790374756   0   0   0 # sc2
   1335    136   1  1.000000    40.686701846     2.511317253     7.696625710   0   0   0 # sc2
   1336    136   3 -0.560000    40.753164362     6.427579880    13.361775398   0   0   0 # oc12
   1337    136   3 -0.560000    40.753164362     6.427579880     9.125225067   0   0   0 # oc12
   1338    136   3 -0.560000    40.685575556     4.050351620    14.227524757   0   0   0 # oc12
   1339    136   3 -0.560000    40.685575556     4.050351620     8.259474754   0   0   0 # oc12
   1340    136   4 -0.940000    41.958494734     5.866265774    15.700423241   0   0   0 # oc13
   1341    136   4 -0.940000    41.958494734     5.866265774     6.786576748   0   0   0 # oc13
   1342    136   4 -0.940000    39.333802771     5.884108067    15.610475540   0   0   0 # oc13
   1343    136   4 -0.940000    39.333802771     5.884108067     6.876524925   0   0   0 # oc13
   1344    136   5 -0.580000    41.445947718     0.361509591    11.243499756   0   0   0 # ocx
   1345    136   3 -0.560000    40.747531962     1.661301255    13.382014275   0   0   0 # oc12
   1346    136   3 -0.560000    40.747531962     1.661301255     9.104986191   0   0   0 # oc12
   1347    136   4 -0.940000    39.356331896     2.211546659    15.630713463   0   0   0 # oc13
   1348    136   4 -0.940000    39.356331896     2.211546659     6.856286526   0   0   0 # oc13
   1349    136   7  1.500000    40.634320807     2.199303627     4.644015312   0   0   0 # ca+t
   1350    136   6 -0.820000    41.361462187     4.042935848    11.243499756   0   0   0 # o*
   1351    136   8  0.410000    40.828624519     4.134419708    10.423515706   0   0   0 # h*
   1352    136   8  0.410000    40.753706385     4.445371949    11.903722836   0   0   0 # h*
   1353    137   1  1.000000     6.886106300    12.976232300    14.782504082   0   0   0 # sc2
   1354    137   1  1.000000     6.886106300    12.976232300     7.704495907   0   0   0 # sc2
   1355    137   2  1.000000     7.734343815     7.744659672    12.843674660   0   0   0 # sc3
   1356    137   2  1.000000     7.734343815     7.744659672     9.643324852   0   0   0 # sc3
   1357    137   1  1.000000     6.892301846     9.896317253    14.790374756   0   0   0 # sc2
   1358    137   1  1.000000     6.892301846     9.896317253     7.696625710   0   0   0 # sc2
   1359    137   3 -0.560000     6.958764362    13.812579880    13.361775398   0   0   0 # oc12
   1360    137   3 -0.560000     6.958764362    13.812579880     9.125225067   0   0   0 # oc12
   1361    137   3 -0.560000     6.891175556    11.435351620    14.227524757   0   0   0 # oc12
   1362    137   3 -0.560000     6.891175556    11.435351620     8.259474754   0   0   0 # oc12
   1363    137   4 -0.940000     8.164094734    13.251265774    15.700423241   0   0   0 # oc13
   1364    137   4 -0.940000     8.164094734    13.251265774     6.786576748   0   0   0 # oc13
   1365    137   4 -0.940000     5.539402771    13.269108067    15.610475540   0   0   0 # oc13
   1366    137   4 -0.940000     5.539402771    13.269108067     6.876524925   0   0   0 # oc13
   1367    137   5 -0.580000     7.651547718     7.746509591    11.243499756   0   0   0 # ocx
   1368    137   3 -0.560000     6.953131962     9.046301255    13.382014275   0   0   0 # oc12
   1369    137   3 -0.560000     6.953131962     9.046301255     9.104986191   0   0   0 # oc12
   1370    137   4 -0.940000     5.561931896     9.596546659    15.630713463   0   0   0 # oc13
   1371    137   4 -0.940000     5.561931896     9.596546659     6.856286526   0   0   0 # oc13
   1372    137   7  1.500000     6.839920807     9.584303627     4.644015312   0   0   0 # ca+t
   1373    137   6 -0.820000     7.567062187    11.427935848    11.243499756   0   0   0 # o*
   1374    137   8  0.410000     7.034224519    11.519419708    10.423515706   0   0   0 # h*
   1375    137   8  0.410000     6.959306385    11.830371949    11.903722836   0   0   0 # h*
   1376    138   1  1.000000    18.150906300    12.976232300    14.782504082   0   0   0 # sc2
   1377    138   1  1.000000    18.150906300    12.976232300     7.704495907   0   0   0 # sc2
   1378    138   2  1.000000    18.999143815     7.744659672    12.843674660   0   0   0 # sc3
   1379    138   2  1.000000    18.999143815     7.744659672     9.643324852   0   0   0 # sc3
   1380    138   1  1.000000    18.157101846     9.896317253    14.790374756   0   0   0 # sc2
   1381    138   1  1.000000    18.157101846     9.896317253     7.696625710   0   0   0 # sc2
   1382    138   3 -0.560000    18.223564362    13.812579880    13.361775398   0   0   0 # oc12
   1383    138   3 -0.560000    18.223564362    13.812579880     9.125225067   0   0   0 # oc12
   1384    138   3 -0.560000    18.155975556    11.435351620    14.227524757   0   0   0 # oc12
   1385    138   3 -0.560000    18.155975556    11.435351620     8.259474754   0   0   0 # oc12
   1386    138   4 -0.940000    19.428894734    13.251265774    15.700423241   0   0   0 # oc13
   1387    138   4 -0.940000    19.428894734    13.251265774     6.786576748   0   0   0 # oc13
   1388    138   4 -0.940000    16.804202771    13.269108067    15.610475540   0   0   0 # oc13
   1389    138   4 -0.940000    16.804202771    13.269108067     6.876524925   0   0   0 # oc13
   1390    138   5 -0.580000    18.916347718     7.746509591    11.243499756   0   0   0 # ocx
   1391    138   3 -0.560000    18.217931962     9.046301255    13.382014275   0   0   0 # oc12
   1392    138   3 -0.560000    18.217931962     9.046301255     9.104986191   0   0   0 # oc12
   1393    138   4 -0.940000    16.826731896     9.596546659    15.630713463   0   0   0 # oc13
   1394    138   4 -0.940000    16.826731896     9.596546659     6.856286526   0   0   0 # oc13
   1395    138   7  1.500000    18.104720807     9.584303627     4.644015312   0   0   0 # ca+t
   1396    138   6 -0.820000    18.831862187    11.427935848    11.243499756   0   0   0 # o*
   1397    138   8  0.410000    18.299024519    11.519419708    10.423515706   0   0   0 # h*
   1398    138   8  0.410000    18.224106385    11.830371949    11.903722836   0   0   0 # h*
   1399    139   1  1.000000    29.415706300    12.976232300    14.782504082   0   0   0 # sc2
   1400    139   1  1.000000    29.415706300    12.976232300     7.704495907   0   0   0 # sc2
   1401    139   2  1.000000    30.263943815     7.744659672    12.843674660   0   0   0 # sc3
   1402    139   2  1.000000    30.263943815     7.744659672     9.643324852   0   0   0 # sc3
   1403    139   1  1.000000    29.421901846     9.896317253    14.790374756   0   0   0 # sc2
   1404    139   1  1.000000    29.421901846     9.896317253     7.696625710   0   0   0 # sc2
   1405    139   3 -0.560000    29.488364362    13.812579880    13.361775398   0   0   0 # oc12
   1406    139   3 -0.560000    29.488364362    13.812579880     9.125225067   0   0   0 # oc12
   1407    139   3 -0.560000    29.420775556    11.435351620    14.227524757   0   0   0 # oc12
   1408    139   3 -0.560000    29.420775556    11.435351620     8.259474754   0   0   0 # oc12
   1409    139   4 -0.940000    30.693694734    13.251265774    15.700423241   0   0   0 # oc13
   1410    139   4 -0.940000    30.693694734    13.251265774     6.786576748   0   0   0 # oc13
   1411    139   4 -0.940000    28.069002771    13.269108067    15.610475540   0   0   0 # oc13
   1412    139   4 -0.940000    28.069002771    13.269108067     6.876524925   0   0   0 # oc13
   1413    139   5 -0.580000    30.181147718     7.746509591    11.243499756   0   0   0 # ocx
   1414    139   3 -0.560000    29.482731962     9.046301255    13.382014275   0   0   0 # oc12
   1415    139   3 -0.560000    29.482731962     9.046301255     9.104986191   0   0   0 # oc12
   1416    139   4 -0.940000    28.091531896     9.596546659    15.630713463   0   0   0 # oc13
   1417    139   4 -0.940000    28.091531896     9.596546659     6.856286526   0   0   0 # oc13
   1418    139   7  1.500000    29.369520807     9.584303627     4.644015312   0   0   0 # ca+t
   1419    139   6 -0.820000    30.096662187    11.427935848    11.243499756   0   0   0 # o*
   1420    139   8  0.410000    29.563824519    11.519419708    10.423515706   0   0   0 # h*
   1421    139   8  0.410000    29.488906385    11.830371949    11.903722836   0   0   0 # h*
   1422    140   1  1.000000    40.680506300    12.976232300    14.782504082   0   0   0 # sc2
   1423    140   1  1.000000    40.680506300    12.976232300     7.704495907   0   0   0 # sc2
   1424    140   2  1.000000    41.528743815     7.744659672    12.843674660   0   0   0 # sc3
   1425    140   2  1.000000    41.528743815     7.744659672     9.643324852   0   0   0 # sc3
   1426    140   1  1.000000    40.686701846     9.896317253    14.790374756   0   0   0 # sc2
   1427    140   1  1.000000    40.686701846     9.896317253     7.696625710   0   0   0 # sc2
   1428    140   3 -0.560000    40.753164362    13.812579880    13.361775398   0   0   0 # oc12
   1429    140   3 -0.560000    40.753164362    13.812579880     9.125225067   0   0   0 # oc12
   1430    140   3 -0.560000    40.685575556    11.435351620    14.227524757   0   0   0 # oc12
   1431    140   3 -0.560000    40.685575556    11.435351620     8.259474754   0   0   0 # oc12
   1432    140   4 -0.940000    41.958494734    13.251265774    15.700423241   0   0   0 # oc13
   1433    140   4 -0.940000    41.958494734    13.251265774     6.786576748   0   0   0 # oc13
   1434    140   4 -0.940000    39.333802771    13.269108067    15.610475540   0   0   0 # oc13
   1435    140   4 -0.940000    39.333802771    13.269108067     6.876524925   0   0   0 # oc13
   1436    140   5 -0.580000    41.445947718     7.746509591    11.243499756   0   0   0 # ocx
   1437    140   3 -0.560000    40.747531962     9.046301255    13.382014275   0   0   0 # oc12
   1438    140   3 -0.560000    40.747531962     9.046301255     9.104986191   0   0   0 # oc12
   1439    140   4 -0.940000    39.356331896     9.596546659    15.630713463   0   0   0 # oc13
   1440    140   4 -0.940000    39.356331896     9.596546659     6.856286526   0   0   0 # oc13
   1441    140   7  1.500000    40.634320807     9.584303627     4.644015312   0   0   0 # ca+t
   1442    140   6 -0.820000    41.361462187    11.427935848    11.243499756   0   0   0 # o*
   1443    140   8  0.410000    40.828624519    11.519419708    10.423515706   0   0   0 # h*
   1444    140   8  0.410000    40.753706385    11.830371949    11.903722836   0   0   0 # h*
   1445    141   1  1.000000     6.886106300    20.361232300    14.782504082   0   0   0 # sc2
   1446    141   1  1.000000     6.886106300    20.361232300     7.704495907   0   0   0 # sc2
   1447    141   2  1.000000     7.734343815    15.129659672    12.843674660   0   0   0 # sc3
   1448    141   2  1.000000     7.734343815    15.129659672     9.643324852   0   0   0 # sc3
   1449    141   1  1.000000     6.892301846    17.281317253    14.790374756   0   0   0 # sc2
   1450    141   1  1.000000     6.892301846    17.281317253     7.696625710   0   0   0 # sc2
   1451    141   3 -0.560000     6.958764362    21.197579880    13.361775398   0   0   0 # oc12
   1452    141   3 -0.560000     6.958764362    21.197579880     9.125225067   0   0   0 # oc12
   1453    141   3 -0.560000     6.891175556    18.820351620    14.227524757   0   0   0 # oc12
   1454    141   3 -0.560000     6.891175556    18.820351620     8.259474754   0   0   0 # oc12
   1455    141   4 -0.940000     8.164094734    20.636265774    15.700423241   0   0   0 # oc13
   1456    141   4 -0.940000     8.164094734    20.636265774     6.786576748   0   0   0 # oc13
   1457    141   4 -0.940000     5.539402771    20.654108067    15.610475540   0   0   0 # oc13
   1458    141   4 -0.940000     5.539402771    20.654108067     6.876524925   0   0   0 # oc13
   1459    141   5 -0.580000     7.651547718    15.131509591    11.243499756   0   0   0 # ocx
   1460    141   3 -0.560000     6.953131962    16.431301255    13.382014275   0   0   0 # oc12
   1461    141   3 -0.560000     6.953131962    16.431301255     9.104986191   0   0   0 # oc12
   1462    141   4 -0.940000     5.561931896    16.981546659    15.630713463   0   0   0 # oc13
   1463    141   4 -0.940000     5.561931896    16.981546659     6.856286526   0   0   0 # oc13
   1464    141   7  1.500000     6.839920807    16.969303627     4.644015312   0   0   0 # ca+t
   1465    141   6 -0.820000     7.567062187    18.812935848    11.243499756   0   0   0 # o*
   1466    141   8  0.410000     7.034224519    18.904419708    10.423515706   0   0   0 # h*
   1467    141   8  0.410000     6.959306385    19.215371949    11.903722836   0   0   0 # h*
   1468    142   1  1.000000    18.150906300    20.361232300    14.782504082   0   0   0 # sc2
   1469    142   1  1.000000    18.150906300    20.361232300     7.704495907   0   0   0 # sc2
   1470    142   2  1.000000    18.999143815    15.129659672    12.843674660   0   0   0 # sc3
   1471    142   2  1.000000    18.999143815    15.129659672     9.643324852   0   0   0 # sc3
   1472    142   1  1.000000    18.157101846    17.281317253    14.790374756   0   0   0 # sc2
   1473    142   1  1.000000    18.157101846    17.281317253     7.696625710   0   0   0 # sc2
   1474    142   3 -0.560000    18.223564362    21.197579880    13.361775398   0   0   0 # oc12
   1475    142   3 -0.560000    18.223564362    21.197579880     9.125225067   0   0   0 # oc12
   1476    142   3 -0.560000    18.155975556    18.820351620    14.227524757   0   0   0 # oc12
   1477    142   3 -0.560000    18.155975556    18.820351620     8.259474754   0   0   0 # oc12
   1478    142   4 -0.940000    19.428894734    20.636265774    15.700423241   0   0   0 # oc13
   1479    142   4 -0.940000    19.428894734    20.636265774     6.786576748   0   0   0 # oc13
   1480    142   4 -0.940000    16.804202771    20.654108067    15.610475540   0   0   0 # oc13
   1481    142   4 -0.940000    16.804202771    20.654108067     6.876524925   0   0   0 # oc13
   1482    142   5 -0.580000    18.916347718    15.131509591    11.243499756   0   0   0 # ocx
   1483    142   3 -0.560000    18.217931962    16.431301255    13.382014275   0   0   0 # oc12
   1484    142   3 -0.560000    18.217931962    16.431301255     9.104986191   0   0   0 # oc12
   1485    142   4 -0.940000    16.826731896    16.981546659    15.630713463   0   0   0 # oc13
   1486    142   4 -0.940000    16.826731896    16.981546659     6.856286526   0   0   0 # oc13
   1487    142   7  1.500000    18.104720807    16.969303627     4.644015312   0   0   0 # ca+t
   1488    142   6 -0.820000    18.831862187    18.812935848    11.243499756   0   0   0 # o*
   1489    142   8  0.410000    18.299024519    18.904419708    10.423515706   0   0   0 # h*
   1490    142   8  0.410000    18.224106385    19.215371949    11.903722836   0   0   0 # h*
   1491    143   1  1.000000    29.415706300    20.361232300    14.782504082   0   0   0 # sc2
   1492    143   1  1.000000    29.415706300    20.361232300     7.704495907   0   0   0 # sc2
   1493    143   2  1.000000    30.263943815    15.129659672    12.843674660   0   0   0 # sc3
   1494    143   2  1.000000    30.263943815    15.129659672     9.643324852   0   0   0 # sc3
   1495    143   1  1.000000    29.421901846    17.281317253    14.790374756   0   0   0 # sc2
   1496    143   1  1.000000    29.421901846    17.281317253     7.696625710   0   0   0 # sc2
   1497    143   3 -0.560000    29.488364362    21.197579880    13.361775398   0   0   0 # oc12
   1498    143   3 -0.560000    29.488364362    21.197579880     9.125225067   0   0   0 # oc12
   1499    143   3 -0.560000    29.420775556    18.820351620    14.227524757   0   0   0 # oc12
   1500    143   3 -0.560000    29.420775556    18.820351620     8.259474754   0   0   0 # oc12
   1501    143   4 -0.940000    30.693694734    20.636265774    15.700423241   0   0   0 # oc13
   1502    143   4 -0.940000    30.693694734    20.636265774     6.786576748   0   0   0 # oc13
   1503    143   4 -0.940000    28.069002771    20.654108067    15.610475540   0   0   0 # oc13
   1504    143   4 -0.940000    28.069002771    20.654108067     6.876524925   0   0   0 # oc13
   1505    143   5 -0.580000    30.181147718    15.131509591    11.243499756   0   0   0 # ocx
   1506    143   3 -0.560000    29.482731962    16.431301255    13.382014275   0   0   0 # oc12
   1507    143   3 -0.560000    29.482731962    16.431301255     9.104986191   0   0   0 # oc12
   1508    143   4 -0.940000    28.091531896    16.981546659    15.630713463   0   0   0 # oc13
   1509    143   4 -0.940000    28.091531896    16.981546659     6.856286526   0   0   0 # oc13
   1510    143   7  1.500000    29.369520807    16.969303627     4.644015312   0   0   0 # ca+t
   1511    143   6 -0.820000    30.096662187    18.812935848    11.243499756   0   0   0 # o*
   1512    143   8  0.410000    29.563824519    18.904419708    10.423515706   0   0   0 # h*
   1513    143   8  0.410000    29.488906385    19.215371949    11.903722836   0   0   0 # h*
   1514    144   1  1.000000    40.680506300    20.361232300    14.782504082   0   0   0 # sc2
   1515    144   1  1.000000    40.680506300    20.361232300     7.704495907   0   0   0 # sc2
   1516    144   2  1.000000    41.528743815    15.129659672    12.843674660   0   0   0 # sc3
   1517    144   2  1.000000    41.528743815    15.129659672     9.643324852   0   0   0 # sc3
   1518    144   1  1.000000    40.686701846    17.281317253    14.790374756   0   0   0 # sc2
   1519    144   1  1.000000    40.686701846    17.281317253     7.696625710   0   0   0 # sc2
   1520    144   3 -0.560000    40.753164362    21.197579880    13.361775398   0   0   0 # oc12
   1521    144   3 -0.560000    40.753164362    21.197579880     9.125225067   0   0   0 # oc12
   1522    144   3 -0.560000    40.685575556    18.820351620    14.227524757   0   0   0 # oc12
   1523    144   3 -0.560000    40.685575556    18.820351620     8.259474754   0   0   0 # oc12
   1524    144   4 -0.940000    41.958494734    20.636265774    15.700423241   0   0   0 # oc13
   1525    144   4 -0.940000    41.958494734    20.636265774     6.786576748   0   0   0 # oc13
   1526    144   4 -0.940000    39.333802771    20.654108067    15.610475540   0   0   0 # oc13
   1527    144   4 -0.940000    39.333802771    20.654108067     6.876524925   0   0   0 # oc13
   1528    144   5 -0.580000    41.445947718    15.131509591    11.243499756   0   0   0 # ocx
   1529    144   3 -0.560000    40.747531962    16.431301255    13.382014275   0   0   0 # oc12
   1530    144   3 -0.560000    40.747531962    16.431301255     9.104986191   0   0   0 # oc12
   1531    144   4 -0.940000    39.356331896    16.981546659    15.630713463   0   0   0 # oc13
   1532    144   4 -0.940000    39.356331896    16.981546659     6.856286526   0   0   0 # oc13
   1533    144   7  1.500000    40.634320807    16.969303627     4.644015312   0   0   0 # ca+t
   1534    144   6 -0.820000    41.361462187    18.812935848    11.243499756   0   0   0 # o*
   1535    144   8  0.410000    40.828624519    18.904419708    10.423515706   0   0   0 # h*
   1536    144   8  0.410000    40.753706385    19.215371949    11.903722836   0   0   0 # h*
   1537    145   9 -0.670000    12.123663712     5.900057316     2.113778114   0   0   0 # oc14
   1538    145   9 -0.670000    12.123663712     5.900057316    -2.113778114   0   0   0 # oc14
   1539    146   9 -0.670000    23.388463712     5.900057316     2.113778114   0   0   0 # oc14
   1540    146   9 -0.670000    23.388463712     5.900057316    -2.113778114   0   0   0 # oc14
   1541    147   9 -0.670000    34.653263712     5.900057316     2.113778114   0   0   0 # oc14
   1542    147   9 -0.670000    34.653263712     5.900057316    -2.113778114   0   0   0 # oc14
   1543    148   9 -0.670000    -0.081936288     5.900057316     2.113778114   1   0   0 # oc14
   1544    148   9 -0.670000    -0.081936288     5.900057316    -2.113778114   1   0   0 # oc14
   1545    149   9 -0.670000    12.123663712    13.285057316     2.113778114   0   0   0 # oc14
   1546    149   9 -0.670000    12.123663712    13.285057316    -2.113778114   0   0   0 # oc14
   1547    150   9 -0.670000    23.388463712    13.285057316     2.113778114   0   0   0 # oc14
   1548    150   9 -0.670000    23.388463712    13.285057316    -2.113778114   0   0   0 # oc14
   1549    151   9 -0.670000    34.653263712    13.285057316     2.113778114   0   0   0 # oc14
   1550    151   9 -0.670000    34.653263712    13.285057316    -2.113778114   0   0   0 # oc14
   1551    152   9 -0.670000    -0.081936288    13.285057316     2.113778114   1   0   0 # oc14
   1552    152   9 -0.670000    -0.081936288    13.285057316    -2.113778114   1   0   0 # oc14
   1553    153   9 -0.670000    12.123663712    20.670057316     2.113778114   0   0   0 # oc14
   1554    153   9 -0.670000    12.123663712    20.670057316    -2.113778114   0   0   0 # oc14
   1555    154   9 -0.670000    23.388463712    20.670057316     2.113778114   0   0   0 # oc14
   1556    154   9 -0.670000    23.388463712    20.670057316    -2.113778114   0   0   0 # oc14
   1557    155   9 -0.670000    34.653263712    20.670057316     2.113778114   0   0   0 # oc14
   1558    155   9 -0.670000    34.653263712    20.670057316    -2.113778114   0   0   0 # oc14
   1559    156   9 -0.670000    -0.081936288    20.670057316     2.113778114   1   0   0 # oc14
   1560    156   9 -0.670000    -0.081936288    20.670057316    -2.113778114   1   0   0 # oc14
   1561    157   9 -0.670000     9.307470131     0.361434907    13.357277870   0   0   0 # oc14
   1562    157   9 -0.670000     9.307470131     0.361434907     9.129721642   0   0   0 # oc14
   1563    157   6 -0.820000     9.769325066     4.053914070    13.355029106   0   0   0 # o*
   1564    157   6 -0.820000     9.769325066     4.053914070     9.131970406   0   0   0 # o*
   1565    157   7  1.500000     9.741726685     4.063146114    15.866152763   0   0   0 # ca+t
   1566    157   7  1.500000     9.741726685     4.063146114     6.620847702   0   0   0 # ca+t
   1567    157   6 -0.820000    10.653610039     1.886376262    11.243499756   0   0   0 # o*
   1568    157   6 -0.820000    10.625448036     6.195525169    11.243499756   0   0   0 # o*
   1569    157   8  0.410000     9.985026005     2.010397308    11.950603782   0   0   0 # h*
   1570    157   8  0.410000    11.416897002     2.318344695    11.688347004   0   0   0 # h*
   1571    157   8  0.410000    10.372698454     5.835374819    10.364457015   0   0   0 # h*
   1572    157   8  0.410000    11.603663499     6.145382534    11.155857803   0   0   0 # h*
   1573    157   8  0.410000    10.324458878     4.690906476    12.850560077   0   0   0 # h*
   1574    157   8  0.410000    10.398620301     3.415074236     9.539097543   0   0   0 # h*
   1575    157   8  0.410000     8.960006418     4.048653996    12.790853218   0   0   0 # h*
   1576    157   8  0.410000     9.019933400     3.984088899     9.767834807   0   0   0 # h*
   1577    158   9 -0.670000    20.572270131     0.361434907    13.357277870   0   0   0 # oc14
   1578    158   9 -0.670000    20.572270131     0.361434907     9.129721642   0   0   0 # oc14
   1579    158   6 -0.820000    21.034125066     4.053914070    13.355029106   0   0   0 # o*
   1580    158   6 -0.820000    21.034125066     4.053914070     9.131970406   0   0   0 # o*
   1581    158   7  1.500000    21.006526685     4.063146114    15.866152763   0   0   0 # ca+t
   1582    158   7  1.500000    21.006526685     4.063146114     6.620847702   0   0   0 # ca+t
   1583    158   6 -0.820000    21.918410039     1.886376262    11.243499756   0   0   0 # o*
   1584    158   6 -0.820000    21.890248036     6.195525169    11.243499756   0   0   0 # o*
   1585    158   8  0.410000    21.249826005     2.010397308    11.950603782   0   0   0 # h*
   1586    158   8  0.410000    22.681697002     2.318344695    11.688347004   0   0   0 # h*
   1587    158   8  0.410000    21.637498454     5.835374819    10.364457015   0   0   0 # h*
   1588    158   8  0.410000    22.868463499     6.145382534    11.155857803   0   0   0 # h*
   1589    158   8  0.410000    21.589258878     4.690906476    12.850560077   0   0   0 # h*
   1590    158   8  0.410000    21.663420301     3.415074236     9.539097543   0   0   0 # h*
   1591    158   8  0.410000    20.224806418     4.048653996    12.790853218   0   0   0 # h*
   1592    158   8  0.410000    20.284733400     3.984088899     9.767834807   0   0   0 # h*
   1593    159   9 -0.670000    31.837070131     0.361434907    13.357277870   0   0   0 # oc14
   1594    159   9 -0.670000    31.837070131     0.361434907     9.129721642   0   0   0 # oc14
   1595    159   6 -0.820000    32.298925066     4.053914070    13.355029106   0   0   0 # o*
   1596    159   6 -0.820000    32.298925066     4.053914070     9.131970406   0   0   0 # o*
   1597    159   7  1.500000    32.271326685     4.063146114    15.866152763   0   0   0 # ca+t
   1598    159   7  1.500000    32.271326685     4.063146114     6.620847702   0   0   0 # ca+t
   1599    159   6 -0.820000    33.183210039     1.886376262    11.243499756   0   0   0 # o*
   1600    159   6 -0.820000    33.155048036     6.195525169    11.243499756   0   0   0 # o*
   1601    159   8  0.410000    32.514626005     2.010397308    11.950603782   0   0   0 # h*
   1602    159   8  0.410000    33.946497002     2.318344695    11.688347004   0   0   0 # h*
   1603    159   8  0.410000    32.902298454     5.835374819    10.364457015   0   0   0 # h*
   1604    159   8  0.410000    34.133263499     6.145382534    11.155857803   0   0   0 # h*
   1605    159   8  0.410000    32.854058878     4.690906476    12.850560077   0   0   0 # h*
   1606    159   8  0.410000    32.928220301     3.415074236     9.539097543   0   0   0 # h*
   1607    159   8  0.410000    31.489606418     4.048653996    12.790853218   0   0   0 # h*
   1608    159   8  0.410000    31.549533400     3.984088899     9.767834807   0   0   0 # h*
   1609    160   9 -0.670000    43.101870131     0.361434907    13.357277870   0   0   0 # oc14
   1610    160   9 -0.670000    43.101870131     0.361434907     9.129721642   0   0   0 # oc14
   1611    160   6 -0.820000    43.563725066     4.053914070    13.355029106   0   0   0 # o*
   1612    160   6 -0.820000    43.563725066     4.053914070     9.131970406   0   0   0 # o*
   1613    160   7  1.500000    43.536126685     4.063146114    15.866152763   0   0   0 # ca+t
   1614    160   7  1.500000    43.536126685     4.063146114     6.620847702   0   0   0 # ca+t
   1615    160   6 -0.820000    44.448010039     1.886376262    11.243499756   0   0   0 # o*
   1616    160   6 -0.820000    44.419848036     6.195525169    11.243499756   0   0   0 # o*
   1617    160   8  0.410000    43.779426005     2.010397308    11.950603782   0   0   0 # h*
   1618    160   8  0.410000    45.211297002     2.318344695    11.688347004   0   0   0 # h*
   1619    160   8  0.410000    44.167098454     5.835374819    10.364457015   0   0   0 # h*
   1620    160   8  0.410000    45.398063499     6.145382534    11.155857803   0   0   0 # h*
   1621    160   8  0.410000    44.118858878     4.690906476    12.850560077   0   0   0 # h*
   1622    160   8  0.410000    44.193020301     3.415074236     9.539097543   0   0   0 # h*
   1623    160   8  0.410000    42.754406418     4.048653996    12.790853218   0   0   0 # h*
   1624    160   8  0.410000    42.814333400     3.984088899     9.767834807   0   0   0 # h*
   1625    161   9 -0.670000     9.307470131     7.746434907    13.357277870   0   0   0 # oc14
   1626    161   9 -0.670000     9.307470131     7.746434907     9.129721642   0   0   0 # oc14
   1627    161   6 -0.820000     9.769325066    11.438914070    13.355029106   0   0   0 # o*
   1628    161   6 -0.820000     9.769325066    11.438914070     9.131970406   0   0   0 # o*
   1629    161   7  1.500000     9.741726685    11.448146114    15.866152763   0   0   0 # ca+t
   1630    161   7  1.500000     9.741726685    11.448146114     6.620847702   0   0   0 # ca+t
   1631    161   6 -0.820000    10.653610039     9.271376262    11.243499756   0   0   0 # o*
   1632    161   6 -0.820000    10.625448036    13.580525169    11.243499756   0   0   0 # o*
   1633    161   8  0.410000     9.985026005     9.395397308    11.950603782   0   0   0 # h*
   1634    161   8  0.410000    11.416897002     9.703344695    11.688347004   0   0   0 # h*
   1635    161   8  0.410000    10.372698454    13.220374819    10.364457015   0   0   0 # h*
   1636    161   8  0.410000    11.603663499    13.530382534    11.155857803   0   0   0 # h*
   1637    161   8  0.410000    10.324458878    12.075906476    12.850560077   0   0   0 # h*
   1638    161   8  0.410000    10.398620301    10.800074236     9.539097543   0   0   0 # h*
   1639    161   8  0.410000     8.960006418    11.433653996    12.790853218   0   0   0 # h*
   1640    161   8  0.410000     9.019933400    11.369088899     9.767834807   0   0   0 # h*
   1641    162   9 -0.670000    20.572270131     7.746434907    13.357277870   0   0   0 # oc14
   1642    162   9 -0.670000    20.572270131     7.746434907     9.129721642   0   0   0 # oc14
   1643    162   6 -0.820000    21.034125066    11.438914070    13.355029106   0   0   0 # o*
   1644    162   6 -0.820000    21.034125066    11.438914070     9.131970406   0   0   0 # o*
   1645    162   7  1.500000    21.006526685    11.448146114    15.866152763   0   0   0 # ca+t
   1646    162   7  1.500000    21.006526685    11.448146114     6.620847702   0   0   0 # ca+t
   1647    162   6 -0.820000    21.918410039     9.271376262    11.243499756   0   0   0 # o*
   1648    162   6 -0.820000    21.890248036    13.580525169    11.243499756   0   0   0 # o*
   1649    162   8  0.410000    21.249826005     9.395397308    11.950603782   0   0   0 # h*
   1650    162   8  0.410000    22.681697002     9.703344695    11.688347004   0   0   0 # h*
   1651    162   8  0.410000    21.637498454    13.220374819    10.364457015   0   0   0 # h*
   1652    162   8  0.410000    22.868463499    13.530382534    11.155857803   0   0   0 # h*
   1653    162   8  0.410000    21.589258878    12.075906476    12.850560077   0   0   0 # h*
   1654    162   8  0.410000    21.663420301    10.800074236     9.539097543   0   0   0 # h*
   1655    162   8  0.410000    20.224806418    11.433653996    12.790853218   0   0   0 # h*
   1656    162   8  0.410000    20.284733400    11.369088899     9.767834807   0   0   0 # h*
   1657    163   9 -0.670000    31.837070131     7.746434907    13.357277870   0   0   0 # oc14
   1658    163   9 -0.670000    31.837070131     7.746434907     9.129721642   0   0   0 # oc14
   1659    163   6 -0.820000    32.298925066    11.438914070    13.355029106   0   0   0 # o*
   1660    163   6 -0.820000    32.298925066    11.438914070     9.131970406   0   0   0 # o*
   1661    163   7  1.500000    32.271326685    11.448146114    15.866152763   0   0   0 # ca+t
   1662    163   7  1.500000    32.271326685    11.448146114     6.620847702   0   0   0 # ca+t
   1663    163   6 -0.820000    33.183210039     9.271376262    11.243499756   0   0   0 # o*
   1664    163   6 -0.820000    33.155048036    13.580525169    11.243499756   0   0   0 # o*
   1665    163   8  0.410000    32.514626005     9.395397308    11.950603782   0   0   0 # h*
   1666    163   8  0.410000    33.946497002     9.703344695    11.688347004   0   0   0 # h*
   1667    163   8  0.410000    32.902298454    13.220374819    10.364457015   0   0   0 # h*
   1668    163   8  0.410000    34.133263499    13.530382534    11.155857803   0   0   0 # h*
   1669    163   8  0.410000    32.854058878    12.075906476    12.850560077   0   0   0 # h*
   1670    163   8  0.410000    32.928220301    10.800074236     9.539097543   0   0   0 # h*
   1671    163   8  0.410000    31.489606418    11.433653996    12.790853218   0   0   0 # h*
   1672    163   8  0.410000    31.549533400    11.369088899     9.767834807   0   0   0 # h*
   1673    164   9 -0.670000    43.101870131     7.746434907    13.357277870   0   0   0 # oc14
   1674    164   9 -0.670000    43.101870131     7.746434907     9.129721642   0   0   0 # oc14
   1675    164   6 -0.820000    43.563725066    11.438914070    13.355029106   0   0   0 # o*
   1676    164   6 -0.820000    43.563725066    11.438914070     9.131970406   0   0   0 # o*
   1677    164   7  1.500000    43.536126685    11.448146114    15.866152763   0   0   0 # ca+t
   1678    164   7  1.500000    43.536126685    11.448146114     6.620847702   0   0   0 # ca+t
   1679    164   6 -0.820000    44.448010039     9.271376262    11.243499756   0   0   0 # o*
   1680    164   6 -0.820000    44.419848036    13.580525169    11.243499756   0   0   0 # o*
   1681    164   8  0.410000    43.779426005     9.395397308    11.950603782   0   0   0 # h*
   1682    164   8  0.410000    45.211297002     9.703344695    11.688347004   0   0   0 # h*
   1683    164   8  0.410000    44.167098454    13.220374819    10.364457015   0   0   0 # h*
   1684    164   8  0.410000    45.398063499    13.530382534    11.155857803   0   0   0 # h*
   1685    164   8  0.410000    44.118858878    12.075906476    12.850560077   0   0   0 # h*
   1686    164   8  0.410000    44.193020301    10.800074236     9.539097543   0   0   0 # h*
   1687    164   8  0.410000    42.754406418    11.433653996    12.790853218   0   0   0 # h*
   1688    164   8  0.410000    42.814333400    11.369088899     9.767834807   0   0   0 # h*
   1689    165   9 -0.670000     9.307470131    15.131434907    13.357277870   0   0   0 # oc14
   1690    165   9 -0.670000     9.307470131    15.131434907     9.129721642   0   0   0 # oc14
   1691    165   6 -0.820000     9.769325066    18.823914070    13.355029106   0   0   0 # o*
   1692    165   6 -0.820000     9.769325066    18.823914070     9.131970406   0   0   0 # o*
   1693    165   7  1.500000     9.741726685    18.833146114    15.866152763   0   0   0 # ca+t
   1694    165   7  1.500000     9.741726685    18.833146114     6.620847702   0   0   0 # ca+t
   1695    165   6 -0.820000    10.653610039    16.656376262    11.243499756   0   0   0 # o*
   1696    165   6 -0.820000    10.625448036    20.965525169    11.243499756   0   0   0 # o*
   1697    165   8  0.410000     9.985026005    16.780397308    11.950603782   0   0   0 # h*
   1698    165   8  0.410000    11.416897002    17.088344695    11.688347004   0   0   0 # h*
   1699    165   8  0.410000    10.372698454    20.605374819    10.364457015   0   0   0 # h*
   1700    165   8  0.410000    11.603663499    20.915382534    11.155857803   0   0   0 # h*
   1701    165   8  0.410000    10.324458878    19.460906476    12.850560077   0   0   0 # h*
   1702    165   8  0.410000    10.398620301    18.185074236     9.539097543   0   0   0 # h*
   1703    165   8  0.410000     8.960006418    18.818653996    12.790853218   0   0   0 # h*
   1704    165   8  0.410000     9.019933400    18.754088899     9.767834807   0   0   0 # h*
   1705    166   9 -0.670000    20.572270131    15.131434907    13.357277870   0   0   0 # oc14
   1706    166   9 -0.670000    20.572270131    15.131434907     9.129721642   0   0   0 # oc14
   1707    166   6 -0.820000    21.034125066    18.823914070    13.355029106   0   0   0 # o*
   1708    166   6 -0.820000    21.034125066    18.823914070     9.131970406   0   0   0 # o*
   1709    166   7  1.500000    21.006526685    18.833146114    15.866152763   0   0   0 # ca+t
   1710    166   7  1.500000    21.006526685    18.833146114     6.620847702   0   0   0 # ca+t
   1711    166   6 -0.820000    21.918410039    16.656376262    11.243499756   0   0   0 # o*
   1712    166   6 -0.820000    21.890248036    20.965525169    11.243499756   0   0   0 # o*
   1713    166   8  0.410000    21.249826005    16.780397308    11.950603782   0   0   0 # h*
   1714    166   8  0.410000    22.681697002    17.088344695    11.688347004   0   0   0 # h*
   1715    166   8  0.410000    21.637498454    20.605374819    10.364457015   0   0   0 # h*
   1716    166   8  0.410000    22.868463499    20.915382534    11.155857803   0   0   0 # h*
   1717    166   8  0.410000    21.589258878    19.460906476    12.850560077   0   0   0 # h*
   1718    166   8  0.410000    21.663420301    18.185074236     9.539097543   0   0   0 # h*
   1719    166   8  0.410000    20.224806418    18.818653996    12.790853218   0   0   0 # h*
   1720    166   8  0.410000    20.284733400    18.754088899     9.767834807   0   0   0 # h*
   1721    167   9 -0.670000    31.837070131    15.131434907    13.357277870   0   0   0 # oc14
   1722    167   9 -0.670000    31.837070131    15.131434907     9.129721642   0   0   0 # oc14
   1723    167   6 -0.820000    32.298925066    18.823914070    13.355029106   0   0   0 # o*
   1724    167   6 -0.820000    32.298925066    18.823914070     9.131970406   0   0   0 # o*
   1725    167   7  1.500000    32.271326685    18.833146114    15.866152763   0   0   0 # ca+t
   1726    167   7  1.500000    32.271326685    18.833146114     6.620847702   0   0   0 # ca+t
   1727    167   6 -0.820000    33.183210039    16.656376262    11.243499756   0   0   0 # o*
   1728    167   6 -0.820000    33.155048036    20.965525169    11.243499756   0   0   0 # o*
   1729    167   8  0.410000    32.514626005    16.780397308    11.950603782   0   0   0 # h*
   1730    167   8  0.410000    33.946497002    17.088344695    11.688347004   0   0   0 # h*
   1731    167   8  0.410000    32.902298454    20.605374819    10.364457015   0   0   0 # h*
   1732    167   8  0.410000    34.133263499    20.915382534    11.155857803   0   0   0 # h*
   1733    167   8  0.410000    32.854058878    19.460906476    12.850560077   0   0   0 # h*
   1734    167   8  0.410000    32.928220301    18.185074236     9.539097543   0   0   0 # h*
   1735    167   8  0.410000    31.489606418    18.818653996    12.790853218   0   0   0 # h*
   1736    167   8  0.410000    31.549533400    18.754088899     9.767834807   0   0   0 # h*
   1737    168   9 -0.670000    43.101870131    15.131434907    13.357277870   0   0   0 # oc14
   1738    168   9 -0.670000    43.101870131    15.131434907     9.129721642   0   0   0 # oc14
   1739    168   6 -0.820000    43.563725066    18.823914070    13.355029106   0   0   0 # o*
   1740    168   6 -0.820000    43.563725066    18.823914070     9.131970406   0   0   0 # o*
   1741    168   7  1.500000    43.536126685    18.833146114    15.866152763   0   0   0 # ca+t
   1742    168   7  1.500000    43.536126685    18.833146114     6.620847702   0   0   0 # ca+t
   1743    168   6 -0.820000    44.448010039    16.656376262    11.243499756   0   0   0 # o*
   1744    168   6 -0.820000    44.419848036    20.965525169    11.243499756   0   0   0 # o*
   1745    168   8  0.410000    43.779426005    16.780397308    11.950603782   0   0   0 # h*
   1746    168   8  0.410000    45.211297002    17.088344695    11.688347004   0   0   0 # h*
   1747    168   8  0.410000    44.167098454    20.605374819    10.364457015   0   0   0 # h*
   1748    168   8  0.410000    45.398063499    20.915382534    11.155857803   0   0   0 # h*
   1749    168   8  0.410000    44.118858878    19.460906476    12.850560077   0   0   0 # h*
   1750    168   8  0.410000    44.193020301    18.185074236     9.539097543   0   0   0 # h*
   1751    168   8  0.410000    42.754406418    18.818653996    12.790853218   0   0   0 # h*
   1752    168   8  0.410000    42.814333400    18.754088899     9.767834807   0   0   0 # h*
   1753    169   7  1.500000     9.656114388     0.352926284    15.887515068   0   0   0 # ca+t
   1754    170   7  1.500000    20.920914388     0.352926284    15.887515068   0   0   0 # ca+t
   1755    171   7  1.500000    32.185714388     0.352926284    15.887515068   0   0   0 # ca+t
   1756    172   7  1.500000    43.450514388     0.352926284    15.887515068   0   0   0 # ca+t
   1757    173   7  1.500000     9.656114388     7.737926284    15.887515068   0   0   0 # ca+t
   1758    174   7  1.500000    20.920914388     7.737926284    15.887515068   0   0   0 # ca+t
   1759    175   7  1.500000    32.185714388     7.737926284    15.887515068   0   0   0 # ca+t
   1760    176   7  1.500000    43.450514388     7.737926284    15.887515068   0   0   0 # ca+t
   1761    177   7  1.500000     9.656114388    15.122926284    15.887515068   0   0   0 # ca+t
   1762    178   7  1.500000    20.920914388    15.122926284    15.887515068   0   0   0 # ca+t
   1763    179   7  1.500000    32.185714388    15.122926284    15.887515068   0   0   0 # ca+t
   1764    180   7  1.500000    43.450514388    15.122926284    15.887515068   0   0   0 # ca+t
   1765    181  10  0.400000    12.762452123     5.746178755     1.425652679   0   0   0 # hoy
   1766    182  10  0.400000    24.027252123     5.746178755     1.425652679   0   0   0 # hoy
   1767    183  10  0.400000    35.292052123     5.746178755     1.425652679   0   0   0 # hoy
   1768    184  10  0.400000     0.556852123     5.746178755     1.425652679   1   0   0 # hoy
   1769    185  10  0.400000    12.762452123    13.131178755     1.425652679   0   0   0 # hoy
   1770    186  10  0.400000    24.027252123    13.131178755     1.425652679   0   0   0 # hoy
   1771    187  10  0.400000    35.292052123    13.131178755     1.425652679   0   0   0 # hoy
   1772    188  10  0.400000     0.556852123    13.131178755     1.425652679   1   0   0 # hoy
   1773    189  10  0.400000    12.762452123    20.516178755     1.425652679   0   0   0 # hoy
   1774    190  10  0.400000    24.027252123    20.516178755     1.425652679   0   0   0 # hoy
   1775    191  10  0.400000    35.292052123    20.516178755     1.425652679   0   0   0 # hoy
   1776    192  10  0.400000     0.556852123    20.516178755     1.425652679   1   0   0 # hoy
   1777    193  10  0.400000     9.932165277     7.329463313    12.767599696   0   0   0 # hoy
   1778    194  10  0.400000    21.196965277     7.329463313    12.767599696   0   0   0 # hoy
   1779    195  10  0.400000    32.461765277     7.329463313    12.767599696   0   0   0 # hoy
   1780    196  10  0.400000    43.726565277     7.329463313    12.767599696   0   0   0 # hoy
   1781    197  10  0.400000     9.932165277    14.714463313    12.767599696   0   0   0 # hoy
   1782    198  10  0.400000    21.196965277    14.714463313    12.767599696   0   0   0 # hoy
   1783    199  10  0.400000    32.461765277    14.714463313    12.767599696   0   0   0 # hoy
   1784    200  10  0.400000    43.726565277    14.714463313    12.767599696   0   0   0 # hoy
   1785    201  10  0.400000     9.932165277    -0.055536687    12.767599696   0   1   0 # hoy
   1786    202  10  0.400000    21.196965277    -0.055536687    12.767599696   0   1   0 # hoy
   1787    203  10  0.400000    32.461765277    -0.055536687    12.767599696   0   1   0 # hoy
   1788    204  10  0.400000    43.726565277    -0.055536687    12.767599696   0   1   0 # hoy
   1789    205  10  0.400000    12.762085661     5.735380121    -1.428141049   0   0   0 # hoy
   1790    206  10  0.400000    24.026885661     5.735380121    -1.428141049   0   0   0 # hoy
   1791    207  10  0.400000    35.291685661     5.735380121    -1.428141049   0   0   0 # hoy
   1792    208  10  0.400000     0.556485661     5.735380121    -1.428141049   1   0   0 # hoy
   1793    209  10  0.400000    12.762085661    13.120380121    -1.428141049   0   0   0 # hoy
   1794    210  10  0.400000    24.026885661    13.120380121    -1.428141049   0   0   0 # hoy
   1795    211  10  0.400000    35.291685661    13.120380121    -1.428141049   0   0   0 # hoy
   1796    212  10  0.400000     0.556485661    13.120380121    -1.428141049   1   0   0 # hoy
   1797    213  10  0.400000    12.762085661    20.505380121    -1.428141049   0   0   0 # hoy
   1798    214  10  0.400000    24.026885661    20.505380121    -1.428141049   0   0   0 # hoy
   1799    215  10  0.400000    35.291685661    20.505380121    -1.428141049   0   0   0 # hoy
   1800    216  10  0.400000     0.556485661    20.505380121    -1.428141049   1   0   0 # hoy
   1801    217   4 -0.940000     5.359170723     4.079219341     4.463669300   0   0   0 # oc13
   1802    217   4 -0.940000     5.359170723     4.079219341    18.023330700   0   0  -1 # oc13
   1803    218   4 -0.940000    16.623970723     4.079219341     4.463669300   0   0   0 # oc13
   1804    218   4 -0.940000    16.623970723     4.079219341    18.023330700   0   0  -1 # oc13
   1805    219   4 -0.940000    27.888770723     4.079219341     4.463669300   0   0   0 # oc13
   1806    219   4 -0.940000    27.888770723     4.079219341    18.023330700   0   0  -1 # oc13
   1807    220   4 -0.940000    39.153570723     4.079219341     4.463669300   0   0   0 # oc13
   1808    220   4 -0.940000    39.153570723     4.079219341    18.023330700   0   0  -1 # oc13
   1809    221   4 -0.940000     5.359170723    11.464219341     4.463669300   0   0   0 # oc13
   1810    221   4 -0.940000     5.359170723    11.464219341    18.023330700   0   0  -1 # oc13
   1811    222   4 -0.940000    16.623970723    11.464219341     4.463669300   0   0   0 # oc13
   1812    222   4 -0.940000    16.623970723    11.464219341    18.023330700   0   0  -1 # oc13
   1813    223   4 -0.940000    27.888770723    11.464219341     4.463669300   0   0   0 # oc13
   1814    223   4 -0.940000    27.888770723    11.464219341    18.023330700   0   0  -1 # oc13
   1815    224   4 -0.940000    39.153570723    11.464219341     4.463669300   0   0   0 # oc13
   1816    224   4 -0.940000    39.153570723    11.464219341    18.023330700   0   0  -1 # oc13
   1817    225   4 -0.940000     5.359170723    18.849219341     4.463669300   0   0   0 # oc13
   1818    225   4 -0.940000     5.359170723    18.849219341    18.023330700   0   0  -1 # oc13
   1819    226   4 -0.940000    16.623970723    18.849219341     4.463669300   0   0   0 # oc13
   1820    226   4 -0.940000    16.623970723    18.849219341    18.023330700   0   0  -1 # oc13
   1821    227   4 -0.940000    27.888770723    18.849219341     4.463669300   0   0   0 # oc13
   1822    227   4 -0.940000    27.888770723    18.849219341    18.023330700   0   0  -1 # oc13
   1823    228   4 -0.940000    39.153570723    18.849219341     4.463669300   0   0   0 # oc13
   1824    228   4 -0.940000    39.153570723    18.849219341    18.023330700   0   0  -1 # oc13
   1825    229   4 -0.940000     2.542977142     5.925596714    15.707169533   0   0   0 # oc13
   1826    229   4 -0.940000     2.542977142     5.925596714     6.779830933   0   0   0 # oc13
   1827    230   4 -0.940000    13.807777142     5.925596714    15.707169533   0   0   0 # oc13
   1828    230   4 -0.940000    13.807777142     5.925596714     6.779830933   0   0   0 # oc13
   1829    231   4 -0.940000    25.072577142     5.925596714    15.707169533   0   0   0 # oc13
   1830    231   4 -0.940000    25.072577142     5.925596714     6.779830933   0   0   0 # oc13
   1831    232   4 -0.940000    36.337377142     5.925596714    15.707169533   0   0   0 # oc13
   1832    232   4 -0.940000    36.337377142     5.925596714     6.779830933   0   0   0 # oc13
   1833    233   4 -0.940000     2.542977142    13.310596714    15.707169533   0   0   0 # oc13
   1834    233   4 -0.940000     2.542977142    13.310596714     6.779830933   0   0   0 # oc13
   1835    234   4 -0.940000    13.807777142    13.310596714    15.707169533   0   0   0 # oc13
   1836    234   4 -0.940000    13.807777142    13.310596714     6.779830933   0   0   0 # oc13
   1837    235   4 -0.940000    25.072577142    13.310596714    15.707169533   0   0   0 # oc13
   1838    235   4 -0.940000    25.072577142    13.310596714     6.779830933   0   0   0 # oc13
   1839    236   4 -0.940000    36.337377142    13.310596714    15.707169533   0   0   0 # oc13
   1840    236   4 -0.940000    36.337377142    13.310596714     6.779830933   0   0   0 # oc13
   1841    237   4 -0.940000     2.542977142    20.695596714    15.707169533   0   0   0 # oc13
   1842    237   4 -0.940000     2.542977142    20.695596714     6.779830933   0   0   0 # oc13
   1843    238   4 -0.940000    13.807777142    20.695596714    15.707169533   0   0   0 # oc13
   1844    238   4 -0.940000    13.807777142    20.695596714     6.779830933   0   0   0 # oc13
   1845    239   4 -0.940000    25.072577142    20.695596714    15.707169533   0   0   0 # oc13
   1846    239   4 -0.940000    25.072577142    20.695596714     6.779830933   0   0   0 # oc13
   1847    240   4 -0.940000    36.337377142    20.695596714    15.707169533   0   0   0 # oc13
   1848    240   4 -0.940000    36.337377142    20.695596714     6.779830933   0   0   0 # oc13
   1849    241  10  0.400000     4.300062060     3.640521423     9.721533013   0   0   0 # hoy
   1850    242  10  0.400000    15.564862060     3.640521423     9.721533013   0   0   0 # hoy
   1851    243  10  0.400000    26.829662060     3.640521423     9.721533013   0   0   0 # hoy
   1852    244  10  0.400000    38.094462060     3.640521423     9.721533013   0   0   0 # hoy
   1853    245  10  0.400000     4.300062060    11.025521423     9.721533013   0   0   0 # hoy
   1854    246  10  0.400000    15.564862060    11.025521423     9.721533013   0   0   0 # hoy
   1855    247  10  0.400000    26.829662060    11.025521423     9.721533013   0   0   0 # hoy
   1856    248  10  0.400000    38.094462060    11.025521423     9.721533013   0   0   0 # hoy
   1857    249  10  0.400000     4.300062060    18.410521423     9.721533013   0   0   0 # hoy
   1858    250  10  0.400000    15.564862060    18.410521423     9.721533013   0   0   0 # hoy
   1859    251  10  0.400000    26.829662060    18.410521423     9.721533013   0   0   0 # hoy
   1860    252  10  0.400000    38.094462060    18.410521423     9.721533013   0   0   0 # hoy
   1861    253   4 -0.940000    10.991557884     0.386464238     4.463669300   0   0   0 # oc13
   1862    253   4 -0.940000    10.991557884     0.386464238    18.023330700   0   0  -1 # oc13
   1863    254   4 -0.940000    22.256357884     0.386464238     4.463669300   0   0   0 # oc13
   1864    254   4 -0.940000    22.256357884     0.386464238    18.023330700   0   0  -1 # oc13
   1865    255   4 -0.940000    33.521157884     0.386464238     4.463669300   0   0   0 # oc13
   1866    255   4 -0.940000    33.521157884     0.386464238    18.023330700   0   0  -1 # oc13
   1867    256   4 -0.940000    44.785957884     0.386464238     4.463669300   0   0   0 # oc13
   1868    256   4 -0.940000    44.785957884     0.386464238    18.023330700   0   0  -1 # oc13
   1869    257   4 -0.940000    10.991557884     7.771464238     4.463669300   0   0   0 # oc13
   1870    257   4 -0.940000    10.991557884     7.771464238    18.023330700   0   0  -1 # oc13
   1871    258   4 -0.940000    22.256357884     7.771464238     4.463669300   0   0   0 # oc13
   1872    258   4 -0.940000    22.256357884     7.771464238    18.023330700   0   0  -1 # oc13
   1873    259   4 -0.940000    33.521157884     7.771464238     4.463669300   0   0   0 # oc13
   1874    259   4 -0.940000    33.521157884     7.771464238    18.023330700   0   0  -1 # oc13
   1875    260   4 -0.940000    44.785957884     7.771464238     4.463669300   0   0   0 # oc13
   1876    260   4 -0.940000    44.785957884     7.771464238    18.023330700   0   0  -1 # oc13
   1877    261   4 -0.940000    10.991557884    15.156464238     4.463669300   0   0   0 # oc13
   1878    261   4 -0.940000    10.991557884    15.156464238    18.023330700   0   0  -1 # oc13
   1879    262   4 -0.940000    22.256357884    15.156464238     4.463669300   0   0   0 # oc13
   1880    262   4 -0.940000    22.256357884    15.156464238    18.023330700   0   0  -1 # oc13
   1881    263   4 -0.940000    33.521157884    15.156464238     4.463669300   0   0   0 # oc13
   1882    263   4 -0.940000    33.521157884    15.156464238    18.023330700   0   0  -1 # oc13
   1883    264   4 -0.940000    44.785957884    15.156464238     4.463669300   0   0   0 # oc13
   1884    264   4 -0.940000    44.785957884    15.156464238    18.023330700   0   0  -1 # oc13
   1885    265   4 -0.940000     8.175364304     2.232841730    15.707169533   0   0   0 # oc13
   1886    265   4 -0.940000     8.175364304     2.232841730     6.779830933   0   0   0 # oc13
   1887    266   4 -0.940000    19.440164304     2.232841730    15.707169533   0   0   0 # oc13
   1888    266   4 -0.940000    19.440164304     2.232841730     6.779830933   0   0   0 # oc13
   1889    267   4 -0.940000    30.704964304     2.232841730    15.707169533   0   0   0 # oc13
   1890    267   4 -0.940000    30.704964304     2.232841730     6.779830933   0   0   0 # oc13
   1891    268   4 -0.940000    41.969764304     2.232841730    15.707169533   0   0   0 # oc13
   1892    268   4 -0.940000    41.969764304     2.232841730     6.779830933   0   0   0 # oc13
   1893    269   4 -0.940000     8.175364304     9.617841730    15.707169533   0   0   0 # oc13
   1894    269   4 -0.940000     8.175364304     9.617841730     6.779830933   0   0   0 # oc13
   1895    270   4 -0.940000    19.440164304     9.617841730    15.707169533   0   0   0 # oc13
   1896    270   4 -0.940000    19.440164304     9.617841730     6.779830933   0   0   0 # oc13
   1897    271   4 -0.940000    30.704964304     9.617841730    15.707169533   0   0   0 # oc13
   1898    271   4 -0.940000    30.704964304     9.617841730     6.779830933   0   0   0 # oc13
   1899    272   4 -0.940000    41.969764304     9.617841730    15.707169533   0   0   0 # oc13
   1900    272   4 -0.940000    41.969764304     9.617841730     6.779830933   0   0   0 # oc13
   1901    273   4 -0.940000     8.175364304    17.002841730    15.707169533   0   0   0 # oc13
   1902    273   4 -0.940000     8.175364304    17.002841730     6.779830933   0   0   0 # oc13
   1903    274   4 -0.940000    19.440164304    17.002841730    15.707169533   0   0   0 # oc13
   1904    274   4 -0.940000    19.440164304    17.002841730     6.779830933   0   0   0 # oc13
   1905    275   4 -0.940000    30.704964304    17.002841730    15.707169533   0   0   0 # oc13
   1906    275   4 -0.940000    30.704964304    17.002841730     6.779830933   0   0   0 # oc13
   1907    276   4 -0.940000    41.969764304    17.002841730    15.707169533   0   0   0 # oc13
   1908    276   4 -0.940000    41.969764304    17.002841730     6.779830933   0   0   0 # oc13
   1909    277  10  0.400000     9.955001122     0.657909594     9.763963296   0   0   0 # hoy
   1910    278  10  0.400000    21.219801122     0.657909594     9.763963296   0   0   0 # hoy
   1911    279  10  0.400000    32.484601122     0.657909594     9.763963296   0   0   0 # hoy
   1912    280  10  0.400000    43.749401122     0.657909594     9.763963296   0   0   0 # hoy
   1913    281  10  0.400000     9.955001122     8.042909594     9.763963296   0   0   0 # hoy
   1914    282  10  0.400000    21.219801122     8.042909594     9.763963296   0   0   0 # hoy
   1915    283  10  0.400000    32.484601122     8.042909594     9.763963296   0   0   0 # hoy
   1916    284  10  0.400000    43.749401122     8.042909594     9.763963296   0   0   0 # hoy
   1917    285  10  0.400000     9.955001122    15.427909594     9.763963296   0   0   0 # hoy
   1918    286  10  0.400000    21.219801122    15.427909594     9.763963296   0   0   0 # hoy
   1919    287  10  0.400000    32.484601122    15.427909594     9.763963296   0   0   0 # hoy
   1920    288  10  0.400000    43.749401122    15.427909594     9.763963296   0   0   0 # hoy
   1921    289   6 -0.820000     2.176867533     4.349657536     0.000000000   0   0   1 # o*
   1922    289   8  0.410000     2.391808268     3.766844904    -0.762984661   0   0   1 # h*
   1923    289   8  0.410000     2.410598976     3.757653993     0.749421662   0   0   1 # h*
   1924    290   6 -0.820000    13.441667533     4.349657536     0.000000000   0   0   1 # o*
   1925    290   8  0.410000    13.656608268     3.766844904    -0.762984661   0   0   1 # h*
   1926    290   8  0.410000    13.675398976     3.757653993     0.749421662   0   0   1 # h*
   1927    291   6 -0.820000    24.706467533     4.349657536     0.000000000   0   0   1 # o*
   1928    291   8  0.410000    24.921408268     3.766844904    -0.762984661   0   0   1 # h*
   1929    291   8  0.410000    24.940198976     3.757653993     0.749421662   0   0   1 # h*
   1930    292   6 -0.820000    35.971267533     4.349657536     0.000000000   0   0   1 # o*
   1931    292   8  0.410000    36.186208268     3.766844904    -0.762984661   0   0   1 # h*
   1932    292   8  0.410000    36.204998976     3.757653993     0.749421662   0   0   1 # h*
   1933    293   6 -0.820000     2.176867533    11.734657536     0.000000000   0   0   1 # o*
   1934    293   8  0.410000     2.391808268    11.151844904    -0.762984661   0   0   1 # h*
   1935    293   8  0.410000     2.410598976    11.142653993     0.749421662   0   0   1 # h*
   1936    294   6 -0.820000    13.441667533    11.734657536     0.000000000   0   0   1 # o*
   1937    294   8  0.410000    13.656608268    11.151844904    -0.762984661   0   0   1 # h*
   1938    294   8  0.410000    13.675398976    11.142653993     0.749421662   0   0   1 # h*
   1939    295   6 -0.820000    24.706467533    11.734657536     0.000000000   0   0   1 # o*
   1940    295   8  0.410000    24.921408268    11.151844904    -0.762984661   0   0   1 # h*
   1941    295   8  0.410000    24.940198976    11.142653993     0.749421662   0   0   1 # h*
   1942    296   6 -0.820000    35.971267533    11.734657536     0.000000000   0   0   1 # o*
   1943    296   8  0.410000    36.186208268    11.151844904    -0.762984661   0   0   1 # h*
   1944    296   8  0.410000    36.204998976    11.142653993     0.749421662   0   0   1 # h*
   1945    297   6 -0.820000     2.176867533    19.119657536     0.000000000   0   0   1 # o*
   1946    297   8  0.410000     2.391808268    18.536844904    -0.762984661   0   0   1 # h*
   1947    297   8  0.410000     2.410598976    18.527653993     0.749421662   0   0   1 # h*
   1948    298   6 -0.820000    13.441667533    19.119657536     0.000000000   0   0   1 # o*
   1949    298   8  0.410000    13.656608268    18.536844904    -0.762984661   0   0   1 # h*
   1950    298   8  0.410000    13.675398976    18.527653993     0.749421662   0   0   1 # h*
   1951    299   6 -0.820000    24.706467533    19.119657536     0.000000000   0   0   1 # o*
   1952    299   8  0.410000    24.921408268    18.536844904    -0.762984661   0   0   1 # h*
   1953    299   8  0.410000    24.940198976    18.527653993     0.749421662   0   0   1 # h*
   1954    300   6 -0.820000    35.971267533    19.119657536     0.000000000   0   0   1 # o*
   1955    300   8  0.410000    36.186208268    18.536844904    -0.762984661   0   0   1 # h*
   1956    300   8  0.410000    36.204998976    18.527653993     0.749421662   0   0   1 # h*
   1957    301   7  1.500000     1.207533646     5.892058849    17.842984688   0   0   0 # ca+t
   1958    302   7  1.500000    12.472333646     5.892058849    17.842984688   0   0   0 # ca+t
   1959    303   7  1.500000    23.737133646     5.892058849    17.842984688   0   0   0 # ca+t
   1960    304   7  1.500000    35.001933646     5.892058849    17.842984688   0   0   0 # ca+t
   1961    305   7  1.500000     1.207533646    13.277058849    17.842984688   0   0   0 # ca+t
   1962    306   7  1.500000    12.472333646    13.277058849    17.842984688   0   0   0 # ca+t
   1963    307   7  1.500000    23.737133646    13.277058849    17.842984688   0   0   0 # ca+t
   1964    308   7  1.500000    35.001933646    13.277058849    17.842984688   0   0   0 # ca+t
   1965    309   7  1.500000     1.207533646    20.662058849    17.842984688   0   0   0 # ca+t
   1966    310   7  1.500000    12.472333646    20.662058849    17.842984688   0   0   0 # ca+t
   1967    311   7  1.500000    23.737133646    20.662058849    17.842984688   0   0   0 # ca+t
   1968    312   7  1.500000    35.001933646    20.662058849    17.842984688   0   0   0 # ca+t
   1969    313   6 -0.820000     1.320744562     2.208046198    -2.111529350   0   0   1 # o*
   1970    313   7  1.500000     1.293145823     2.217278719    17.864347469   0   0   0 # ca+t
   1971    313   8  0.410000     1.578384565     1.433353335    -1.566580172   0   0   1 # h*
   1972    313   8  0.410000     0.508068867     2.475861202    -1.618608594   0   0   1 # h*
   1973    314   6 -0.820000    12.585544562     2.208046198    -2.111529350   0   0   1 # o*
   1974    314   7  1.500000    12.557945823     2.217278719    17.864347469   0   0   0 # ca+t
   1975    314   8  0.410000    12.843184565     1.433353335    -1.566580172   0   0   1 # h*
   1976    314   8  0.410000    11.772868867     2.475861202    -1.618608594   0   0   1 # h*
   1977    315   6 -0.820000    23.850344562     2.208046198    -2.111529350   0   0   1 # o*
   1978    315   7  1.500000    23.822745823     2.217278719    17.864347469   0   0   0 # ca+t
   1979    315   8  0.410000    24.107984565     1.433353335    -1.566580172   0   0   1 # h*
   1980    315   8  0.410000    23.037668867     2.475861202    -1.618608594   0   0   1 # h*
   1981    316   6 -0.820000    35.115144562     2.208046198    -2.111529350   0   0   1 # o*
   1982    316   7  1.500000    35.087545823     2.217278719    17.864347469   0   0   0 # ca+t
   1983    316   8  0.410000    35.372784565     1.433353335    -1.566580172   0   0   1 # h*
   1984    316   8  0.410000    34.302468867     2.475861202    -1.618608594   0   0   1 # h*
   1985    317   6 -0.820000     1.320744562     9.593046198    -2.111529350   0   0   1 # o*
   1986    317   7  1.500000     1.293145823     9.602278719    17.864347469   0   0   0 # ca+t
   1987    317   8  0.410000     1.578384565     8.818353335    -1.566580172   0   0   1 # h*
   1988    317   8  0.410000     0.508068867     9.860861202    -1.618608594   0   0   1 # h*
   1989    318   6 -0.820000    12.585544562     9.593046198    -2.111529350   0   0   1 # o*
   1990    318   7  1.500000    12.557945823     9.602278719    17.864347469   0   0   0 # ca+t
   1991    318   8  0.410000    12.843184565     8.818353335    -1.566580172   0   0   1 # h*
   1992    318   8  0.410000    11.772868867     9.860861202    -1.618608594   0   0   1 # h*
   1993    319   6 -0.820000    23.850344562     9.593046198    -2.111529350   0   0   1 # o*
   1994    319   7  1.500000    23.822745823     9.602278719    17.864347469   0   0   0 # ca+t
   1995    319   8  0.410000    24.107984565     8.818353335    -1.566580172   0   0   1 # h*
   1996    319   8  0.410000    23.037668867     9.860861202    -1.618608594   0   0   1 # h*
   1997    320   6 -0.820000    35.115144562     9.593046198    -2.111529350   0   0   1 # o*
   1998    320   7  1.500000    35.087545823     9.602278719    17.864347469   0   0   0 # ca+t
   1999    320   8  0.410000    35.372784565     8.818353335    -1.566580172   0   0   1 # h*
   2000    320   8  0.410000    34.302468867     9.860861202    -1.618608594   0   0   1 # h*
   2001    321   6 -0.820000     1.320744562    16.978046198    -2.111529350   0   0   1 # o*
   2002    321   7  1.500000     1.293145823    16.987278719    17.864347469   0   0   0 # ca+t
   2003    321   8  0.410000     1.578384565    16.203353335    -1.566580172   0   0   1 # h*
   2004    321   8  0.410000     0.508068867    17.245861202    -1.618608594   0   0   1 # h*
   2005    322   6 -0.820000    12.585544562    16.978046198    -2.111529350   0   0   1 # o*
   2006    322   7  1.500000    12.557945823    16.987278719    17.864347469   0   0   0 # ca+t
   2007    322   8  0.410000    12.843184565    16.203353335    -1.566580172   0   0   1 # h*
   2008    322   8  0.410000    11.772868867    17.245861202    -1.618608594   0   0   1 # h*
   2009    323   6 -0.820000    23.850344562    16.978046198    -2.111529350   0   0   1 # o*
   2010    323   7  1.500000    23.822745823    16.987278719    17.864347469   0   0   0 # ca+t
   2011    323   8  0.410000    24.107984565    16.203353335    -1.566580172   0   0   1 # h*
   2012    323   8  0.410000    23.037668867    17.245861202    -1.618608594   0   0   1 # h*
   2013    324   6 -0.820000    35.115144562    16.978046198    -2.111529350   0   0   1 # o*
   2014    324   7  1.500000    35.087545823    16.987278719    17.864347469   0   0   0 # ca+t
   2015    324   8  0.410000    35.372784565    16.203353335    -1.566580172   0   0   1 # h*
   2016    324   8  0.410000    34.302468867    17.245861202    -1.618608594   0   0   1 # h*
   2017    325   6 -0.820000     7.809254456     0.656902611     0.000000000   0   0   0 # o*
   2018    325   8  0.410000     8.564200756     0.203223035     0.435262825   0   0   0 # h*
   2019    325   8  0.410000     7.144915223     0.562583084     0.714659139   0   0   0 # h*
   2020    326   6 -0.820000    19.074054456     0.656902611     0.000000000   0   0   0 # o*
   2021    326   8  0.410000    19.829000756     0.203223035     0.435262825   0   0   0 # h*
   2022    326   8  0.410000    18.409715223     0.562583084     0.714659139   0   0   0 # h*
   2023    327   6 -0.820000    30.338854456     0.656902611     0.000000000   0   0   0 # o*
   2024    327   8  0.410000    31.093800756     0.203223035     0.435262825   0   0   0 # h*
   2025    327   8  0.410000    29.674515223     0.562583084     0.714659139   0   0   0 # h*
   2026    328   6 -0.820000    41.603654456     0.656902611     0.000000000   0   0   0 # o*
   2027    328   8  0.410000    42.358600756     0.203223035     0.435262825   0   0   0 # h*
   2028    328   8  0.410000    40.939315223     0.562583084     0.714659139   0   0   0 # h*
   2029    329   6 -0.820000     7.809254456     8.041902611     0.000000000   0   0   0 # o*
   2030    329   8  0.410000     8.564200756     7.588223035     0.435262825   0   0   0 # h*
   2031    329   8  0.410000     7.144915223     7.947583084     0.714659139   0   0   0 # h*
   2032    330   6 -0.820000    19.074054456     8.041902611     0.000000000   0   0   0 # o*
   2033    330   8  0.410000    19.829000756     7.588223035     0.435262825   0   0   0 # h*
   2034    330   8  0.410000    18.409715223     7.947583084     0.714659139   0   0   0 # h*
   2035    331   6 -0.820000    30.338854456     8.041902611     0.000000000   0   0   0 # o*
   2036    331   8  0.410000    31.093800756     7.588223035     0.435262825   0   0   0 # h*
   2037    331   8  0.410000    29.674515223     7.947583084     0.714659139   0   0   0 # h*
   2038    332   6 -0.820000    41.603654456     8.041902611     0.000000000   0   0   0 # o*
   2039    332   8  0.410000    42.358600756     7.588223035     0.435262825   0   0   0 # h*
   2040    332   8  0.410000    40.939315223     7.947583084     0.714659139   0   0   0 # h*
   2041    333   6 -0.820000     7.809254456    15.426902611     0.000000000   0   0   0 # o*
   2042    333   8  0.410000     8.564200756    14.973223035     0.435262825   0   0   0 # h*
   2043    333   8  0.410000     7.144915223    15.332583084     0.714659139   0   0   0 # h*
   2044    334   6 -0.820000    19.074054456    15.426902611     0.000000000   0   0   0 # o*
   2045    334   8  0.410000    19.829000756    14.973223035     0.435262825   0   0   0 # h*
   2046    334   8  0.410000    18.409715223    15.332583084     0.714659139   0   0   0 # h*
   2047    335   6 -0.820000    30.338854456    15.426902611     0.000000000   0   0   0 # o*
   2048    335   8  0.410000    31.093800756    14.973223035     0.435262825   0   0   0 # h*
   2049    335   8  0.410000    29.674515223    15.332583084     0.714659139   0   0   0 # h*
   2050    336   6 -0.820000    41.603654456    15.426902611     0.000000000   0   0   0 # o*
   2051    336   8  0.410000    42.358600756    14.973223035     0.435262825   0   0   0 # h*
   2052    336   8  0.410000    40.939315223    15.332583084     0.714659139   0   0   0 # h*
   2053    337   7  1.500000     6.839920807     2.199303627    17.842984688   0   0   0 # ca+t
   2054    338   7  1.500000    18.104720807     2.199303627    17.842984688   0   0   0 # ca+t
   2055    339   7  1.500000    29.369520807     2.199303627    17.842984688   0   0   0 # ca+t
   2056    340   7  1.500000    40.634320807     2.199303627    17.842984688   0   0   0 # ca+t
   2057    341   7  1.500000     6.839920807     9.584303627    17.842984688   0   0   0 # ca+t
   2058    342   7  1.500000    18.104720807     9.584303627    17.842984688   0   0   0 # ca+t
   2059    343   7  1.500000    29.369520807     9.584303627    17.842984688   0   0   0 # ca+t
   2060    344   7  1.500000    40.634320807     9.584303627    17.842984688   0   0   0 # ca+t
   2061    345   7  1.500000     6.839920807    16.969303627    17.842984688   0   0   0 # ca+t
   2062    346   7  1.500000    18.104720807    16.969303627    17.842984688   0   0   0 # ca+t
   2063    347   7  1.500000    29.369520807    16.969303627    17.842984688   0   0   0 # ca+t
   2064    348   7  1.500000    40.634320807    16.969303627    17.842984688   0   0   0 # ca+t
   2065    349   6 -0.820000     6.953131962     5.900291443    -2.111529350   0   0   1 # o*
   2066    349   7  1.500000     6.925533104     5.909523964    17.864347469   0   0   0 # ca+t
   2067    349   8  0.410000     6.199425150     6.009087809    -1.486920264   0   0   1 # h*
   2068    349   8  0.410000     7.598531625     6.524918493    -1.707686433   0   0   1 # h*
   2069    350   6 -0.820000    18.217931962     5.900291443    -2.111529350   0   0   1 # o*
   2070    350   7  1.500000    18.190333104     5.909523964    17.864347469   0   0   0 # ca+t
   2071    350   8  0.410000    17.464225150     6.009087809    -1.486920264   0   0   1 # h*
   2072    350   8  0.410000    18.863331625     6.524918493    -1.707686433   0   0   1 # h*
   2073    351   6 -0.820000    29.482731962     5.900291443    -2.111529350   0   0   1 # o*
   2074    351   7  1.500000    29.455133104     5.909523964    17.864347469   0   0   0 # ca+t
   2075    351   8  0.410000    28.729025150     6.009087809    -1.486920264   0   0   1 # h*
   2076    351   8  0.410000    30.128131625     6.524918493    -1.707686433   0   0   1 # h*
   2077    352   6 -0.820000    40.747531962     5.900291443    -2.111529350   0   0   1 # o*
   2078    352   7  1.500000    40.719933104     5.909523964    17.864347469   0   0   0 # ca+t
   2079    352   8  0.410000    39.993825150     6.009087809    -1.486920264   0   0   1 # h*
   2080    352   8  0.410000    41.392931625     6.524918493    -1.707686433   0   0   1 # h*
   2081    353   6 -0.820000     6.953131962    13.285291443    -2.111529350   0   0   1 # o*
   2082    353   7  1.500000     6.925533104    13.294523964    17.864347469   0   0   0 # ca+t
   2083    353   8  0.410000     6.199425150    13.394087809    -1.486920264   0   0   1 # h*
   2084    353   8  0.410000     7.598531625    13.909918493    -1.707686433   0   0   1 # h*
   2085    354   6 -0.820000    18.217931962    13.285291443    -2.111529350   0   0   1 # o*
   2086    354   7  1.500000    18.190333104    13.294523964    17.864347469   0   0   0 # ca+t
   2087    354   8  0.410000    17.464225150    13.394087809    -1.486920264   0   0   1 # h*
   2088    354   8  0.410000    18.863331625    13.909918493    -1.707686433   0   0   1 # h*
   2089    355   6 -0.820000    29.482731962    13.285291443    -2.111529350   0   0   1 # o*
   2090    355   7  1.500000    29.455133104    13.294523964    17.864347469   0   0   0 # ca+t
   2091    355   8  0.410000    28.729025150    13.394087809    -1.486920264   0   0   1 # h*
   2092    355   8  0.410000    30.128131625    13.909918493    -1.707686433   0   0   1 # h*
   2093    356   6 -0.820000    40.747531962    13.285291443    -2.111529350   0   0   1 # o*
   2094    356   7  1.500000    40.719933104    13.294523964    17.864347469   0   0   0 # ca+t
   2095    356   8  0.410000    39.993825150    13.394087809    -1.486920264   0   0   1 # h*
   2096    356   8  0.410000    41.392931625    13.909918493    -1.707686433   0   0   1 # h*
   2097    357   6 -0.820000     6.953131962    20.670291443    -2.111529350   0   0   1 # o*
   2098    357   7  1.500000     6.925533104    20.679523964    17.864347469   0   0   0 # ca+t
   2099    357   8  0.410000     6.199425150    20.779087809    -1.486920264   0   0   1 # h*
   2100    357   8  0.410000     7.598531625    21.294918493    -1.707686433   0   0   1 # h*
   2101    358   6 -0.820000    18.217931962    20.670291443    -2.111529350   0   0   1 # o*
   2102    358   7  1.500000    18.190333104    20.679523964    17.864347469   0   0   0 # ca+t
   2103    358   8  0.410000    17.464225150    20.779087809    -1.486920264   0   0   1 # h*
   2104    358   8  0.410000    18.863331625    21.294918493    -1.707686433   0   0   1 # h*
   2105    359   6 -0.820000    29.482731962    20.670291443    -2.111529350   0   0   1 # o*
   2106    359   7  1.500000    29.455133104    20.679523964    17.864347469   0   0   0 # ca+t
   2107    359   8  0.410000    28.729025150    20.779087809    -1.486920264   0   0   1 # h*
   2108    359   8  0.410000    30.128131625    21.294918493    -1.707686433   0   0   1 # h*
   2109    360   6 -0.820000    40.747531962    20.670291443    -2.111529350   0   0   1 # o*
   2110    360   7  1.500000    40.719933104    20.679523964    17.864347469   0   0   0 # ca+t
   2111    360   8  0.410000    39.993825150    20.779087809    -1.486920264   0   0   1 # h*
   2112    360   8  0.410000    41.392931625    21.294918493    -1.707686433   0   0   1 # h*

Bonds

     1   1      1      7
     2   2      1     11
     3   2      1     13
     4   1      1    201
     5   1      2      8
     6   2      2     12
     7   2      2     14
     8   1      2    202
     9   3      3      7
    10   4      3     15
    11   3      3     17
    12   5      3    637
    13   3      4      8
    14   4      4     15
    15   3      4     18
    16   5      4    638
    17   1      5      9
    18   1      5     17
    19   2      5     19
    20   2      5   1801
    21   1      6     10
    22   1      6     18
    23   2      6     20
    24   2      6   1802
    25   1     97      9
    26   1     98     10
    27   6     16     23
    28   6     16     24
    29   1     25     31
    30   2     25     35
    31   2     25     37
    32   1     25    225
    33   1     26     32
    34   2     26     36
    35   2     26     38
    36   1     26    226
    37   3     27     31
    38   4     27     39
    39   3     27     41
    40   5     27    639
    41   3     28     32
    42   4     28     39
    43   3     28     42
    44   5     28    640
    45   1     29     33
    46   1     29     41
    47   2     29     43
    48   2     29   1803
    49   1     30     34
    50   1     30     42
    51   2     30     44
    52   2     30   1804
    53   1    121     33
    54   1    122     34
    55   6     40     47
    56   6     40     48
    57   1     49     55
    58   2     49     59
    59   2     49     61
    60   1     49    249
    61   1     50     56
    62   2     50     60
    63   2     50     62
    64   1     50    250
    65   3     51     55
    66   4     51     63
    67   3     51     65
    68   5     51    641
    69   3     52     56
    70   4     52     63
    71   3     52     66
    72   5     52    642
    73   1     53     57
    74   1     53     65
    75   2     53     67
    76   2     53   1805
    77   1     54     58
    78   1     54     66
    79   2     54     68
    80   2     54   1806
    81   1    145     57
    82   1    146     58
    83   6     64     71
    84   6     64     72
    85   1     73     79
    86   2     73     83
    87   2     73     85
    88   1     73    273
    89   1     74     80
    90   2     74     84
    91   2     74     86
    92   1     74    274
    93   3     75     79
    94   4     75     87
    95   3     75     89
    96   5     75    643
    97   3     76     80
    98   4     76     87
    99   3     76     90
   100   5     76    644
   101   1     77     81
   102   1     77     89
   103   2     77     91
   104   2     77   1807
   105   1     78     82
   106   1     78     90
   107   2     78     92
   108   2     78   1808
   109   1    169     81
   110   1    170     82
   111   6     88     95
   112   6     88     96
   113   1     97    103
   114   2     97    107
   115   2     97    109
   116   1     98    104
   117   2     98    108
   118   2     98    110
   119   3     99    103
   120   4     99    111
   121   3     99    113
   122   5     99    645
   123   3    100    104
   124   4    100    111
   125   3    100    114
   126   5    100    646
   127   1    101    105
   128   1    101    113
   129   2    101    115
   130   2    101   1809
   131   1    102    106
   132   1    102    114
   133   2    102    116
   134   2    102   1810
   135   1    193    105
   136   1    194    106
   137   6    112    119
   138   6    112    120
   139   1    121    127
   140   2    121    131
   141   2    121    133
   142   1    122    128
   143   2    122    132
   144   2    122    134
   145   3    123    127
   146   4    123    135
   147   3    123    137
   148   5    123    647
   149   3    124    128
   150   4    124    135
   151   3    124    138
   152   5    124    648
   153   1    125    129
   154   1    125    137
   155   2    125    139
   156   2    125   1811
   157   1    126    130
   158   1    126    138
   159   2    126    140
   160   2    126   1812
   161   1    217    129
   162   1    218    130
   163   6    136    143
   164   6    136    144
   165   1    145    151
   166   2    145    155
   167   2    145    157
   168   1    146    152
   169   2    146    156
   170   2    146    158
   171   3    147    151
   172   4    147    159
   173   3    147    161
   174   5    147    649
   175   3    148    152
   176   4    148    159
   177   3    148    162
   178   5    148    650
   179   1    149    153
   180   1    149    161
   181   2    149    163
   182   2    149   1813
   183   1    150    154
   184   1    150    162
   185   2    150    164
   186   2    150   1814
   187   1    241    153
   188   1    242    154
   189   6    160    167
   190   6    160    168
   191   1    169    175
   192   2    169    179
   193   2    169    181
   194   1    170    176
   195   2    170    180
   196   2    170    182
   197   3    171    175
   198   4    171    183
   199   3    171    185
   200   5    171    651
   201   3    172    176
   202   4    172    183
   203   3    172    186
   204   5    172    652
   205   1    173    177
   206   1    173    185
   207   2    173    187
   208   2    173   1815
   209   1    174    178
   210   1    174    186
   211   2    174    188
   212   2    174   1816
   213   1    265    177
   214   1    266    178
   215   6    184    191
   216   6    184    192
   217   1    193    199
   218   2    193    203
   219   2    193    205
   220   1    194    200
   221   2    194    204
   222   2    194    206
   223   3    195    199
   224   4    195    207
   225   3    195    209
   226   5    195    653
   227   3    196    200
   228   4    196    207
   229   3    196    210
   230   5    196    654
   231   1    197    201
   232   1    197    209
   233   2    197    211
   234   2    197   1817
   235   1    198    202
   236   1    198    210
   237   2    198    212
   238   2    198   1818
   239   6    208    215
   240   6    208    216
   241   1    217    223
   242   2    217    227
   243   2    217    229
   244   1    218    224
   245   2    218    228
   246   2    218    230
   247   3    219    223
   248   4    219    231
   249   3    219    233
   250   5    219    655
   251   3    220    224
   252   4    220    231
   253   3    220    234
   254   5    220    656
   255   1    221    225
   256   1    221    233
   257   2    221    235
   258   2    221   1819
   259   1    222    226
   260   1    222    234
   261   2    222    236
   262   2    222   1820
   263   6    232    239
   264   6    232    240
   265   1    241    247
   266   2    241    251
   267   2    241    253
   268   1    242    248
   269   2    242    252
   270   2    242    254
   271   3    243    247
   272   4    243    255
   273   3    243    257
   274   5    243    657
   275   3    244    248
   276   4    244    255
   277   3    244    258
   278   5    244    658
   279   1    245    249
   280   1    245    257
   281   2    245    259
   282   2    245   1821
   283   1    246    250
   284   1    246    258
   285   2    246    260
   286   2    246   1822
   287   6    256    263
   288   6    256    264
   289   1    265    271
   290   2    265    275
   291   2    265    277
   292   1    266    272
   293   2    266    276
   294   2    266    278
   295   3    267    271
   296   4    267    279
   297   3    267    281
   298   5    267    659
   299   3    268    272
   300   4    268    279
   301   3    268    282
   302   5    268    660
   303   1    269    273
   304   1    269    281
   305   2    269    283
   306   2    269   1823
   307   1    270    274
   308   1    270    282
   309   2    270    284
   310   2    270   1824
   311   6    280    287
   312   6    280    288
   313   6    289    291
   314   6    289    292
   315   6    290    293
   316   6    290    294
   317   6    295    297
   318   6    295    298
   319   6    296    299
   320   6    296    300
   321   6    301    303
   322   6    301    304
   323   6    302    305
   324   6    302    306
   325   6    307    309
   326   6    307    310
   327   6    308    311
   328   6    308    312
   329   6    313    315
   330   6    313    316
   331   6    314    317
   332   6    314    318
   333   6    319    321
   334   6    319    322
   335   6    320    323
   336   6    320    324
   337   6    325    327
   338   6    325    328
   339   6    326    329
   340   6    326    330
   341   6    331    333
   342   6    331    334
   343   6    332    335
   344   6    332    336
   345   6    337    339
   346   6    337    340
   347   6    338    341
   348   6    338    342
   349   6    343    345
   350   6    343    346
   351   6    344    347
   352   6    344    348
   353   6    349    351
   354   6    349    352
   355   6    350    353
   356   6    350    354
   357   6    355    357
   358   6    355    358
   359   6    356    359
   360   6    356    360
   361   1    361    367
   362   1    361    369
   363   2    361    371
   364   2    361    373
   365   1    362    368
   366   1    362    370
   367   2    362    372
   368   2    362    374
   369   3    363    367
   370   4    363    375
   371   3    363    376
   372   5    363    661
   373   3    364    368
   374   4    364    375
   375   3    364    377
   376   5    364    662
   377   1    365    376
   378   2    365    378
   379   2    365   1825
   380   1    365    461
   381   1    366    377
   382   2    366    379
   383   2    366   1826
   384   1    366    462
   385   1    549    369
   386   1    550    370
   387   6    381    382
   388   6    381    383
   389   1    384    390
   390   1    384    392
   391   2    384    394
   392   2    384    396
   393   1    385    391
   394   1    385    393
   395   2    385    395
   396   2    385    397
   397   3    386    390
   398   4    386    398
   399   3    386    399
   400   5    386    677
   401   3    387    391
   402   4    387    398
   403   3    387    400
   404   5    387    678
   405   1    388    399
   406   2    388    401
   407   2    388   1827
   408   1    388    484
   409   1    389    400
   410   2    389    402
   411   2    389   1828
   412   1    389    485
   413   1    572    392
   414   1    573    393
   415   6    404    405
   416   6    404    406
   417   1    407    413
   418   1    407    415
   419   2    407    417
   420   2    407    419
   421   1    408    414
   422   1    408    416
   423   2    408    418
   424   2    408    420
   425   3    409    413
   426   4    409    421
   427   3    409    422
   428   5    409    693
   429   3    410    414
   430   4    410    421
   431   3    410    423
   432   5    410    694
   433   1    411    422
   434   2    411    424
   435   2    411   1829
   436   1    411    507
   437   1    412    423
   438   2    412    425
   439   2    412   1830
   440   1    412    508
   441   1    595    415
   442   1    596    416
   443   6    427    428
   444   6    427    429
   445   1    430    436
   446   1    430    438
   447   2    430    440
   448   2    430    442
   449   1    431    437
   450   1    431    439
   451   2    431    441
   452   2    431    443
   453   3    432    436
   454   4    432    444
   455   3    432    445
   456   5    432    709
   457   3    433    437
   458   4    433    444
   459   3    433    446
   460   5    433    710
   461   1    434    445
   462   2    434    447
   463   2    434   1831
   464   1    434    530
   465   1    435    446
   466   2    435    448
   467   2    435   1832
   468   1    435    531
   469   1    618    438
   470   1    619    439
   471   6    450    451
   472   6    450    452
   473   1    453    459
   474   1    453    461
   475   2    453    463
   476   2    453    465
   477   1    454    460
   478   1    454    462
   479   2    454    464
   480   2    454    466
   481   3    455    459
   482   4    455    467
   483   3    455    468
   484   5    455    725
   485   3    456    460
   486   4    456    467
   487   3    456    469
   488   5    456    726
   489   1    457    468
   490   2    457    470
   491   2    457   1833
   492   1    457    553
   493   1    458    469
   494   2    458    471
   495   2    458   1834
   496   1    458    554
   497   6    473    474
   498   6    473    475
   499   1    476    482
   500   1    476    484
   501   2    476    486
   502   2    476    488
   503   1    477    483
   504   1    477    485
   505   2    477    487
   506   2    477    489
   507   3    478    482
   508   4    478    490
   509   3    478    491
   510   5    478    741
   511   3    479    483
   512   4    479    490
   513   3    479    492
   514   5    479    742
   515   1    480    491
   516   2    480    493
   517   2    480   1835
   518   1    480    576
   519   1    481    492
   520   2    481    494
   521   2    481   1836
   522   1    481    577
   523   6    496    497
   524   6    496    498
   525   1    499    505
   526   1    499    507
   527   2    499    509
   528   2    499    511
   529   1    500    506
   530   1    500    508
   531   2    500    510
   532   2    500    512
   533   3    501    505
   534   4    501    513
   535   3    501    514
   536   5    501    757
   537   3    502    506
   538   4    502    513
   539   3    502    515
   540   5    502    758
   541   1    503    514
   542   2    503    516
   543   2    503   1837
   544   1    503    599
   545   1    504    515
   546   2    504    517
   547   2    504   1838
   548   1    504    600
   549   6    519    520
   550   6    519    521
   551   1    522    528
   552   1    522    530
   553   2    522    532
   554   2    522    534
   555   1    523    529
   556   1    523    531
   557   2    523    533
   558   2    523    535
   559   3    524    528
   560   4    524    536
   561   3    524    537
   562   5    524    773
   563   3    525    529
   564   4    525    536
   565   3    525    538
   566   5    525    774
   567   1    526    537
   568   2    526    539
   569   2    526   1839
   570   1    526    622
   571   1    527    538
   572   2    527    540
   573   2    527   1840
   574   1    527    623
   575   6    542    543
   576   6    542    544
   577   1    545    551
   578   1    545    553
   579   2    545    555
   580   2    545    557
   581   1    546    552
   582   1    546    554
   583   2    546    556
   584   2    546    558
   585   3    547    551
   586   4    547    559
   587   3    547    560
   588   5    547    789
   589   3    548    552
   590   4    548    559
   591   3    548    561
   592   5    548    790
   593   1    549    560
   594   2    549    562
   595   2    549   1841
   596   1    550    561
   597   2    550    563
   598   2    550   1842
   599   6    565    566
   600   6    565    567
   601   1    568    574
   602   1    568    576
   603   2    568    578
   604   2    568    580
   605   1    569    575
   606   1    569    577
   607   2    569    579
   608   2    569    581
   609   3    570    574
   610   4    570    582
   611   3    570    583
   612   5    570    805
   613   3    571    575
   614   4    571    582
   615   3    571    584
   616   5    571    806
   617   1    572    583
   618   2    572    585
   619   2    572   1843
   620   1    573    584
   621   2    573    586
   622   2    573   1844
   623   6    588    589
   624   6    588    590
   625   1    591    597
   626   1    591    599
   627   2    591    601
   628   2    591    603
   629   1    592    598
   630   1    592    600
   631   2    592    602
   632   2    592    604
   633   3    593    597
   634   4    593    605
   635   3    593    606
   636   5    593    821
   637   3    594    598
   638   4    594    605
   639   3    594    607
   640   5    594    822
   641   1    595    606
   642   2    595    608
   643   2    595   1845
   644   1    596    607
   645   2    596    609
   646   2    596   1846
   647   6    611    612
   648   6    611    613
   649   1    614    620
   650   1    614    622
   651   2    614    624
   652   2    614    626
   653   1    615    621
   654   1    615    623
   655   2    615    625
   656   2    615    627
   657   3    616    620
   658   4    616    628
   659   3    616    629
   660   5    616    837
   661   3    617    621
   662   4    617    628
   663   3    617    630
   664   5    617    838
   665   1    618    629
   666   2    618    631
   667   2    618   1847
   668   1    619    630
   669   2    619    632
   670   2    619   1848
   671   6    634    635
   672   6    634    636
   673   7    637    865
   674   7    638    889
   675   7    639    866
   676   7    640    890
   677   7    641    867
   678   7    642    891
   679   7    643    868
   680   7    644    892
   681   7    645    869
   682   7    646    893
   683   7    647    870
   684   7    648    894
   685   7    649    871
   686   7    650    895
   687   7    651    872
   688   7    652    896
   689   7    653    873
   690   7    654    897
   691   7    655    874
   692   7    656    898
   693   7    657    875
   694   7    658    899
   695   7    659    876
   696   7    660    900
   697   7    661    877
   698   7    662   1849
   699   6    663    673
   700   6    663    675
   701   6    664    674
   702   6    664    676
   703   6    667    669
   704   6    667    670
   705   6    668    671
   706   6    668    672
   707   7    677    878
   708   7    678   1850
   709   6    679    689
   710   6    679    691
   711   6    680    690
   712   6    680    692
   713   6    683    685
   714   6    683    686
   715   6    684    687
   716   6    684    688
   717   7    693    879
   718   7    694   1851
   719   6    695    705
   720   6    695    707
   721   6    696    706
   722   6    696    708
   723   6    699    701
   724   6    699    702
   725   6    700    703
   726   6    700    704
   727   7    709    880
   728   7    710   1852
   729   6    711    721
   730   6    711    723
   731   6    712    722
   732   6    712    724
   733   6    715    717
   734   6    715    718
   735   6    716    719
   736   6    716    720
   737   7    725    881
   738   7    726   1853
   739   6    727    737
   740   6    727    739
   741   6    728    738
   742   6    728    740
   743   6    731    733
   744   6    731    734
   745   6    732    735
   746   6    732    736
   747   7    741    882
   748   7    742   1854
   749   6    743    753
   750   6    743    755
   751   6    744    754
   752   6    744    756
   753   6    747    749
   754   6    747    750
   755   6    748    751
   756   6    748    752
   757   7    757    883
   758   7    758   1855
   759   6    759    769
   760   6    759    771
   761   6    760    770
   762   6    760    772
   763   6    763    765
   764   6    763    766
   765   6    764    767
   766   6    764    768
   767   7    773    884
   768   7    774   1856
   769   6    775    785
   770   6    775    787
   771   6    776    786
   772   6    776    788
   773   6    779    781
   774   6    779    782
   775   6    780    783
   776   6    780    784
   777   7    789    885
   778   7    790   1857
   779   6    791    801
   780   6    791    803
   781   6    792    802
   782   6    792    804
   783   6    795    797
   784   6    795    798
   785   6    796    799
   786   6    796    800
   787   7    805    886
   788   7    806   1858
   789   6    807    817
   790   6    807    819
   791   6    808    818
   792   6    808    820
   793   6    811    813
   794   6    811    814
   795   6    812    815
   796   6    812    816
   797   7    821    887
   798   7    822   1859
   799   6    823    833
   800   6    823    835
   801   6    824    834
   802   6    824    836
   803   6    827    829
   804   6    827    830
   805   6    828    831
   806   6    828    832
   807   7    837    888
   808   7    838   1860
   809   6    839    849
   810   6    839    851
   811   6    840    850
   812   6    840    852
   813   6    843    845
   814   6    843    846
   815   6    844    847
   816   6    844    848
   817   1    901    907
   818   1    901    909
   819   2    901    911
   820   2    901    913
   821   1    902    908
   822   1    902    910
   823   2    902    912
   824   2    902    914
   825   3    903    907
   826   4    903    915
   827   3    903    917
   828   5    903   1537
   829   3    904    908
   830   4    904    915
   831   3    904    918
   832   5    904   1538
   833   1    905    909
   834   2    905    919
   835   2    905   1861
   836   1    905   1133
   837   1    906    910
   838   2    906    920
   839   2    906   1862
   840   1    906   1134
   841   6    916    926
   842   6    916    927
   843   1   1013    917
   844   1   1014    918
   845   6    923    924
   846   6    923    925
   847   1    928    934
   848   1    928    936
   849   2    928    938
   850   2    928    940
   851   1    929    935
   852   1    929    937
   853   2    929    939
   854   2    929    941
   855   3    930    934
   856   4    930    942
   857   3    930    944
   858   5    930   1539
   859   3    931    935
   860   4    931    942
   861   3    931    945
   862   5    931   1540
   863   1    932    936
   864   2    932    946
   865   2    932   1863
   866   1    932   1160
   867   1    933    937
   868   2    933    947
   869   2    933   1864
   870   1    933   1161
   871   6    943    953
   872   6    943    954
   873   1   1040    944
   874   1   1041    945
   875   6    950    951
   876   6    950    952
   877   1    955    961
   878   1    955    963
   879   2    955    965
   880   2    955    967
   881   1    956    962
   882   1    956    964
   883   2    956    966
   884   2    956    968
   885   3    957    961
   886   4    957    969
   887   3    957    971
   888   5    957   1541
   889   3    958    962
   890   4    958    969
   891   3    958    972
   892   5    958   1542
   893   1    959    963
   894   2    959    973
   895   2    959   1865
   896   1    959   1187
   897   1    960    964
   898   2    960    974
   899   2    960   1866
   900   1    960   1188
   901   6    970    980
   902   6    970    981
   903   1   1067    971
   904   1   1068    972
   905   6    977    978
   906   6    977    979
   907   1    982    988
   908   1    982    990
   909   2    982    992
   910   2    982    994
   911   1    983    989
   912   1    983    991
   913   2    983    993
   914   2    983    995
   915   3    984    988
   916   4    984    996
   917   3    984    998
   918   5    984   1543
   919   3    985    989
   920   4    985    996
   921   3    985    999
   922   5    985   1544
   923   1    986    990
   924   2    986   1000
   925   2    986   1867
   926   1    986   1214
   927   1    987    991
   928   2    987   1001
   929   2    987   1868
   930   1    987   1215
   931   6    997   1007
   932   6    997   1008
   933   1   1094    998
   934   1   1095    999
   935   6   1004   1005
   936   6   1004   1006
   937   1   1009   1015
   938   1   1009   1017
   939   2   1009   1019
   940   2   1009   1021
   941   1   1010   1016
   942   1   1010   1018
   943   2   1010   1020
   944   2   1010   1022
   945   3   1011   1015
   946   4   1011   1023
   947   3   1011   1025
   948   5   1011   1545
   949   3   1012   1016
   950   4   1012   1023
   951   3   1012   1026
   952   5   1012   1546
   953   1   1013   1017
   954   2   1013   1027
   955   2   1013   1869
   956   1   1014   1018
   957   2   1014   1028
   958   2   1014   1870
   959   6   1024   1034
   960   6   1024   1035
   961   1   1121   1025
   962   1   1122   1026
   963   6   1031   1032
   964   6   1031   1033
   965   1   1036   1042
   966   1   1036   1044
   967   2   1036   1046
   968   2   1036   1048
   969   1   1037   1043
   970   1   1037   1045
   971   2   1037   1047
   972   2   1037   1049
   973   3   1038   1042
   974   4   1038   1050
   975   3   1038   1052
   976   5   1038   1547
   977   3   1039   1043
   978   4   1039   1050
   979   3   1039   1053
   980   5   1039   1548
   981   1   1040   1044
   982   2   1040   1054
   983   2   1040   1871
   984   1   1041   1045
   985   2   1041   1055
   986   2   1041   1872
   987   6   1051   1061
   988   6   1051   1062
   989   1   1148   1052
   990   1   1149   1053
   991   6   1058   1059
   992   6   1058   1060
   993   1   1063   1069
   994   1   1063   1071
   995   2   1063   1073
   996   2   1063   1075
   997   1   1064   1070
   998   1   1064   1072
   999   2   1064   1074
  1000   2   1064   1076
  1001   3   1065   1069
  1002   4   1065   1077
  1003   3   1065   1079
  1004   5   1065   1549
  1005   3   1066   1070
  1006   4   1066   1077
  1007   3   1066   1080
  1008   5   1066   1550
  1009   1   1067   1071
  1010   2   1067   1081
  1011   2   1067   1873
  1012   1   1068   1072
  1013   2   1068   1082
  1014   2   1068   1874
  1015   6   1078   1088
  1016   6   1078   1089
  1017   1   1175   1079
  1018   1   1176   1080
  1019   6   1085   1086
  1020   6   1085   1087
  1021   1   1090   1096
  1022   1   1090   1098
  1023   2   1090   1100
  1024   2   1090   1102
  1025   1   1091   1097
  1026   1   1091   1099
  1027   2   1091   1101
  1028   2   1091   1103
  1029   3   1092   1096
  1030   4   1092   1104
  1031   3   1092   1106
  1032   5   1092   1551
  1033   3   1093   1097
  1034   4   1093   1104
  1035   3   1093   1107
  1036   5   1093   1552
  1037   1   1094   1098
  1038   2   1094   1108
  1039   2   1094   1875
  1040   1   1095   1099
  1041   2   1095   1109
  1042   2   1095   1876
  1043   6   1105   1115
  1044   6   1105   1116
  1045   1   1202   1106
  1046   1   1203   1107
  1047   6   1112   1113
  1048   6   1112   1114
  1049   1   1117   1123
  1050   1   1117   1125
  1051   2   1117   1127
  1052   2   1117   1129
  1053   1   1118   1124
  1054   1   1118   1126
  1055   2   1118   1128
  1056   2   1118   1130
  1057   3   1119   1123
  1058   4   1119   1131
  1059   3   1119   1133
  1060   5   1119   1553
  1061   3   1120   1124
  1062   4   1120   1131
  1063   3   1120   1134
  1064   5   1120   1554
  1065   1   1121   1125
  1066   2   1121   1135
  1067   2   1121   1877
  1068   1   1122   1126
  1069   2   1122   1136
  1070   2   1122   1878
  1071   6   1132   1142
  1072   6   1132   1143
  1073   6   1139   1140
  1074   6   1139   1141
  1075   1   1144   1150
  1076   1   1144   1152
  1077   2   1144   1154
  1078   2   1144   1156
  1079   1   1145   1151
  1080   1   1145   1153
  1081   2   1145   1155
  1082   2   1145   1157
  1083   3   1146   1150
  1084   4   1146   1158
  1085   3   1146   1160
  1086   5   1146   1555
  1087   3   1147   1151
  1088   4   1147   1158
  1089   3   1147   1161
  1090   5   1147   1556
  1091   1   1148   1152
  1092   2   1148   1162
  1093   2   1148   1879
  1094   1   1149   1153
  1095   2   1149   1163
  1096   2   1149   1880
  1097   6   1159   1169
  1098   6   1159   1170
  1099   6   1166   1167
  1100   6   1166   1168
  1101   1   1171   1177
  1102   1   1171   1179
  1103   2   1171   1181
  1104   2   1171   1183
  1105   1   1172   1178
  1106   1   1172   1180
  1107   2   1172   1182
  1108   2   1172   1184
  1109   3   1173   1177
  1110   4   1173   1185
  1111   3   1173   1187
  1112   5   1173   1557
  1113   3   1174   1178
  1114   4   1174   1185
  1115   3   1174   1188
  1116   5   1174   1558
  1117   1   1175   1179
  1118   2   1175   1189
  1119   2   1175   1881
  1120   1   1176   1180
  1121   2   1176   1190
  1122   2   1176   1882
  1123   6   1186   1196
  1124   6   1186   1197
  1125   6   1193   1194
  1126   6   1193   1195
  1127   1   1198   1204
  1128   1   1198   1206
  1129   2   1198   1208
  1130   2   1198   1210
  1131   1   1199   1205
  1132   1   1199   1207
  1133   2   1199   1209
  1134   2   1199   1211
  1135   3   1200   1204
  1136   4   1200   1212
  1137   3   1200   1214
  1138   5   1200   1559
  1139   3   1201   1205
  1140   4   1201   1212
  1141   3   1201   1215
  1142   5   1201   1560
  1143   1   1202   1206
  1144   2   1202   1216
  1145   2   1202   1883
  1146   1   1203   1207
  1147   2   1203   1217
  1148   2   1203   1884
  1149   6   1213   1223
  1150   6   1213   1224
  1151   6   1220   1221
  1152   6   1220   1222
  1153   6   1225   1226
  1154   6   1225   1227
  1155   6   1228   1229
  1156   6   1228   1230
  1157   6   1231   1232
  1158   6   1231   1233
  1159   6   1234   1235
  1160   6   1234   1236
  1161   6   1237   1238
  1162   6   1237   1239
  1163   6   1240   1241
  1164   6   1240   1242
  1165   6   1243   1244
  1166   6   1243   1245
  1167   6   1246   1247
  1168   6   1246   1248
  1169   6   1249   1250
  1170   6   1249   1251
  1171   6   1252   1253
  1172   6   1252   1254
  1173   6   1255   1256
  1174   6   1255   1257
  1175   6   1258   1259
  1176   6   1258   1260
  1177   1   1261   1267
  1178   1   1261   1269
  1179   2   1261   1271
  1180   2   1261   1273
  1181   1   1262   1268
  1182   1   1262   1270
  1183   2   1262   1272
  1184   2   1262   1274
  1185   4   1263   1275
  1186   3   1263   1276
  1187   5   1263   1561
  1188   3   1263   1451
  1189   4   1264   1275
  1190   3   1264   1277
  1191   5   1264   1562
  1192   3   1264   1452
  1193   1   1265   1269
  1194   1   1265   1276
  1195   2   1265   1278
  1196   2   1265   1885
  1197   1   1266   1270
  1198   1   1266   1277
  1199   2   1266   1279
  1200   2   1266   1886
  1201   3   1355   1267
  1202   3   1356   1268
  1203   6   1281   1282
  1204   6   1281   1283
  1205   1   1284   1290
  1206   1   1284   1292
  1207   2   1284   1294
  1208   2   1284   1296
  1209   1   1285   1291
  1210   1   1285   1293
  1211   2   1285   1295
  1212   2   1285   1297
  1213   4   1286   1298
  1214   3   1286   1299
  1215   5   1286   1577
  1216   3   1286   1474
  1217   4   1287   1298
  1218   3   1287   1300
  1219   5   1287   1578
  1220   3   1287   1475
  1221   1   1288   1292
  1222   1   1288   1299
  1223   2   1288   1301
  1224   2   1288   1887
  1225   1   1289   1293
  1226   1   1289   1300
  1227   2   1289   1302
  1228   2   1289   1888
  1229   3   1378   1290
  1230   3   1379   1291
  1231   6   1304   1305
  1232   6   1304   1306
  1233   1   1307   1313
  1234   1   1307   1315
  1235   2   1307   1317
  1236   2   1307   1319
  1237   1   1308   1314
  1238   1   1308   1316
  1239   2   1308   1318
  1240   2   1308   1320
  1241   4   1309   1321
  1242   3   1309   1322
  1243   5   1309   1593
  1244   3   1309   1497
  1245   4   1310   1321
  1246   3   1310   1323
  1247   5   1310   1594
  1248   3   1310   1498
  1249   1   1311   1315
  1250   1   1311   1322
  1251   2   1311   1324
  1252   2   1311   1889
  1253   1   1312   1316
  1254   1   1312   1323
  1255   2   1312   1325
  1256   2   1312   1890
  1257   3   1401   1313
  1258   3   1402   1314
  1259   6   1327   1328
  1260   6   1327   1329
  1261   1   1330   1336
  1262   1   1330   1338
  1263   2   1330   1340
  1264   2   1330   1342
  1265   1   1331   1337
  1266   1   1331   1339
  1267   2   1331   1341
  1268   2   1331   1343
  1269   4   1332   1344
  1270   3   1332   1345
  1271   5   1332   1609
  1272   3   1332   1520
  1273   4   1333   1344
  1274   3   1333   1346
  1275   5   1333   1610
  1276   3   1333   1521
  1277   1   1334   1338
  1278   1   1334   1345
  1279   2   1334   1347
  1280   2   1334   1891
  1281   1   1335   1339
  1282   1   1335   1346
  1283   2   1335   1348
  1284   2   1335   1892
  1285   3   1424   1336
  1286   3   1425   1337
  1287   6   1350   1351
  1288   6   1350   1352
  1289   1   1353   1359
  1290   1   1353   1361
  1291   2   1353   1363
  1292   2   1353   1365
  1293   1   1354   1360
  1294   1   1354   1362
  1295   2   1354   1364
  1296   2   1354   1366
  1297   4   1355   1367
  1298   3   1355   1368
  1299   5   1355   1625
  1300   4   1356   1367
  1301   3   1356   1369
  1302   5   1356   1626
  1303   1   1357   1361
  1304   1   1357   1368
  1305   2   1357   1370
  1306   2   1357   1893
  1307   1   1358   1362
  1308   1   1358   1369
  1309   2   1358   1371
  1310   2   1358   1894
  1311   3   1447   1359
  1312   3   1448   1360
  1313   6   1373   1374
  1314   6   1373   1375
  1315   1   1376   1382
  1316   1   1376   1384
  1317   2   1376   1386
  1318   2   1376   1388
  1319   1   1377   1383
  1320   1   1377   1385
  1321   2   1377   1387
  1322   2   1377   1389
  1323   4   1378   1390
  1324   3   1378   1391
  1325   5   1378   1641
  1326   4   1379   1390
  1327   3   1379   1392
  1328   5   1379   1642
  1329   1   1380   1384
  1330   1   1380   1391
  1331   2   1380   1393
  1332   2   1380   1895
  1333   1   1381   1385
  1334   1   1381   1392
  1335   2   1381   1394
  1336   2   1381   1896
  1337   3   1470   1382
  1338   3   1471   1383
  1339   6   1396   1397
  1340   6   1396   1398
  1341   1   1399   1405
  1342   1   1399   1407
  1343   2   1399   1409
  1344   2   1399   1411
  1345   1   1400   1406
  1346   1   1400   1408
  1347   2   1400   1410
  1348   2   1400   1412
  1349   4   1401   1413
  1350   3   1401   1414
  1351   5   1401   1657
  1352   4   1402   1413
  1353   3   1402   1415
  1354   5   1402   1658
  1355   1   1403   1407
  1356   1   1403   1414
  1357   2   1403   1416
  1358   2   1403   1897
  1359   1   1404   1408
  1360   1   1404   1415
  1361   2   1404   1417
  1362   2   1404   1898
  1363   3   1493   1405
  1364   3   1494   1406
  1365   6   1419   1420
  1366   6   1419   1421
  1367   1   1422   1428
  1368   1   1422   1430
  1369   2   1422   1432
  1370   2   1422   1434
  1371   1   1423   1429
  1372   1   1423   1431
  1373   2   1423   1433
  1374   2   1423   1435
  1375   4   1424   1436
  1376   3   1424   1437
  1377   5   1424   1673
  1378   4   1425   1436
  1379   3   1425   1438
  1380   5   1425   1674
  1381   1   1426   1430
  1382   1   1426   1437
  1383   2   1426   1439
  1384   2   1426   1899
  1385   1   1427   1431
  1386   1   1427   1438
  1387   2   1427   1440
  1388   2   1427   1900
  1389   3   1516   1428
  1390   3   1517   1429
  1391   6   1442   1443
  1392   6   1442   1444
  1393   1   1445   1451
  1394   1   1445   1453
  1395   2   1445   1455
  1396   2   1445   1457
  1397   1   1446   1452
  1398   1   1446   1454
  1399   2   1446   1456
  1400   2   1446   1458
  1401   4   1447   1459
  1402   3   1447   1460
  1403   5   1447   1689
  1404   4   1448   1459
  1405   3   1448   1461
  1406   5   1448   1690
  1407   1   1449   1453
  1408   1   1449   1460
  1409   2   1449   1462
  1410   2   1449   1901
  1411   1   1450   1454
  1412   1   1450   1461
  1413   2   1450   1463
  1414   2   1450   1902
  1415   6   1465   1466
  1416   6   1465   1467
  1417   1   1468   1474
  1418   1   1468   1476
  1419   2   1468   1478
  1420   2   1468   1480
  1421   1   1469   1475
  1422   1   1469   1477
  1423   2   1469   1479
  1424   2   1469   1481
  1425   4   1470   1482
  1426   3   1470   1483
  1427   5   1470   1705
  1428   4   1471   1482
  1429   3   1471   1484
  1430   5   1471   1706
  1431   1   1472   1476
  1432   1   1472   1483
  1433   2   1472   1485
  1434   2   1472   1903
  1435   1   1473   1477
  1436   1   1473   1484
  1437   2   1473   1486
  1438   2   1473   1904
  1439   6   1488   1489
  1440   6   1488   1490
  1441   1   1491   1497
  1442   1   1491   1499
  1443   2   1491   1501
  1444   2   1491   1503
  1445   1   1492   1498
  1446   1   1492   1500
  1447   2   1492   1502
  1448   2   1492   1504
  1449   4   1493   1505
  1450   3   1493   1506
  1451   5   1493   1721
  1452   4   1494   1505
  1453   3   1494   1507
  1454   5   1494   1722
  1455   1   1495   1499
  1456   1   1495   1506
  1457   2   1495   1508
  1458   2   1495   1905
  1459   1   1496   1500
  1460   1   1496   1507
  1461   2   1496   1509
  1462   2   1496   1906
  1463   6   1511   1512
  1464   6   1511   1513
  1465   1   1514   1520
  1466   1   1514   1522
  1467   2   1514   1524
  1468   2   1514   1526
  1469   1   1515   1521
  1470   1   1515   1523
  1471   2   1515   1525
  1472   2   1515   1527
  1473   4   1516   1528
  1474   3   1516   1529
  1475   5   1516   1737
  1476   4   1517   1528
  1477   3   1517   1530
  1478   5   1517   1738
  1479   1   1518   1522
  1480   1   1518   1529
  1481   2   1518   1531
  1482   2   1518   1907
  1483   1   1519   1523
  1484   1   1519   1530
  1485   2   1519   1532
  1486   2   1519   1908
  1487   6   1534   1535
  1488   6   1534   1536
  1489   7   1537   1765
  1490   7   1538   1789
  1491   7   1539   1766
  1492   7   1540   1790
  1493   7   1541   1767
  1494   7   1542   1791
  1495   7   1543   1768
  1496   7   1544   1792
  1497   7   1545   1769
  1498   7   1546   1793
  1499   7   1547   1770
  1500   7   1548   1794
  1501   7   1549   1771
  1502   7   1550   1795
  1503   7   1551   1772
  1504   7   1552   1796
  1505   7   1553   1773
  1506   7   1554   1797
  1507   7   1555   1774
  1508   7   1556   1798
  1509   7   1557   1775
  1510   7   1558   1799
  1511   7   1559   1776
  1512   7   1560   1800
  1513   7   1561   1785
  1514   7   1562   1909
  1515   6   1563   1573
  1516   6   1563   1575
  1517   6   1564   1574
  1518   6   1564   1576
  1519   6   1567   1569
  1520   6   1567   1570
  1521   6   1568   1571
  1522   6   1568   1572
  1523   7   1577   1786
  1524   7   1578   1910
  1525   6   1579   1589
  1526   6   1579   1591
  1527   6   1580   1590
  1528   6   1580   1592
  1529   6   1583   1585
  1530   6   1583   1586
  1531   6   1584   1587
  1532   6   1584   1588
  1533   7   1593   1787
  1534   7   1594   1911
  1535   6   1595   1605
  1536   6   1595   1607
  1537   6   1596   1606
  1538   6   1596   1608
  1539   6   1599   1601
  1540   6   1599   1602
  1541   6   1600   1603
  1542   6   1600   1604
  1543   7   1609   1788
  1544   7   1610   1912
  1545   6   1611   1621
  1546   6   1611   1623
  1547   6   1612   1622
  1548   6   1612   1624
  1549   6   1615   1617
  1550   6   1615   1618
  1551   6   1616   1619
  1552   6   1616   1620
  1553   7   1625   1777
  1554   7   1626   1913
  1555   6   1627   1637
  1556   6   1627   1639
  1557   6   1628   1638
  1558   6   1628   1640
  1559   6   1631   1633
  1560   6   1631   1634
  1561   6   1632   1635
  1562   6   1632   1636
  1563   7   1641   1778
  1564   7   1642   1914
  1565   6   1643   1653
  1566   6   1643   1655
  1567   6   1644   1654
  1568   6   1644   1656
  1569   6   1647   1649
  1570   6   1647   1650
  1571   6   1648   1651
  1572   6   1648   1652
  1573   7   1657   1779
  1574   7   1658   1915
  1575   6   1659   1669
  1576   6   1659   1671
  1577   6   1660   1670
  1578   6   1660   1672
  1579   6   1663   1665
  1580   6   1663   1666
  1581   6   1664   1667
  1582   6   1664   1668
  1583   7   1673   1780
  1584   7   1674   1916
  1585   6   1675   1685
  1586   6   1675   1687
  1587   6   1676   1686
  1588   6   1676   1688
  1589   6   1679   1681
  1590   6   1679   1682
  1591   6   1680   1683
  1592   6   1680   1684
  1593   7   1689   1781
  1594   7   1690   1917
  1595   6   1691   1701
  1596   6   1691   1703
  1597   6   1692   1702
  1598   6   1692   1704
  1599   6   1695   1697
  1600   6   1695   1698
  1601   6   1696   1699
  1602   6   1696   1700
  1603   7   1705   1782
  1604   7   1706   1918
  1605   6   1707   1717
  1606   6   1707   1719
  1607   6   1708   1718
  1608   6   1708   1720
  1609   6   1711   1713
  1610   6   1711   1714
  1611   6   1712   1715
  1612   6   1712   1716
  1613   7   1721   1783
  1614   7   1722   1919
  1615   6   1723   1733
  1616   6   1723   1735
  1617   6   1724   1734
  1618   6   1724   1736
  1619   6   1727   1729
  1620   6   1727   1730
  1621   6   1728   1731
  1622   6   1728   1732
  1623   7   1737   1784
  1624   7   1738   1920
  1625   6   1739   1749
  1626   6   1739   1751
  1627   6   1740   1750
  1628   6   1740   1752
  1629   6   1743   1745
  1630   6   1743   1746
  1631   6   1744   1747
  1632   6   1744   1748
  1633   6   1921   1922
  1634   6   1921   1923
  1635   6   1924   1925
  1636   6   1924   1926
  1637   6   1927   1928
  1638   6   1927   1929
  1639   6   1930   1931
  1640   6   1930   1932
  1641   6   1933   1934
  1642   6   1933   1935
  1643   6   1936   1937
  1644   6   1936   1938
  1645   6   1939   1940
  1646   6   1939   1941
  1647   6   1942   1943
  1648   6   1942   1944
  1649   6   1945   1946
  1650   6   1945   1947
  1651   6   1948   1949
  1652   6   1948   1950
  1653   6   1951   1952
  1654   6   1951   1953
  1655   6   1954   1955
  1656   6   1954   1956
  1657   6   1969   1971
  1658   6   1969   1972
  1659   6   1973   1975
  1660   6   1973   1976
  1661   6   1977   1979
  1662   6   1977   1980
  1663   6   1981   1983
  1664   6   1981   1984
  1665   6   1985   1987
  1666   6   1985   1988
  1667   6   1989   1991
  1668   6   1989   1992
  1669   6   1993   1995
  1670   6   1993   1996
  1671   6   1997   1999
  1672   6   1997   2000
  1673   6   2001   2003
  1674   6   2001   2004
  1675   6   2005   2007
  1676   6   2005   2008
  1677   6   2009   2011
  1678   6   2009   2012
  1679   6   2013   2015
  1680   6   2013   2016
  1681   6   2017   2018
  1682   6   2017   2019
  1683   6   2020   2021
  1684   6   2020   2022
  1685   6   2023   2024
  1686   6   2023   2025
  1687   6   2026   2027
  1688   6   2026   2028
  1689   6   2029   2030
  1690   6   2029   2031
  1691   6   2032   2033
  1692   6   2032   2034
  1693   6   2035   2036
  1694   6   2035   2037
  1695   6   2038   2039
  1696   6   2038   2040
  1697   6   2041   2042
  1698   6   2041   2043
  1699   6   2044   2045
  1700   6   2044   2046
  1701   6   2047   2048
  1702   6   2047   2049
  1703   6   2050   2051
  1704   6   2050   2052
  1705   6   2065   2067
  1706   6   2065   2068
  1707   6   2069   2071
  1708   6   2069   2072
  1709   6   2073   2075
  1710   6   2073   2076
  1711   6   2077   2079
  1712   6   2077   2080
  1713   6   2081   2083
  1714   6   2081   2084
  1715   6   2085   2087
  1716   6   2085   2088
  1717   6   2089   2091
  1718   6   2089   2092
  1719   6   2093   2095
  1720   6   2093   2096
  1721   6   2097   2099
  1722   6   2097   2100
  1723   6   2101   2103
  1724   6   2101   2104
  1725   6   2105   2107
  1726   6   2105   2108
  1727   6   2109   2111
  1728   6   2109   2112

Angles

     1   1      7      1     11
     2   1      7      1     13
     3   2      7      1    201
     4   3     11      1     13
     5   1    201      1     11
     6   1    201      1     13
     7   1      8      2     12
     8   1      8      2     14
     9   2      8      2    202
    10   3     12      2     14
    11   1    202      2     12
    12   1    202      2     14
    13   4      7      3     15
    14   5      7      3     17
    15   6      7      3    637
    16   4     17      3     15
    17   7     15      3    637
    18   6     17      3    637
    19   4      8      4     15
    20   5      8      4     18
    21   6      8      4    638
    22   4     18      4     15
    23   7     15      4    638
    24   6     18      4    638
    25   2      9      5     17
    26   1      9      5     19
    27   1      9      5   1801
    28   1     17      5     19
    29   1     17      5   1801
    30   3     19      5   1801
    31   2     10      6     18
    32   1     10      6     20
    33   1     10      6   1802
    34   1     18      6     20
    35   1     18      6   1802
    36   3     20      6   1802
    37   8      1      7      3
    38   8      2      8      4
    39   9      5      9     97
    40   9      6     10     98
    41  10      3     15      4
    42  11     23     16     24
    43   8      5     17      3
    44   8      6     18      4
    45   1     31     25     35
    46   1     31     25     37
    47   2     31     25    225
    48   3     35     25     37
    49   1    225     25     35
    50   1    225     25     37
    51   1     32     26     36
    52   1     32     26     38
    53   2     32     26    226
    54   3     36     26     38
    55   1    226     26     36
    56   1    226     26     38
    57   4     31     27     39
    58   5     31     27     41
    59   6     31     27    639
    60   4     41     27     39
    61   7     39     27    639
    62   6     41     27    639
    63   4     32     28     39
    64   5     32     28     42
    65   6     32     28    640
    66   4     42     28     39
    67   7     39     28    640
    68   6     42     28    640
    69   2     33     29     41
    70   1     33     29     43
    71   1     33     29   1803
    72   1     41     29     43
    73   1     41     29   1803
    74   3     43     29   1803
    75   2     34     30     42
    76   1     34     30     44
    77   1     34     30   1804
    78   1     42     30     44
    79   1     42     30   1804
    80   3     44     30   1804
    81   8     25     31     27
    82   8     26     32     28
    83   9     29     33    121
    84   9     30     34    122
    85  10     27     39     28
    86  11     47     40     48
    87   8     29     41     27
    88   8     30     42     28
    89   1     55     49     59
    90   1     55     49     61
    91   2     55     49    249
    92   3     59     49     61
    93   1    249     49     59
    94   1    249     49     61
    95   1     56     50     60
    96   1     56     50     62
    97   2     56     50    250
    98   3     60     50     62
    99   1    250     50     60
   100   1    250     50     62
   101   4     55     51     63
   102   5     55     51     65
   103   6     55     51    641
   104   4     65     51     63
   105   7     63     51    641
   106   6     65     51    641
   107   4     56     52     63
   108   5     56     52     66
   109   6     56     52    642
   110   4     66     52     63
   111   7     63     52    642
   112   6     66     52    642
   113   2     57     53     65
   114   1     57     53     67
   115   1     57     53   1805
   116   1     65     53     67
   117   1     65     53   1805
   118   3     67     53   1805
   119   2     58     54     66
   120   1     58     54     68
   121   1     58     54   1806
   122   1     66     54     68
   123   1     66     54   1806
   124   3     68     54   1806
   125   8     49     55     51
   126   8     50     56     52
   127   9     53     57    145
   128   9     54     58    146
   129  10     51     63     52
   130  11     71     64     72
   131   8     53     65     51
   132   8     54     66     52
   133   1     79     73     83
   134   1     79     73     85
   135   2     79     73    273
   136   3     83     73     85
   137   1    273     73     83
   138   1    273     73     85
   139   1     80     74     84
   140   1     80     74     86
   141   2     80     74    274
   142   3     84     74     86
   143   1    274     74     84
   144   1    274     74     86
   145   4     79     75     87
   146   5     79     75     89
   147   6     79     75    643
   148   4     89     75     87
   149   7     87     75    643
   150   6     89     75    643
   151   4     80     76     87
   152   5     80     76     90
   153   6     80     76    644
   154   4     90     76     87
   155   7     87     76    644
   156   6     90     76    644
   157   2     81     77     89
   158   1     81     77     91
   159   1     81     77   1807
   160   1     89     77     91
   161   1     89     77   1807
   162   3     91     77   1807
   163   2     82     78     90
   164   1     82     78     92
   165   1     82     78   1808
   166   1     90     78     92
   167   1     90     78   1808
   168   3     92     78   1808
   169   8     73     79     75
   170   8     74     80     76
   171   9     77     81    169
   172   9     78     82    170
   173  10     75     87     76
   174  11     95     88     96
   175   8     77     89     75
   176   8     78     90     76
   177   2      9     97    103
   178   1      9     97    107
   179   1      9     97    109
   180   1    103     97    107
   181   1    103     97    109
   182   3    107     97    109
   183   2     10     98    104
   184   1     10     98    108
   185   1     10     98    110
   186   1    104     98    108
   187   1    104     98    110
   188   3    108     98    110
   189   4    103     99    111
   190   5    103     99    113
   191   6    103     99    645
   192   4    113     99    111
   193   7    111     99    645
   194   6    113     99    645
   195   4    104    100    111
   196   5    104    100    114
   197   6    104    100    646
   198   4    114    100    111
   199   7    111    100    646
   200   6    114    100    646
   201   2    105    101    113
   202   1    105    101    115
   203   1    105    101   1809
   204   1    113    101    115
   205   1    113    101   1809
   206   3    115    101   1809
   207   2    106    102    114
   208   1    106    102    116
   209   1    106    102   1810
   210   1    114    102    116
   211   1    114    102   1810
   212   3    116    102   1810
   213   8     97    103     99
   214   8     98    104    100
   215   9    101    105    193
   216   9    102    106    194
   217  10     99    111    100
   218  11    119    112    120
   219   8    101    113     99
   220   8    102    114    100
   221   2     33    121    127
   222   1     33    121    131
   223   1     33    121    133
   224   1    127    121    131
   225   1    127    121    133
   226   3    131    121    133
   227   2     34    122    128
   228   1     34    122    132
   229   1     34    122    134
   230   1    128    122    132
   231   1    128    122    134
   232   3    132    122    134
   233   4    127    123    135
   234   5    127    123    137
   235   6    127    123    647
   236   4    137    123    135
   237   7    135    123    647
   238   6    137    123    647
   239   4    128    124    135
   240   5    128    124    138
   241   6    128    124    648
   242   4    138    124    135
   243   7    135    124    648
   244   6    138    124    648
   245   2    129    125    137
   246   1    129    125    139
   247   1    129    125   1811
   248   1    137    125    139
   249   1    137    125   1811
   250   3    139    125   1811
   251   2    130    126    138
   252   1    130    126    140
   253   1    130    126   1812
   254   1    138    126    140
   255   1    138    126   1812
   256   3    140    126   1812
   257   8    121    127    123
   258   8    122    128    124
   259   9    125    129    217
   260   9    126    130    218
   261  10    123    135    124
   262  11    143    136    144
   263   8    125    137    123
   264   8    126    138    124
   265   2     57    145    151
   266   1     57    145    155
   267   1     57    145    157
   268   1    151    145    155
   269   1    151    145    157
   270   3    155    145    157
   271   2     58    146    152
   272   1     58    146    156
   273   1     58    146    158
   274   1    152    146    156
   275   1    152    146    158
   276   3    156    146    158
   277   4    151    147    159
   278   5    151    147    161
   279   6    151    147    649
   280   4    161    147    159
   281   7    159    147    649
   282   6    161    147    649
   283   4    152    148    159
   284   5    152    148    162
   285   6    152    148    650
   286   4    162    148    159
   287   7    159    148    650
   288   6    162    148    650
   289   2    153    149    161
   290   1    153    149    163
   291   1    153    149   1813
   292   1    161    149    163
   293   1    161    149   1813
   294   3    163    149   1813
   295   2    154    150    162
   296   1    154    150    164
   297   1    154    150   1814
   298   1    162    150    164
   299   1    162    150   1814
   300   3    164    150   1814
   301   8    145    151    147
   302   8    146    152    148
   303   9    149    153    241
   304   9    150    154    242
   305  10    147    159    148
   306  11    167    160    168
   307   8    149    161    147
   308   8    150    162    148
   309   2     81    169    175
   310   1     81    169    179
   311   1     81    169    181
   312   1    175    169    179
   313   1    175    169    181
   314   3    179    169    181
   315   2     82    170    176
   316   1     82    170    180
   317   1     82    170    182
   318   1    176    170    180
   319   1    176    170    182
   320   3    180    170    182
   321   4    175    171    183
   322   5    175    171    185
   323   6    175    171    651
   324   4    185    171    183
   325   7    183    171    651
   326   6    185    171    651
   327   4    176    172    183
   328   5    176    172    186
   329   6    176    172    652
   330   4    186    172    183
   331   7    183    172    652
   332   6    186    172    652
   333   2    177    173    185
   334   1    177    173    187
   335   1    177    173   1815
   336   1    185    173    187
   337   1    185    173   1815
   338   3    187    173   1815
   339   2    178    174    186
   340   1    178    174    188
   341   1    178    174   1816
   342   1    186    174    188
   343   1    186    174   1816
   344   3    188    174   1816
   345   8    169    175    171
   346   8    170    176    172
   347   9    173    177    265
   348   9    174    178    266
   349  10    171    183    172
   350  11    191    184    192
   351   8    173    185    171
   352   8    174    186    172
   353   2    105    193    199
   354   1    105    193    203
   355   1    105    193    205
   356   1    199    193    203
   357   1    199    193    205
   358   3    203    193    205
   359   2    106    194    200
   360   1    106    194    204
   361   1    106    194    206
   362   1    200    194    204
   363   1    200    194    206
   364   3    204    194    206
   365   4    199    195    207
   366   5    199    195    209
   367   6    199    195    653
   368   4    209    195    207
   369   7    207    195    653
   370   6    209    195    653
   371   4    200    196    207
   372   5    200    196    210
   373   6    200    196    654
   374   4    210    196    207
   375   7    207    196    654
   376   6    210    196    654
   377   2    201    197    209
   378   1    201    197    211
   379   1    201    197   1817
   380   1    209    197    211
   381   1    209    197   1817
   382   3    211    197   1817
   383   2    202    198    210
   384   1    202    198    212
   385   1    202    198   1818
   386   1    210    198    212
   387   1    210    198   1818
   388   3    212    198   1818
   389   8    193    199    195
   390   8    194    200    196
   391   9    197    201      1
   392   9    198    202      2
   393  10    195    207    196
   394  11    215    208    216
   395   8    197    209    195
   396   8    198    210    196
   397   2    129    217    223
   398   1    129    217    227
   399   1    129    217    229
   400   1    223    217    227
   401   1    223    217    229
   402   3    227    217    229
   403   2    130    218    224
   404   1    130    218    228
   405   1    130    218    230
   406   1    224    218    228
   407   1    224    218    230
   408   3    228    218    230
   409   4    223    219    231
   410   5    223    219    233
   411   6    223    219    655
   412   4    233    219    231
   413   7    231    219    655
   414   6    233    219    655
   415   4    224    220    231
   416   5    224    220    234
   417   6    224    220    656
   418   4    234    220    231
   419   7    231    220    656
   420   6    234    220    656
   421   2    225    221    233
   422   1    225    221    235
   423   1    225    221   1819
   424   1    233    221    235
   425   1    233    221   1819
   426   3    235    221   1819
   427   2    226    222    234
   428   1    226    222    236
   429   1    226    222   1820
   430   1    234    222    236
   431   1    234    222   1820
   432   3    236    222   1820
   433   8    217    223    219
   434   8    218    224    220
   435   9    221    225     25
   436   9    222    226     26
   437  10    219    231    220
   438  11    239    232    240
   439   8    221    233    219
   440   8    222    234    220
   441   2    153    241    247
   442   1    153    241    251
   443   1    153    241    253
   444   1    247    241    251
   445   1    247    241    253
   446   3    251    241    253
   447   2    154    242    248
   448   1    154    242    252
   449   1    154    242    254
   450   1    248    242    252
   451   1    248    242    254
   452   3    252    242    254
   453   4    247    243    255
   454   5    247    243    257
   455   6    247    243    657
   456   4    257    243    255
   457   7    255    243    657
   458   6    257    243    657
   459   4    248    244    255
   460   5    248    244    258
   461   6    248    244    658
   462   4    258    244    255
   463   7    255    244    658
   464   6    258    244    658
   465   2    249    245    257
   466   1    249    245    259
   467   1    249    245   1821
   468   1    257    245    259
   469   1    257    245   1821
   470   3    259    245   1821
   471   2    250    246    258
   472   1    250    246    260
   473   1    250    246   1822
   474   1    258    246    260
   475   1    258    246   1822
   476   3    260    246   1822
   477   8    241    247    243
   478   8    242    248    244
   479   9    245    249     49
   480   9    246    250     50
   481  10    243    255    244
   482  11    263    256    264
   483   8    245    257    243
   484   8    246    258    244
   485   2    177    265    271
   486   1    177    265    275
   487   1    177    265    277
   488   1    271    265    275
   489   1    271    265    277
   490   3    275    265    277
   491   2    178    266    272
   492   1    178    266    276
   493   1    178    266    278
   494   1    272    266    276
   495   1    272    266    278
   496   3    276    266    278
   497   4    271    267    279
   498   5    271    267    281
   499   6    271    267    659
   500   4    281    267    279
   501   7    279    267    659
   502   6    281    267    659
   503   4    272    268    279
   504   5    272    268    282
   505   6    272    268    660
   506   4    282    268    279
   507   7    279    268    660
   508   6    282    268    660
   509   2    273    269    281
   510   1    273    269    283
   511   1    273    269   1823
   512   1    281    269    283
   513   1    281    269   1823
   514   3    283    269   1823
   515   2    274    270    282
   516   1    274    270    284
   517   1    274    270   1824
   518   1    282    270    284
   519   1    282    270   1824
   520   3    284    270   1824
   521   8    265    271    267
   522   8    266    272    268
   523   9    269    273     73
   524   9    270    274     74
   525  10    267    279    268
   526  11    287    280    288
   527   8    269    281    267
   528   8    270    282    268
   529  11    291    289    292
   530  11    293    290    294
   531  11    297    295    298
   532  11    299    296    300
   533  11    303    301    304
   534  11    305    302    306
   535  11    309    307    310
   536  11    311    308    312
   537  11    315    313    316
   538  11    317    314    318
   539  11    321    319    322
   540  11    323    320    324
   541  11    327    325    328
   542  11    329    326    330
   543  11    333    331    334
   544  11    335    332    336
   545  11    339    337    340
   546  11    341    338    342
   547  11    345    343    346
   548  11    347    344    348
   549  11    351    349    352
   550  11    353    350    354
   551  11    357    355    358
   552  11    359    356    360
   553   2    367    361    369
   554   1    367    361    371
   555   1    367    361    373
   556   1    369    361    371
   557   1    369    361    373
   558   3    371    361    373
   559   2    368    362    370
   560   1    368    362    372
   561   1    368    362    374
   562   1    370    362    372
   563   1    370    362    374
   564   3    372    362    374
   565   4    367    363    375
   566   5    367    363    376
   567   6    367    363    661
   568   4    376    363    375
   569   7    375    363    661
   570   6    376    363    661
   571   4    368    364    375
   572   5    368    364    377
   573   6    368    364    662
   574   4    377    364    375
   575   7    375    364    662
   576   6    377    364    662
   577   1    376    365    378
   578   1    376    365   1825
   579   2    376    365    461
   580   3    378    365   1825
   581   1    461    365    378
   582   1    461    365   1825
   583   1    377    366    379
   584   1    377    366   1826
   585   2    377    366    462
   586   3    379    366   1826
   587   1    462    366    379
   588   1    462    366   1826
   589   8    361    367    363
   590   8    362    368    364
   591   9    361    369    549
   592   9    362    370    550
   593  10    363    375    364
   594   8    365    376    363
   595   8    366    377    364
   596  11    382    381    383
   597   2    390    384    392
   598   1    390    384    394
   599   1    390    384    396
   600   1    392    384    394
   601   1    392    384    396
   602   3    394    384    396
   603   2    391    385    393
   604   1    391    385    395
   605   1    391    385    397
   606   1    393    385    395
   607   1    393    385    397
   608   3    395    385    397
   609   4    390    386    398
   610   5    390    386    399
   611   6    390    386    677
   612   4    399    386    398
   613   7    398    386    677
   614   6    399    386    677
   615   4    391    387    398
   616   5    391    387    400
   617   6    391    387    678
   618   4    400    387    398
   619   7    398    387    678
   620   6    400    387    678
   621   1    399    388    401
   622   1    399    388   1827
   623   2    399    388    484
   624   3    401    388   1827
   625   1    484    388    401
   626   1    484    388   1827
   627   1    400    389    402
   628   1    400    389   1828
   629   2    400    389    485
   630   3    402    389   1828
   631   1    485    389    402
   632   1    485    389   1828
   633   8    384    390    386
   634   8    385    391    387
   635   9    384    392    572
   636   9    385    393    573
   637  10    386    398    387
   638   8    388    399    386
   639   8    389    400    387
   640  11    405    404    406
   641   2    413    407    415
   642   1    413    407    417
   643   1    413    407    419
   644   1    415    407    417
   645   1    415    407    419
   646   3    417    407    419
   647   2    414    408    416
   648   1    414    408    418
   649   1    414    408    420
   650   1    416    408    418
   651   1    416    408    420
   652   3    418    408    420
   653   4    413    409    421
   654   5    413    409    422
   655   6    413    409    693
   656   4    422    409    421
   657   7    421    409    693
   658   6    422    409    693
   659   4    414    410    421
   660   5    414    410    423
   661   6    414    410    694
   662   4    423    410    421
   663   7    421    410    694
   664   6    423    410    694
   665   1    422    411    424
   666   1    422    411   1829
   667   2    422    411    507
   668   3    424    411   1829
   669   1    507    411    424
   670   1    507    411   1829
   671   1    423    412    425
   672   1    423    412   1830
   673   2    423    412    508
   674   3    425    412   1830
   675   1    508    412    425
   676   1    508    412   1830
   677   8    407    413    409
   678   8    408    414    410
   679   9    407    415    595
   680   9    408    416    596
   681  10    409    421    410
   682   8    411    422    409
   683   8    412    423    410
   684  11    428    427    429
   685   2    436    430    438
   686   1    436    430    440
   687   1    436    430    442
   688   1    438    430    440
   689   1    438    430    442
   690   3    440    430    442
   691   2    437    431    439
   692   1    437    431    441
   693   1    437    431    443
   694   1    439    431    441
   695   1    439    431    443
   696   3    441    431    443
   697   4    436    432    444
   698   5    436    432    445
   699   6    436    432    709
   700   4    445    432    444
   701   7    444    432    709
   702   6    445    432    709
   703   4    437    433    444
   704   5    437    433    446
   705   6    437    433    710
   706   4    446    433    444
   707   7    444    433    710
   708   6    446    433    710
   709   1    445    434    447
   710   1    445    434   1831
   711   2    445    434    530
   712   3    447    434   1831
   713   1    530    434    447
   714   1    530    434   1831
   715   1    446    435    448
   716   1    446    435   1832
   717   2    446    435    531
   718   3    448    435   1832
   719   1    531    435    448
   720   1    531    435   1832
   721   8    430    436    432
   722   8    431    437    433
   723   9    430    438    618
   724   9    431    439    619
   725  10    432    444    433
   726   8    434    445    432
   727   8    435    446    433
   728  11    451    450    452
   729   2    459    453    461
   730   1    459    453    463
   731   1    459    453    465
   732   1    461    453    463
   733   1    461    453    465
   734   3    463    453    465
   735   2    460    454    462
   736   1    460    454    464
   737   1    460    454    466
   738   1    462    454    464
   739   1    462    454    466
   740   3    464    454    466
   741   4    459    455    467
   742   5    459    455    468
   743   6    459    455    725
   744   4    468    455    467
   745   7    467    455    725
   746   6    468    455    725
   747   4    460    456    467
   748   5    460    456    469
   749   6    460    456    726
   750   4    469    456    467
   751   7    467    456    726
   752   6    469    456    726
   753   1    468    457    470
   754   1    468    457   1833
   755   2    468    457    553
   756   3    470    457   1833
   757   1    553    457    470
   758   1    553    457   1833
   759   1    469    458    471
   760   1    469    458   1834
   761   2    469    458    554
   762   3    471    458   1834
   763   1    554    458    471
   764   1    554    458   1834
   765   8    453    459    455
   766   8    454    460    456
   767   9    365    461    453
   768   9    366    462    454
   769  10    455    467    456
   770   8    457    468    455
   771   8    458    469    456
   772  11    474    473    475
   773   2    482    476    484
   774   1    482    476    486
   775   1    482    476    488
   776   1    484    476    486
   777   1    484    476    488
   778   3    486    476    488
   779   2    483    477    485
   780   1    483    477    487
   781   1    483    477    489
   782   1    485    477    487
   783   1    485    477    489
   784   3    487    477    489
   785   4    482    478    490
   786   5    482    478    491
   787   6    482    478    741
   788   4    491    478    490
   789   7    490    478    741
   790   6    491    478    741
   791   4    483    479    490
   792   5    483    479    492
   793   6    483    479    742
   794   4    492    479    490
   795   7    490    479    742
   796   6    492    479    742
   797   1    491    480    493
   798   1    491    480   1835
   799   2    491    480    576
   800   3    493    480   1835
   801   1    576    480    493
   802   1    576    480   1835
   803   1    492    481    494
   804   1    492    481   1836
   805   2    492    481    577
   806   3    494    481   1836
   807   1    577    481    494
   808   1    577    481   1836
   809   8    476    482    478
   810   8    477    483    479
   811   9    388    484    476
   812   9    389    485    477
   813  10    478    490    479
   814   8    480    491    478
   815   8    481    492    479
   816  11    497    496    498
   817   2    505    499    507
   818   1    505    499    509
   819   1    505    499    511
   820   1    507    499    509
   821   1    507    499    511
   822   3    509    499    511
   823   2    506    500    508
   824   1    506    500    510
   825   1    506    500    512
   826   1    508    500    510
   827   1    508    500    512
   828   3    510    500    512
   829   4    505    501    513
   830   5    505    501    514
   831   6    505    501    757
   832   4    514    501    513
   833   7    513    501    757
   834   6    514    501    757
   835   4    506    502    513
   836   5    506    502    515
   837   6    506    502    758
   838   4    515    502    513
   839   7    513    502    758
   840   6    515    502    758
   841   1    514    503    516
   842   1    514    503   1837
   843   2    514    503    599
   844   3    516    503   1837
   845   1    599    503    516
   846   1    599    503   1837
   847   1    515    504    517
   848   1    515    504   1838
   849   2    515    504    600
   850   3    517    504   1838
   851   1    600    504    517
   852   1    600    504   1838
   853   8    499    505    501
   854   8    500    506    502
   855   9    411    507    499
   856   9    412    508    500
   857  10    501    513    502
   858   8    503    514    501
   859   8    504    515    502
   860  11    520    519    521
   861   2    528    522    530
   862   1    528    522    532
   863   1    528    522    534
   864   1    530    522    532
   865   1    530    522    534
   866   3    532    522    534
   867   2    529    523    531
   868   1    529    523    533
   869   1    529    523    535
   870   1    531    523    533
   871   1    531    523    535
   872   3    533    523    535
   873   4    528    524    536
   874   5    528    524    537
   875   6    528    524    773
   876   4    537    524    536
   877   7    536    524    773
   878   6    537    524    773
   879   4    529    525    536
   880   5    529    525    538
   881   6    529    525    774
   882   4    538    525    536
   883   7    536    525    774
   884   6    538    525    774
   885   1    537    526    539
   886   1    537    526   1839
   887   2    537    526    622
   888   3    539    526   1839
   889   1    622    526    539
   890   1    622    526   1839
   891   1    538    527    540
   892   1    538    527   1840
   893   2    538    527    623
   894   3    540    527   1840
   895   1    623    527    540
   896   1    623    527   1840
   897   8    522    528    524
   898   8    523    529    525
   899   9    434    530    522
   900   9    435    531    523
   901  10    524    536    525
   902   8    526    537    524
   903   8    527    538    525
   904  11    543    542    544
   905   2    551    545    553
   906   1    551    545    555
   907   1    551    545    557
   908   1    553    545    555
   909   1    553    545    557
   910   3    555    545    557
   911   2    552    546    554
   912   1    552    546    556
   913   1    552    546    558
   914   1    554    546    556
   915   1    554    546    558
   916   3    556    546    558
   917   4    551    547    559
   918   5    551    547    560
   919   6    551    547    789
   920   4    560    547    559
   921   7    559    547    789
   922   6    560    547    789
   923   4    552    548    559
   924   5    552    548    561
   925   6    552    548    790
   926   4    561    548    559
   927   7    559    548    790
   928   6    561    548    790
   929   1    560    549    562
   930   1    560    549   1841
   931   2    560    549    369
   932   3    562    549   1841
   933   1    369    549    562
   934   1    369    549   1841
   935   1    561    550    563
   936   1    561    550   1842
   937   2    561    550    370
   938   3    563    550   1842
   939   1    370    550    563
   940   1    370    550   1842
   941   8    545    551    547
   942   8    546    552    548
   943   9    457    553    545
   944   9    458    554    546
   945  10    547    559    548
   946   8    549    560    547
   947   8    550    561    548
   948  11    566    565    567
   949   2    574    568    576
   950   1    574    568    578
   951   1    574    568    580
   952   1    576    568    578
   953   1    576    568    580
   954   3    578    568    580
   955   2    575    569    577
   956   1    575    569    579
   957   1    575    569    581
   958   1    577    569    579
   959   1    577    569    581
   960   3    579    569    581
   961   4    574    570    582
   962   5    574    570    583
   963   6    574    570    805
   964   4    583    570    582
   965   7    582    570    805
   966   6    583    570    805
   967   4    575    571    582
   968   5    575    571    584
   969   6    575    571    806
   970   4    584    571    582
   971   7    582    571    806
   972   6    584    571    806
   973   1    583    572    585
   974   1    583    572   1843
   975   2    583    572    392
   976   3    585    572   1843
   977   1    392    572    585
   978   1    392    572   1843
   979   1    584    573    586
   980   1    584    573   1844
   981   2    584    573    393
   982   3    586    573   1844
   983   1    393    573    586
   984   1    393    573   1844
   985   8    568    574    570
   986   8    569    575    571
   987   9    480    576    568
   988   9    481    577    569
   989  10    570    582    571
   990   8    572    583    570
   991   8    573    584    571
   992  11    589    588    590
   993   2    597    591    599
   994   1    597    591    601
   995   1    597    591    603
   996   1    599    591    601
   997   1    599    591    603
   998   3    601    591    603
   999   2    598    592    600
  1000   1    598    592    602
  1001   1    598    592    604
  1002   1    600    592    602
  1003   1    600    592    604
  1004   3    602    592    604
  1005   4    597    593    605
  1006   5    597    593    606
  1007   6    597    593    821
  1008   4    606    593    605
  1009   7    605    593    821
  1010   6    606    593    821
  1011   4    598    594    605
  1012   5    598    594    607
  1013   6    598    594    822
  1014   4    607    594    605
  1015   7    605    594    822
  1016   6    607    594    822
  1017   1    606    595    608
  1018   1    606    595   1845
  1019   2    606    595    415
  1020   3    608    595   1845
  1021   1    415    595    608
  1022   1    415    595   1845
  1023   1    607    596    609
  1024   1    607    596   1846
  1025   2    607    596    416
  1026   3    609    596   1846
  1027   1    416    596    609
  1028   1    416    596   1846
  1029   8    591    597    593
  1030   8    592    598    594
  1031   9    503    599    591
  1032   9    504    600    592
  1033  10    593    605    594
  1034   8    595    606    593
  1035   8    596    607    594
  1036  11    612    611    613
  1037   2    620    614    622
  1038   1    620    614    624
  1039   1    620    614    626
  1040   1    622    614    624
  1041   1    622    614    626
  1042   3    624    614    626
  1043   2    621    615    623
  1044   1    621    615    625
  1045   1    621    615    627
  1046   1    623    615    625
  1047   1    623    615    627
  1048   3    625    615    627
  1049   4    620    616    628
  1050   5    620    616    629
  1051   6    620    616    837
  1052   4    629    616    628
  1053   7    628    616    837
  1054   6    629    616    837
  1055   4    621    617    628
  1056   5    621    617    630
  1057   6    621    617    838
  1058   4    630    617    628
  1059   7    628    617    838
  1060   6    630    617    838
  1061   1    629    618    631
  1062   1    629    618   1847
  1063   2    629    618    438
  1064   3    631    618   1847
  1065   1    438    618    631
  1066   1    438    618   1847
  1067   1    630    619    632
  1068   1    630    619   1848
  1069   2    630    619    439
  1070   3    632    619   1848
  1071   1    439    619    632
  1072   1    439    619   1848
  1073   8    614    620    616
  1074   8    615    621    617
  1075   9    526    622    614
  1076   9    527    623    615
  1077  10    616    628    617
  1078   8    618    629    616
  1079   8    619    630    617
  1080  11    635    634    636
  1081  12      3    637    865
  1082  12      4    638    889
  1083  12     27    639    866
  1084  12     28    640    890
  1085  12     51    641    867
  1086  12     52    642    891
  1087  12     75    643    868
  1088  12     76    644    892
  1089  12     99    645    869
  1090  12    100    646    893
  1091  12    123    647    870
  1092  12    124    648    894
  1093  12    147    649    871
  1094  12    148    650    895
  1095  12    171    651    872
  1096  12    172    652    896
  1097  12    195    653    873
  1098  12    196    654    897
  1099  12    219    655    874
  1100  12    220    656    898
  1101  12    243    657    875
  1102  12    244    658    899
  1103  12    267    659    876
  1104  12    268    660    900
  1105  12    363    661    877
  1106  12    364    662   1849
  1107  11    673    663    675
  1108  11    674    664    676
  1109  11    669    667    670
  1110  11    671    668    672
  1111  12    386    677    878
  1112  12    387    678   1850
  1113  11    689    679    691
  1114  11    690    680    692
  1115  11    685    683    686
  1116  11    687    684    688
  1117  12    409    693    879
  1118  12    410    694   1851
  1119  11    705    695    707
  1120  11    706    696    708
  1121  11    701    699    702
  1122  11    703    700    704
  1123  12    432    709    880
  1124  12    433    710   1852
  1125  11    721    711    723
  1126  11    722    712    724
  1127  11    717    715    718
  1128  11    719    716    720
  1129  12    455    725    881
  1130  12    456    726   1853
  1131  11    737    727    739
  1132  11    738    728    740
  1133  11    733    731    734
  1134  11    735    732    736
  1135  12    478    741    882
  1136  12    479    742   1854
  1137  11    753    743    755
  1138  11    754    744    756
  1139  11    749    747    750
  1140  11    751    748    752
  1141  12    501    757    883
  1142  12    502    758   1855
  1143  11    769    759    771
  1144  11    770    760    772
  1145  11    765    763    766
  1146  11    767    764    768
  1147  12    524    773    884
  1148  12    525    774   1856
  1149  11    785    775    787
  1150  11    786    776    788
  1151  11    781    779    782
  1152  11    783    780    784
  1153  12    547    789    885
  1154  12    548    790   1857
  1155  11    801    791    803
  1156  11    802    792    804
  1157  11    797    795    798
  1158  11    799    796    800
  1159  12    570    805    886
  1160  12    571    806   1858
  1161  11    817    807    819
  1162  11    818    808    820
  1163  11    813    811    814
  1164  11    815    812    816
  1165  12    593    821    887
  1166  12    594    822   1859
  1167  11    833    823    835
  1168  11    834    824    836
  1169  11    829    827    830
  1170  11    831    828    832
  1171  12    616    837    888
  1172  12    617    838   1860
  1173  11    849    839    851
  1174  11    850    840    852
  1175  11    845    843    846
  1176  11    847    844    848
  1177   2    907    901    909
  1178   1    907    901    911
  1179   1    907    901    913
  1180   1    909    901    911
  1181   1    909    901    913
  1182   3    911    901    913
  1183   2    908    902    910
  1184   1    908    902    912
  1185   1    908    902    914
  1186   1    910    902    912
  1187   1    910    902    914
  1188   3    912    902    914
  1189   4    907    903    915
  1190   5    907    903    917
  1191   6    907    903   1537
  1192   4    917    903    915
  1193   7    915    903   1537
  1194   6    917    903   1537
  1195   4    908    904    915
  1196   5    908    904    918
  1197   6    908    904   1538
  1198   4    918    904    915
  1199   7    915    904   1538
  1200   6    918    904   1538
  1201   1    909    905    919
  1202   1    909    905   1861
  1203   2    909    905   1133
  1204   3    919    905   1861
  1205   1   1133    905    919
  1206   1   1133    905   1861
  1207   1    910    906    920
  1208   1    910    906   1862
  1209   2    910    906   1134
  1210   3    920    906   1862
  1211   1   1134    906    920
  1212   1   1134    906   1862
  1213   8    901    907    903
  1214   8    902    908    904
  1215   9    901    909    905
  1216   9    902    910    906
  1217  10    903    915    904
  1218  11    926    916    927
  1219   8   1013    917    903
  1220   8   1014    918    904
  1221  11    924    923    925
  1222   2    934    928    936
  1223   1    934    928    938
  1224   1    934    928    940
  1225   1    936    928    938
  1226   1    936    928    940
  1227   3    938    928    940
  1228   2    935    929    937
  1229   1    935    929    939
  1230   1    935    929    941
  1231   1    937    929    939
  1232   1    937    929    941
  1233   3    939    929    941
  1234   4    934    930    942
  1235   5    934    930    944
  1236   6    934    930   1539
  1237   4    944    930    942
  1238   7    942    930   1539
  1239   6    944    930   1539
  1240   4    935    931    942
  1241   5    935    931    945
  1242   6    935    931   1540
  1243   4    945    931    942
  1244   7    942    931   1540
  1245   6    945    931   1540
  1246   1    936    932    946
  1247   1    936    932   1863
  1248   2    936    932   1160
  1249   3    946    932   1863
  1250   1   1160    932    946
  1251   1   1160    932   1863
  1252   1    937    933    947
  1253   1    937    933   1864
  1254   2    937    933   1161
  1255   3    947    933   1864
  1256   1   1161    933    947
  1257   1   1161    933   1864
  1258   8    928    934    930
  1259   8    929    935    931
  1260   9    928    936    932
  1261   9    929    937    933
  1262  10    930    942    931
  1263  11    953    943    954
  1264   8   1040    944    930
  1265   8   1041    945    931
  1266  11    951    950    952
  1267   2    961    955    963
  1268   1    961    955    965
  1269   1    961    955    967
  1270   1    963    955    965
  1271   1    963    955    967
  1272   3    965    955    967
  1273   2    962    956    964
  1274   1    962    956    966
  1275   1    962    956    968
  1276   1    964    956    966
  1277   1    964    956    968
  1278   3    966    956    968
  1279   4    961    957    969
  1280   5    961    957    971
  1281   6    961    957   1541
  1282   4    971    957    969
  1283   7    969    957   1541
  1284   6    971    957   1541
  1285   4    962    958    969
  1286   5    962    958    972
  1287   6    962    958   1542
  1288   4    972    958    969
  1289   7    969    958   1542
  1290   6    972    958   1542
  1291   1    963    959    973
  1292   1    963    959   1865
  1293   2    963    959   1187
  1294   3    973    959   1865
  1295   1   1187    959    973
  1296   1   1187    959   1865
  1297   1    964    960    974
  1298   1    964    960   1866
  1299   2    964    960   1188
  1300   3    974    960   1866
  1301   1   1188    960    974
  1302   1   1188    960   1866
  1303   8    955    961    957
  1304   8    956    962    958
  1305   9    955    963    959
  1306   9    956    964    960
  1307  10    957    969    958
  1308  11    980    970    981
  1309   8   1067    971    957
  1310   8   1068    972    958
  1311  11    978    977    979
  1312   2    988    982    990
  1313   1    988    982    992
  1314   1    988    982    994
  1315   1    990    982    992
  1316   1    990    982    994
  1317   3    992    982    994
  1318   2    989    983    991
  1319   1    989    983    993
  1320   1    989    983    995
  1321   1    991    983    993
  1322   1    991    983    995
  1323   3    993    983    995
  1324   4    988    984    996
  1325   5    988    984    998
  1326   6    988    984   1543
  1327   4    998    984    996
  1328   7    996    984   1543
  1329   6    998    984   1543
  1330   4    989    985    996
  1331   5    989    985    999
  1332   6    989    985   1544
  1333   4    999    985    996
  1334   7    996    985   1544
  1335   6    999    985   1544
  1336   1    990    986   1000
  1337   1    990    986   1867
  1338   2    990    986   1214
  1339   3   1000    986   1867
  1340   1   1214    986   1000
  1341   1   1214    986   1867
  1342   1    991    987   1001
  1343   1    991    987   1868
  1344   2    991    987   1215
  1345   3   1001    987   1868
  1346   1   1215    987   1001
  1347   1   1215    987   1868
  1348   8    982    988    984
  1349   8    983    989    985
  1350   9    982    990    986
  1351   9    983    991    987
  1352  10    984    996    985
  1353  11   1007    997   1008
  1354   8   1094    998    984
  1355   8   1095    999    985
  1356  11   1005   1004   1006
  1357   2   1015   1009   1017
  1358   1   1015   1009   1019
  1359   1   1015   1009   1021
  1360   1   1017   1009   1019
  1361   1   1017   1009   1021
  1362   3   1019   1009   1021
  1363   2   1016   1010   1018
  1364   1   1016   1010   1020
  1365   1   1016   1010   1022
  1366   1   1018   1010   1020
  1367   1   1018   1010   1022
  1368   3   1020   1010   1022
  1369   4   1015   1011   1023
  1370   5   1015   1011   1025
  1371   6   1015   1011   1545
  1372   4   1025   1011   1023
  1373   7   1023   1011   1545
  1374   6   1025   1011   1545
  1375   4   1016   1012   1023
  1376   5   1016   1012   1026
  1377   6   1016   1012   1546
  1378   4   1026   1012   1023
  1379   7   1023   1012   1546
  1380   6   1026   1012   1546
  1381   2    917   1013   1017
  1382   1    917   1013   1027
  1383   1    917   1013   1869
  1384   1   1017   1013   1027
  1385   1   1017   1013   1869
  1386   3   1027   1013   1869
  1387   2    918   1014   1018
  1388   1    918   1014   1028
  1389   1    918   1014   1870
  1390   1   1018   1014   1028
  1391   1   1018   1014   1870
  1392   3   1028   1014   1870
  1393   8   1009   1015   1011
  1394   8   1010   1016   1012
  1395   9   1009   1017   1013
  1396   9   1010   1018   1014
  1397  10   1011   1023   1012
  1398  11   1034   1024   1035
  1399   8   1121   1025   1011
  1400   8   1122   1026   1012
  1401  11   1032   1031   1033
  1402   2   1042   1036   1044
  1403   1   1042   1036   1046
  1404   1   1042   1036   1048
  1405   1   1044   1036   1046
  1406   1   1044   1036   1048
  1407   3   1046   1036   1048
  1408   2   1043   1037   1045
  1409   1   1043   1037   1047
  1410   1   1043   1037   1049
  1411   1   1045   1037   1047
  1412   1   1045   1037   1049
  1413   3   1047   1037   1049
  1414   4   1042   1038   1050
  1415   5   1042   1038   1052
  1416   6   1042   1038   1547
  1417   4   1052   1038   1050
  1418   7   1050   1038   1547
  1419   6   1052   1038   1547
  1420   4   1043   1039   1050
  1421   5   1043   1039   1053
  1422   6   1043   1039   1548
  1423   4   1053   1039   1050
  1424   7   1050   1039   1548
  1425   6   1053   1039   1548
  1426   2    944   1040   1044
  1427   1    944   1040   1054
  1428   1    944   1040   1871
  1429   1   1044   1040   1054
  1430   1   1044   1040   1871
  1431   3   1054   1040   1871
  1432   2    945   1041   1045
  1433   1    945   1041   1055
  1434   1    945   1041   1872
  1435   1   1045   1041   1055
  1436   1   1045   1041   1872
  1437   3   1055   1041   1872
  1438   8   1036   1042   1038
  1439   8   1037   1043   1039
  1440   9   1036   1044   1040
  1441   9   1037   1045   1041
  1442  10   1038   1050   1039
  1443  11   1061   1051   1062
  1444   8   1148   1052   1038
  1445   8   1149   1053   1039
  1446  11   1059   1058   1060
  1447   2   1069   1063   1071
  1448   1   1069   1063   1073
  1449   1   1069   1063   1075
  1450   1   1071   1063   1073
  1451   1   1071   1063   1075
  1452   3   1073   1063   1075
  1453   2   1070   1064   1072
  1454   1   1070   1064   1074
  1455   1   1070   1064   1076
  1456   1   1072   1064   1074
  1457   1   1072   1064   1076
  1458   3   1074   1064   1076
  1459   4   1069   1065   1077
  1460   5   1069   1065   1079
  1461   6   1069   1065   1549
  1462   4   1079   1065   1077
  1463   7   1077   1065   1549
  1464   6   1079   1065   1549
  1465   4   1070   1066   1077
  1466   5   1070   1066   1080
  1467   6   1070   1066   1550
  1468   4   1080   1066   1077
  1469   7   1077   1066   1550
  1470   6   1080   1066   1550
  1471   2    971   1067   1071
  1472   1    971   1067   1081
  1473   1    971   1067   1873
  1474   1   1071   1067   1081
  1475   1   1071   1067   1873
  1476   3   1081   1067   1873
  1477   2    972   1068   1072
  1478   1    972   1068   1082
  1479   1    972   1068   1874
  1480   1   1072   1068   1082
  1481   1   1072   1068   1874
  1482   3   1082   1068   1874
  1483   8   1063   1069   1065
  1484   8   1064   1070   1066
  1485   9   1063   1071   1067
  1486   9   1064   1072   1068
  1487  10   1065   1077   1066
  1488  11   1088   1078   1089
  1489   8   1175   1079   1065
  1490   8   1176   1080   1066
  1491  11   1086   1085   1087
  1492   2   1096   1090   1098
  1493   1   1096   1090   1100
  1494   1   1096   1090   1102
  1495   1   1098   1090   1100
  1496   1   1098   1090   1102
  1497   3   1100   1090   1102
  1498   2   1097   1091   1099
  1499   1   1097   1091   1101
  1500   1   1097   1091   1103
  1501   1   1099   1091   1101
  1502   1   1099   1091   1103
  1503   3   1101   1091   1103
  1504   4   1096   1092   1104
  1505   5   1096   1092   1106
  1506   6   1096   1092   1551
  1507   4   1106   1092   1104
  1508   7   1104   1092   1551
  1509   6   1106   1092   1551
  1510   4   1097   1093   1104
  1511   5   1097   1093   1107
  1512   6   1097   1093   1552
  1513   4   1107   1093   1104
  1514   7   1104   1093   1552
  1515   6   1107   1093   1552
  1516   2    998   1094   1098
  1517   1    998   1094   1108
  1518   1    998   1094   1875
  1519   1   1098   1094   1108
  1520   1   1098   1094   1875
  1521   3   1108   1094   1875
  1522   2    999   1095   1099
  1523   1    999   1095   1109
  1524   1    999   1095   1876
  1525   1   1099   1095   1109
  1526   1   1099   1095   1876
  1527   3   1109   1095   1876
  1528   8   1090   1096   1092
  1529   8   1091   1097   1093
  1530   9   1090   1098   1094
  1531   9   1091   1099   1095
  1532  10   1092   1104   1093
  1533  11   1115   1105   1116
  1534   8   1202   1106   1092
  1535   8   1203   1107   1093
  1536  11   1113   1112   1114
  1537   2   1123   1117   1125
  1538   1   1123   1117   1127
  1539   1   1123   1117   1129
  1540   1   1125   1117   1127
  1541   1   1125   1117   1129
  1542   3   1127   1117   1129
  1543   2   1124   1118   1126
  1544   1   1124   1118   1128
  1545   1   1124   1118   1130
  1546   1   1126   1118   1128
  1547   1   1126   1118   1130
  1548   3   1128   1118   1130
  1549   4   1123   1119   1131
  1550   5   1123   1119   1133
  1551   6   1123   1119   1553
  1552   4   1133   1119   1131
  1553   7   1131   1119   1553
  1554   6   1133   1119   1553
  1555   4   1124   1120   1131
  1556   5   1124   1120   1134
  1557   6   1124   1120   1554
  1558   4   1134   1120   1131
  1559   7   1131   1120   1554
  1560   6   1134   1120   1554
  1561   2   1025   1121   1125
  1562   1   1025   1121   1135
  1563   1   1025   1121   1877
  1564   1   1125   1121   1135
  1565   1   1125   1121   1877
  1566   3   1135   1121   1877
  1567   2   1026   1122   1126
  1568   1   1026   1122   1136
  1569   1   1026   1122   1878
  1570   1   1126   1122   1136
  1571   1   1126   1122   1878
  1572   3   1136   1122   1878
  1573   8   1117   1123   1119
  1574   8   1118   1124   1120
  1575   9   1117   1125   1121
  1576   9   1118   1126   1122
  1577  10   1119   1131   1120
  1578  11   1142   1132   1143
  1579   8    905   1133   1119
  1580   8    906   1134   1120
  1581  11   1140   1139   1141
  1582   2   1150   1144   1152
  1583   1   1150   1144   1154
  1584   1   1150   1144   1156
  1585   1   1152   1144   1154
  1586   1   1152   1144   1156
  1587   3   1154   1144   1156
  1588   2   1151   1145   1153
  1589   1   1151   1145   1155
  1590   1   1151   1145   1157
  1591   1   1153   1145   1155
  1592   1   1153   1145   1157
  1593   3   1155   1145   1157
  1594   4   1150   1146   1158
  1595   5   1150   1146   1160
  1596   6   1150   1146   1555
  1597   4   1160   1146   1158
  1598   7   1158   1146   1555
  1599   6   1160   1146   1555
  1600   4   1151   1147   1158
  1601   5   1151   1147   1161
  1602   6   1151   1147   1556
  1603   4   1161   1147   1158
  1604   7   1158   1147   1556
  1605   6   1161   1147   1556
  1606   2   1052   1148   1152
  1607   1   1052   1148   1162
  1608   1   1052   1148   1879
  1609   1   1152   1148   1162
  1610   1   1152   1148   1879
  1611   3   1162   1148   1879
  1612   2   1053   1149   1153
  1613   1   1053   1149   1163
  1614   1   1053   1149   1880
  1615   1   1153   1149   1163
  1616   1   1153   1149   1880
  1617   3   1163   1149   1880
  1618   8   1144   1150   1146
  1619   8   1145   1151   1147
  1620   9   1144   1152   1148
  1621   9   1145   1153   1149
  1622  10   1146   1158   1147
  1623  11   1169   1159   1170
  1624   8    932   1160   1146
  1625   8    933   1161   1147
  1626  11   1167   1166   1168
  1627   2   1177   1171   1179
  1628   1   1177   1171   1181
  1629   1   1177   1171   1183
  1630   1   1179   1171   1181
  1631   1   1179   1171   1183
  1632   3   1181   1171   1183
  1633   2   1178   1172   1180
  1634   1   1178   1172   1182
  1635   1   1178   1172   1184
  1636   1   1180   1172   1182
  1637   1   1180   1172   1184
  1638   3   1182   1172   1184
  1639   4   1177   1173   1185
  1640   5   1177   1173   1187
  1641   6   1177   1173   1557
  1642   4   1187   1173   1185
  1643   7   1185   1173   1557
  1644   6   1187   1173   1557
  1645   4   1178   1174   1185
  1646   5   1178   1174   1188
  1647   6   1178   1174   1558
  1648   4   1188   1174   1185
  1649   7   1185   1174   1558
  1650   6   1188   1174   1558
  1651   2   1079   1175   1179
  1652   1   1079   1175   1189
  1653   1   1079   1175   1881
  1654   1   1179   1175   1189
  1655   1   1179   1175   1881
  1656   3   1189   1175   1881
  1657   2   1080   1176   1180
  1658   1   1080   1176   1190
  1659   1   1080   1176   1882
  1660   1   1180   1176   1190
  1661   1   1180   1176   1882
  1662   3   1190   1176   1882
  1663   8   1171   1177   1173
  1664   8   1172   1178   1174
  1665   9   1171   1179   1175
  1666   9   1172   1180   1176
  1667  10   1173   1185   1174
  1668  11   1196   1186   1197
  1669   8    959   1187   1173
  1670   8    960   1188   1174
  1671  11   1194   1193   1195
  1672   2   1204   1198   1206
  1673   1   1204   1198   1208
  1674   1   1204   1198   1210
  1675   1   1206   1198   1208
  1676   1   1206   1198   1210
  1677   3   1208   1198   1210
  1678   2   1205   1199   1207
  1679   1   1205   1199   1209
  1680   1   1205   1199   1211
  1681   1   1207   1199   1209
  1682   1   1207   1199   1211
  1683   3   1209   1199   1211
  1684   4   1204   1200   1212
  1685   5   1204   1200   1214
  1686   6   1204   1200   1559
  1687   4   1214   1200   1212
  1688   7   1212   1200   1559
  1689   6   1214   1200   1559
  1690   4   1205   1201   1212
  1691   5   1205   1201   1215
  1692   6   1205   1201   1560
  1693   4   1215   1201   1212
  1694   7   1212   1201   1560
  1695   6   1215   1201   1560
  1696   2   1106   1202   1206
  1697   1   1106   1202   1216
  1698   1   1106   1202   1883
  1699   1   1206   1202   1216
  1700   1   1206   1202   1883
  1701   3   1216   1202   1883
  1702   2   1107   1203   1207
  1703   1   1107   1203   1217
  1704   1   1107   1203   1884
  1705   1   1207   1203   1217
  1706   1   1207   1203   1884
  1707   3   1217   1203   1884
  1708   8   1198   1204   1200
  1709   8   1199   1205   1201
  1710   9   1198   1206   1202
  1711   9   1199   1207   1203
  1712  10   1200   1212   1201
  1713  11   1223   1213   1224
  1714   8    986   1214   1200
  1715   8    987   1215   1201
  1716  11   1221   1220   1222
  1717  11   1226   1225   1227
  1718  11   1229   1228   1230
  1719  11   1232   1231   1233
  1720  11   1235   1234   1236
  1721  11   1238   1237   1239
  1722  11   1241   1240   1242
  1723  11   1244   1243   1245
  1724  11   1247   1246   1248
  1725  11   1250   1249   1251
  1726  11   1253   1252   1254
  1727  11   1256   1255   1257
  1728  11   1259   1258   1260
  1729   2   1267   1261   1269
  1730   1   1267   1261   1271
  1731   1   1267   1261   1273
  1732   1   1269   1261   1271
  1733   1   1269   1261   1273
  1734   3   1271   1261   1273
  1735   2   1268   1262   1270
  1736   1   1268   1262   1272
  1737   1   1268   1262   1274
  1738   1   1270   1262   1272
  1739   1   1270   1262   1274
  1740   3   1272   1262   1274
  1741   4   1276   1263   1275
  1742   7   1275   1263   1561
  1743   4   1451   1263   1275
  1744   6   1276   1263   1561
  1745   5   1276   1263   1451
  1746   6   1451   1263   1561
  1747   4   1277   1264   1275
  1748   7   1275   1264   1562
  1749   4   1452   1264   1275
  1750   6   1277   1264   1562
  1751   5   1277   1264   1452
  1752   6   1452   1264   1562
  1753   2   1269   1265   1276
  1754   1   1269   1265   1278
  1755   1   1269   1265   1885
  1756   1   1276   1265   1278
  1757   1   1276   1265   1885
  1758   3   1278   1265   1885
  1759   2   1270   1266   1277
  1760   1   1270   1266   1279
  1761   1   1270   1266   1886
  1762   1   1277   1266   1279
  1763   1   1277   1266   1886
  1764   3   1279   1266   1886
  1765   8   1261   1267   1355
  1766   8   1262   1268   1356
  1767   9   1261   1269   1265
  1768   9   1262   1270   1266
  1769  10   1263   1275   1264
  1770   8   1265   1276   1263
  1771   8   1266   1277   1264
  1772  11   1282   1281   1283
  1773   2   1290   1284   1292
  1774   1   1290   1284   1294
  1775   1   1290   1284   1296
  1776   1   1292   1284   1294
  1777   1   1292   1284   1296
  1778   3   1294   1284   1296
  1779   2   1291   1285   1293
  1780   1   1291   1285   1295
  1781   1   1291   1285   1297
  1782   1   1293   1285   1295
  1783   1   1293   1285   1297
  1784   3   1295   1285   1297
  1785   4   1299   1286   1298
  1786   7   1298   1286   1577
  1787   4   1474   1286   1298
  1788   6   1299   1286   1577
  1789   5   1299   1286   1474
  1790   6   1474   1286   1577
  1791   4   1300   1287   1298
  1792   7   1298   1287   1578
  1793   4   1475   1287   1298
  1794   6   1300   1287   1578
  1795   5   1300   1287   1475
  1796   6   1475   1287   1578
  1797   2   1292   1288   1299
  1798   1   1292   1288   1301
  1799   1   1292   1288   1887
  1800   1   1299   1288   1301
  1801   1   1299   1288   1887
  1802   3   1301   1288   1887
  1803   2   1293   1289   1300
  1804   1   1293   1289   1302
  1805   1   1293   1289   1888
  1806   1   1300   1289   1302
  1807   1   1300   1289   1888
  1808   3   1302   1289   1888
  1809   8   1284   1290   1378
  1810   8   1285   1291   1379
  1811   9   1284   1292   1288
  1812   9   1285   1293   1289
  1813  10   1286   1298   1287
  1814   8   1288   1299   1286
  1815   8   1289   1300   1287
  1816  11   1305   1304   1306
  1817   2   1313   1307   1315
  1818   1   1313   1307   1317
  1819   1   1313   1307   1319
  1820   1   1315   1307   1317
  1821   1   1315   1307   1319
  1822   3   1317   1307   1319
  1823   2   1314   1308   1316
  1824   1   1314   1308   1318
  1825   1   1314   1308   1320
  1826   1   1316   1308   1318
  1827   1   1316   1308   1320
  1828   3   1318   1308   1320
  1829   4   1322   1309   1321
  1830   7   1321   1309   1593
  1831   4   1497   1309   1321
  1832   6   1322   1309   1593
  1833   5   1322   1309   1497
  1834   6   1497   1309   1593
  1835   4   1323   1310   1321
  1836   7   1321   1310   1594
  1837   4   1498   1310   1321
  1838   6   1323   1310   1594
  1839   5   1323   1310   1498
  1840   6   1498   1310   1594
  1841   2   1315   1311   1322
  1842   1   1315   1311   1324
  1843   1   1315   1311   1889
  1844   1   1322   1311   1324
  1845   1   1322   1311   1889
  1846   3   1324   1311   1889
  1847   2   1316   1312   1323
  1848   1   1316   1312   1325
  1849   1   1316   1312   1890
  1850   1   1323   1312   1325
  1851   1   1323   1312   1890
  1852   3   1325   1312   1890
  1853   8   1307   1313   1401
  1854   8   1308   1314   1402
  1855   9   1307   1315   1311
  1856   9   1308   1316   1312
  1857  10   1309   1321   1310
  1858   8   1311   1322   1309
  1859   8   1312   1323   1310
  1860  11   1328   1327   1329
  1861   2   1336   1330   1338
  1862   1   1336   1330   1340
  1863   1   1336   1330   1342
  1864   1   1338   1330   1340
  1865   1   1338   1330   1342
  1866   3   1340   1330   1342
  1867   2   1337   1331   1339
  1868   1   1337   1331   1341
  1869   1   1337   1331   1343
  1870   1   1339   1331   1341
  1871   1   1339   1331   1343
  1872   3   1341   1331   1343
  1873   4   1345   1332   1344
  1874   7   1344   1332   1609
  1875   4   1520   1332   1344
  1876   6   1345   1332   1609
  1877   5   1345   1332   1520
  1878   6   1520   1332   1609
  1879   4   1346   1333   1344
  1880   7   1344   1333   1610
  1881   4   1521   1333   1344
  1882   6   1346   1333   1610
  1883   5   1346   1333   1521
  1884   6   1521   1333   1610
  1885   2   1338   1334   1345
  1886   1   1338   1334   1347
  1887   1   1338   1334   1891
  1888   1   1345   1334   1347
  1889   1   1345   1334   1891
  1890   3   1347   1334   1891
  1891   2   1339   1335   1346
  1892   1   1339   1335   1348
  1893   1   1339   1335   1892
  1894   1   1346   1335   1348
  1895   1   1346   1335   1892
  1896   3   1348   1335   1892
  1897   8   1330   1336   1424
  1898   8   1331   1337   1425
  1899   9   1330   1338   1334
  1900   9   1331   1339   1335
  1901  10   1332   1344   1333
  1902   8   1334   1345   1332
  1903   8   1335   1346   1333
  1904  11   1351   1350   1352
  1905   2   1359   1353   1361
  1906   1   1359   1353   1363
  1907   1   1359   1353   1365
  1908   1   1361   1353   1363
  1909   1   1361   1353   1365
  1910   3   1363   1353   1365
  1911   2   1360   1354   1362
  1912   1   1360   1354   1364
  1913   1   1360   1354   1366
  1914   1   1362   1354   1364
  1915   1   1362   1354   1366
  1916   3   1364   1354   1366
  1917   4   1267   1355   1367
  1918   5   1267   1355   1368
  1919   6   1267   1355   1625
  1920   4   1368   1355   1367
  1921   7   1367   1355   1625
  1922   6   1368   1355   1625
  1923   4   1268   1356   1367
  1924   5   1268   1356   1369
  1925   6   1268   1356   1626
  1926   4   1369   1356   1367
  1927   7   1367   1356   1626
  1928   6   1369   1356   1626
  1929   2   1361   1357   1368
  1930   1   1361   1357   1370
  1931   1   1361   1357   1893
  1932   1   1368   1357   1370
  1933   1   1368   1357   1893
  1934   3   1370   1357   1893
  1935   2   1362   1358   1369
  1936   1   1362   1358   1371
  1937   1   1362   1358   1894
  1938   1   1369   1358   1371
  1939   1   1369   1358   1894
  1940   3   1371   1358   1894
  1941   8   1353   1359   1447
  1942   8   1354   1360   1448
  1943   9   1353   1361   1357
  1944   9   1354   1362   1358
  1945  10   1355   1367   1356
  1946   8   1357   1368   1355
  1947   8   1358   1369   1356
  1948  11   1374   1373   1375
  1949   2   1382   1376   1384
  1950   1   1382   1376   1386
  1951   1   1382   1376   1388
  1952   1   1384   1376   1386
  1953   1   1384   1376   1388
  1954   3   1386   1376   1388
  1955   2   1383   1377   1385
  1956   1   1383   1377   1387
  1957   1   1383   1377   1389
  1958   1   1385   1377   1387
  1959   1   1385   1377   1389
  1960   3   1387   1377   1389
  1961   4   1290   1378   1390
  1962   5   1290   1378   1391
  1963   6   1290   1378   1641
  1964   4   1391   1378   1390
  1965   7   1390   1378   1641
  1966   6   1391   1378   1641
  1967   4   1291   1379   1390
  1968   5   1291   1379   1392
  1969   6   1291   1379   1642
  1970   4   1392   1379   1390
  1971   7   1390   1379   1642
  1972   6   1392   1379   1642
  1973   2   1384   1380   1391
  1974   1   1384   1380   1393
  1975   1   1384   1380   1895
  1976   1   1391   1380   1393
  1977   1   1391   1380   1895
  1978   3   1393   1380   1895
  1979   2   1385   1381   1392
  1980   1   1385   1381   1394
  1981   1   1385   1381   1896
  1982   1   1392   1381   1394
  1983   1   1392   1381   1896
  1984   3   1394   1381   1896
  1985   8   1376   1382   1470
  1986   8   1377   1383   1471
  1987   9   1376   1384   1380
  1988   9   1377   1385   1381
  1989  10   1378   1390   1379
  1990   8   1380   1391   1378
  1991   8   1381   1392   1379
  1992  11   1397   1396   1398
  1993   2   1405   1399   1407
  1994   1   1405   1399   1409
  1995   1   1405   1399   1411
  1996   1   1407   1399   1409
  1997   1   1407   1399   1411
  1998   3   1409   1399   1411
  1999   2   1406   1400   1408
  2000   1   1406   1400   1410
  2001   1   1406   1400   1412
  2002   1   1408   1400   1410
  2003   1   1408   1400   1412
  2004   3   1410   1400   1412
  2005   4   1313   1401   1413
  2006   5   1313   1401   1414
  2007   6   1313   1401   1657
  2008   4   1414   1401   1413
  2009   7   1413   1401   1657
  2010   6   1414   1401   1657
  2011   4   1314   1402   1413
  2012   5   1314   1402   1415
  2013   6   1314   1402   1658
  2014   4   1415   1402   1413
  2015   7   1413   1402   1658
  2016   6   1415   1402   1658
  2017   2   1407   1403   1414
  2018   1   1407   1403   1416
  2019   1   1407   1403   1897
  2020   1   1414   1403   1416
  2021   1   1414   1403   1897
  2022   3   1416   1403   1897
  2023   2   1408   1404   1415
  2024   1   1408   1404   1417
  2025   1   1408   1404   1898
  2026   1   1415   1404   1417
  2027   1   1415   1404   1898
  2028   3   1417   1404   1898
  2029   8   1399   1405   1493
  2030   8   1400   1406   1494
  2031   9   1399   1407   1403
  2032   9   1400   1408   1404
  2033  10   1401   1413   1402
  2034   8   1403   1414   1401
  2035   8   1404   1415   1402
  2036  11   1420   1419   1421
  2037   2   1428   1422   1430
  2038   1   1428   1422   1432
  2039   1   1428   1422   1434
  2040   1   1430   1422   1432
  2041   1   1430   1422   1434
  2042   3   1432   1422   1434
  2043   2   1429   1423   1431
  2044   1   1429   1423   1433
  2045   1   1429   1423   1435
  2046   1   1431   1423   1433
  2047   1   1431   1423   1435
  2048   3   1433   1423   1435
  2049   4   1336   1424   1436
  2050   5   1336   1424   1437
  2051   6   1336   1424   1673
  2052   4   1437   1424   1436
  2053   7   1436   1424   1673
  2054   6   1437   1424   1673
  2055   4   1337   1425   1436
  2056   5   1337   1425   1438
  2057   6   1337   1425   1674
  2058   4   1438   1425   1436
  2059   7   1436   1425   1674
  2060   6   1438   1425   1674
  2061   2   1430   1426   1437
  2062   1   1430   1426   1439
  2063   1   1430   1426   1899
  2064   1   1437   1426   1439
  2065   1   1437   1426   1899
  2066   3   1439   1426   1899
  2067   2   1431   1427   1438
  2068   1   1431   1427   1440
  2069   1   1431   1427   1900
  2070   1   1438   1427   1440
  2071   1   1438   1427   1900
  2072   3   1440   1427   1900
  2073   8   1422   1428   1516
  2074   8   1423   1429   1517
  2075   9   1422   1430   1426
  2076   9   1423   1431   1427
  2077  10   1424   1436   1425
  2078   8   1426   1437   1424
  2079   8   1427   1438   1425
  2080  11   1443   1442   1444
  2081   2   1451   1445   1453
  2082   1   1451   1445   1455
  2083   1   1451   1445   1457
  2084   1   1453   1445   1455
  2085   1   1453   1445   1457
  2086   3   1455   1445   1457
  2087   2   1452   1446   1454
  2088   1   1452   1446   1456
  2089   1   1452   1446   1458
  2090   1   1454   1446   1456
  2091   1   1454   1446   1458
  2092   3   1456   1446   1458
  2093   4   1359   1447   1459
  2094   5   1359   1447   1460
  2095   6   1359   1447   1689
  2096   4   1460   1447   1459
  2097   7   1459   1447   1689
  2098   6   1460   1447   1689
  2099   4   1360   1448   1459
  2100   5   1360   1448   1461
  2101   6   1360   1448   1690
  2102   4   1461   1448   1459
  2103   7   1459   1448   1690
  2104   6   1461   1448   1690
  2105   2   1453   1449   1460
  2106   1   1453   1449   1462
  2107   1   1453   1449   1901
  2108   1   1460   1449   1462
  2109   1   1460   1449   1901
  2110   3   1462   1449   1901
  2111   2   1454   1450   1461
  2112   1   1454   1450   1463
  2113   1   1454   1450   1902
  2114   1   1461   1450   1463
  2115   1   1461   1450   1902
  2116   3   1463   1450   1902
  2117   8   1445   1451   1263
  2118   8   1446   1452   1264
  2119   9   1445   1453   1449
  2120   9   1446   1454   1450
  2121  10   1447   1459   1448
  2122   8   1449   1460   1447
  2123   8   1450   1461   1448
  2124  11   1466   1465   1467
  2125   2   1474   1468   1476
  2126   1   1474   1468   1478
  2127   1   1474   1468   1480
  2128   1   1476   1468   1478
  2129   1   1476   1468   1480
  2130   3   1478   1468   1480
  2131   2   1475   1469   1477
  2132   1   1475   1469   1479
  2133   1   1475   1469   1481
  2134   1   1477   1469   1479
  2135   1   1477   1469   1481
  2136   3   1479   1469   1481
  2137   4   1382   1470   1482
  2138   5   1382   1470   1483
  2139   6   1382   1470   1705
  2140   4   1483   1470   1482
  2141   7   1482   1470   1705
  2142   6   1483   1470   1705
  2143   4   1383   1471   1482
  2144   5   1383   1471   1484
  2145   6   1383   1471   1706
  2146   4   1484   1471   1482
  2147   7   1482   1471   1706
  2148   6   1484   1471   1706
  2149   2   1476   1472   1483
  2150   1   1476   1472   1485
  2151   1   1476   1472   1903
  2152   1   1483   1472   1485
  2153   1   1483   1472   1903
  2154   3   1485   1472   1903
  2155   2   1477   1473   1484
  2156   1   1477   1473   1486
  2157   1   1477   1473   1904
  2158   1   1484   1473   1486
  2159   1   1484   1473   1904
  2160   3   1486   1473   1904
  2161   8   1468   1474   1286
  2162   8   1469   1475   1287
  2163   9   1468   1476   1472
  2164   9   1469   1477   1473
  2165  10   1470   1482   1471
  2166   8   1472   1483   1470
  2167   8   1473   1484   1471
  2168  11   1489   1488   1490
  2169   2   1497   1491   1499
  2170   1   1497   1491   1501
  2171   1   1497   1491   1503
  2172   1   1499   1491   1501
  2173   1   1499   1491   1503
  2174   3   1501   1491   1503
  2175   2   1498   1492   1500
  2176   1   1498   1492   1502
  2177   1   1498   1492   1504
  2178   1   1500   1492   1502
  2179   1   1500   1492   1504
  2180   3   1502   1492   1504
  2181   4   1405   1493   1505
  2182   5   1405   1493   1506
  2183   6   1405   1493   1721
  2184   4   1506   1493   1505
  2185   7   1505   1493   1721
  2186   6   1506   1493   1721
  2187   4   1406   1494   1505
  2188   5   1406   1494   1507
  2189   6   1406   1494   1722
  2190   4   1507   1494   1505
  2191   7   1505   1494   1722
  2192   6   1507   1494   1722
  2193   2   1499   1495   1506
  2194   1   1499   1495   1508
  2195   1   1499   1495   1905
  2196   1   1506   1495   1508
  2197   1   1506   1495   1905
  2198   3   1508   1495   1905
  2199   2   1500   1496   1507
  2200   1   1500   1496   1509
  2201   1   1500   1496   1906
  2202   1   1507   1496   1509
  2203   1   1507   1496   1906
  2204   3   1509   1496   1906
  2205   8   1491   1497   1309
  2206   8   1492   1498   1310
  2207   9   1491   1499   1495
  2208   9   1492   1500   1496
  2209  10   1493   1505   1494
  2210   8   1495   1506   1493
  2211   8   1496   1507   1494
  2212  11   1512   1511   1513
  2213   2   1520   1514   1522
  2214   1   1520   1514   1524
  2215   1   1520   1514   1526
  2216   1   1522   1514   1524
  2217   1   1522   1514   1526
  2218   3   1524   1514   1526
  2219   2   1521   1515   1523
  2220   1   1521   1515   1525
  2221   1   1521   1515   1527
  2222   1   1523   1515   1525
  2223   1   1523   1515   1527
  2224   3   1525   1515   1527
  2225   4   1428   1516   1528
  2226   5   1428   1516   1529
  2227   6   1428   1516   1737
  2228   4   1529   1516   1528
  2229   7   1528   1516   1737
  2230   6   1529   1516   1737
  2231   4   1429   1517   1528
  2232   5   1429   1517   1530
  2233   6   1429   1517   1738
  2234   4   1530   1517   1528
  2235   7   1528   1517   1738
  2236   6   1530   1517   1738
  2237   2   1522   1518   1529
  2238   1   1522   1518   1531
  2239   1   1522   1518   1907
  2240   1   1529   1518   1531
  2241   1   1529   1518   1907
  2242   3   1531   1518   1907
  2243   2   1523   1519   1530
  2244   1   1523   1519   1532
  2245   1   1523   1519   1908
  2246   1   1530   1519   1532
  2247   1   1530   1519   1908
  2248   3   1532   1519   1908
  2249   8   1514   1520   1332
  2250   8   1515   1521   1333
  2251   9   1514   1522   1518
  2252   9   1515   1523   1519
  2253  10   1516   1528   1517
  2254   8   1518   1529   1516
  2255   8   1519   1530   1517
  2256  11   1535   1534   1536
  2257  12    903   1537   1765
  2258  12    904   1538   1789
  2259  12    930   1539   1766
  2260  12    931   1540   1790
  2261  12    957   1541   1767
  2262  12    958   1542   1791
  2263  12    984   1543   1768
  2264  12    985   1544   1792
  2265  12   1011   1545   1769
  2266  12   1012   1546   1793
  2267  12   1038   1547   1770
  2268  12   1039   1548   1794
  2269  12   1065   1549   1771
  2270  12   1066   1550   1795
  2271  12   1092   1551   1772
  2272  12   1093   1552   1796
  2273  12   1119   1553   1773
  2274  12   1120   1554   1797
  2275  12   1146   1555   1774
  2276  12   1147   1556   1798
  2277  12   1173   1557   1775
  2278  12   1174   1558   1799
  2279  12   1200   1559   1776
  2280  12   1201   1560   1800
  2281  12   1263   1561   1785
  2282  12   1264   1562   1909
  2283  11   1573   1563   1575
  2284  11   1574   1564   1576
  2285  11   1569   1567   1570
  2286  11   1571   1568   1572
  2287  12   1286   1577   1786
  2288  12   1287   1578   1910
  2289  11   1589   1579   1591
  2290  11   1590   1580   1592
  2291  11   1585   1583   1586
  2292  11   1587   1584   1588
  2293  12   1309   1593   1787
  2294  12   1310   1594   1911
  2295  11   1605   1595   1607
  2296  11   1606   1596   1608
  2297  11   1601   1599   1602
  2298  11   1603   1600   1604
  2299  12   1332   1609   1788
  2300  12   1333   1610   1912
  2301  11   1621   1611   1623
  2302  11   1622   1612   1624
  2303  11   1617   1615   1618
  2304  11   1619   1616   1620
  2305  12   1355   1625   1777
  2306  12   1356   1626   1913
  2307  11   1637   1627   1639
  2308  11   1638   1628   1640
  2309  11   1633   1631   1634
  2310  11   1635   1632   1636
  2311  12   1378   1641   1778
  2312  12   1379   1642   1914
  2313  11   1653   1643   1655
  2314  11   1654   1644   1656
  2315  11   1649   1647   1650
  2316  11   1651   1648   1652
  2317  12   1401   1657   1779
  2318  12   1402   1658   1915
  2319  11   1669   1659   1671
  2320  11   1670   1660   1672
  2321  11   1665   1663   1666
  2322  11   1667   1664   1668
  2323  12   1424   1673   1780
  2324  12   1425   1674   1916
  2325  11   1685   1675   1687
  2326  11   1686   1676   1688
  2327  11   1681   1679   1682
  2328  11   1683   1680   1684
  2329  12   1447   1689   1781
  2330  12   1448   1690   1917
  2331  11   1701   1691   1703
  2332  11   1702   1692   1704
  2333  11   1697   1695   1698
  2334  11   1699   1696   1700
  2335  12   1470   1705   1782
  2336  12   1471   1706   1918
  2337  11   1717   1707   1719
  2338  11   1718   1708   1720
  2339  11   1713   1711   1714
  2340  11   1715   1712   1716
  2341  12   1493   1721   1783
  2342  12   1494   1722   1919
  2343  11   1733   1723   1735
  2344  11   1734   1724   1736
  2345  11   1729   1727   1730
  2346  11   1731   1728   1732
  2347  12   1516   1737   1784
  2348  12   1517   1738   1920
  2349  11   1749   1739   1751
  2350  11   1750   1740   1752
  2351  11   1745   1743   1746
  2352  11   1747   1744   1748
  2353  11   1922   1921   1923
  2354  11   1925   1924   1926
  2355  11   1928   1927   1929
  2356  11   1931   1930   1932
  2357  11   1934   1933   1935
  2358  11   1937   1936   1938
  2359  11   1940   1939   1941
  2360  11   1943   1942   1944
  2361  11   1946   1945   1947
  2362  11   1949   1948   1950
  2363  11   1952   1951   1953
  2364  11   1955   1954   1956
  2365  11   1971   1969   1972
  2366  11   1975   1973   1976
  2367  11   1979   1977   1980
  2368  11   1983   1981   1984
  2369  11   1987   1985   1988
  2370  11   1991   1989   1992
  2371  11   1995   1993   1996
  2372  11   1999   1997   2000
  2373  11   2003   2001   2004
  2374  11   2007   2005   2008
  2375  11   2011   2009   2012
  2376  11   2015   2013   2016
  2377  11   2018   2017   2019
  2378  11   2021   2020   2022
  2379  11   2024   2023   2025
  2380  11   2027   2026   2028
  2381  11   2030   2029   2031
  2382  11   2033   2032   2034
  2383  11   2036   2035   2037
  2384  11   2039   2038   2040
  2385  11   2042   2041   2043
  2386  11   2045   2044   2046
  2387  11   2048   2047   2049
  2388  11   2051   2050   2052
  2389  11   2067   2065   2068
  2390  11   2071   2069   2072
  2391  11   2075   2073   2076
  2392  11   2079   2077   2080
  2393  11   2083   2081   2084
  2394  11   2087   2085   2088
  2395  11   2091   2089   2092
  2396  11   2095   2093   2096
  2397  11   2099   2097   2100
  2398  11   2103   2101   2104
  2399  11   2107   2105   2108
  2400  11   2111   2109   2112

Dihedrals

     1   1     11      1      7      3
     2   1     13      1      7      3
     3   2    201      1      7      3
     4   3      7      1    201    197
     5   4     11      1    201    197
     6   4     13      1    201    197
     7   1     12      2      8      4
     8   1     14      2      8      4
     9   2    202      2      8      4
    10   3      8      2    202    198
    11   4     12      2    202    198
    12   4     14      2    202    198
    13   5     15      3      7      1
    14   6     17      3      7      1
    15   7    637      3      7      1
    16   8      7      3     15      4
    17   8     17      3     15      4
    18   9    637      3     15      4
    19   6      7      3     17      5
    20   5     15      3     17      5
    21   7    637      3     17      5
    22  10      7      3    637    865
    23  11     15      3    637    865
    24  10     17      3    637    865
    25   5     15      4      8      2
    26   6     18      4      8      2
    27   7    638      4      8      2
    28   8      8      4     15      3
    29   8     18      4     15      3
    30   9    638      4     15      3
    31   6      8      4     18      6
    32   5     15      4     18      6
    33   7    638      4     18      6
    34  10      8      4    638    889
    35  11     15      4    638    889
    36  10     18      4    638    889
    37   3     17      5      9     97
    38   4     19      5      9     97
    39   4   1801      5      9     97
    40   2      9      5     17      3
    41   1     19      5     17      3
    42   1   1801      5     17      3
    43   3     18      6     10     98
    44   4     20      6     10     98
    45   4   1802      6     10     98
    46   2     10      6     18      4
    47   1     20      6     18      4
    48   1   1802      6     18      4
    49   3    103     97      9      5
    50   4    107     97      9      5
    51   4    109     97      9      5
    52   3    104     98     10      6
    53   4    108     98     10      6
    54   4    110     98     10      6
    55   1     35     25     31     27
    56   1     37     25     31     27
    57   2    225     25     31     27
    58   3     31     25    225    221
    59   4     35     25    225    221
    60   4     37     25    225    221
    61   1     36     26     32     28
    62   1     38     26     32     28
    63   2    226     26     32     28
    64   3     32     26    226    222
    65   4     36     26    226    222
    66   4     38     26    226    222
    67   5     39     27     31     25
    68   6     41     27     31     25
    69   7    639     27     31     25
    70   8     31     27     39     28
    71   8     41     27     39     28
    72   9    639     27     39     28
    73   6     31     27     41     29
    74   5     39     27     41     29
    75   7    639     27     41     29
    76  10     31     27    639    866
    77  11     39     27    639    866
    78  10     41     27    639    866
    79   5     39     28     32     26
    80   6     42     28     32     26
    81   7    640     28     32     26
    82   8     32     28     39     27
    83   8     42     28     39     27
    84   9    640     28     39     27
    85   6     32     28     42     30
    86   5     39     28     42     30
    87   7    640     28     42     30
    88  10     32     28    640    890
    89  11     39     28    640    890
    90  10     42     28    640    890
    91   3     41     29     33    121
    92   4     43     29     33    121
    93   4   1803     29     33    121
    94   2     33     29     41     27
    95   1     43     29     41     27
    96   1   1803     29     41     27
    97   3     42     30     34    122
    98   4     44     30     34    122
    99   4   1804     30     34    122
   100   2     34     30     42     28
   101   1     44     30     42     28
   102   1   1804     30     42     28
   103   3    127    121     33     29
   104   4    131    121     33     29
   105   4    133    121     33     29
   106   3    128    122     34     30
   107   4    132    122     34     30
   108   4    134    122     34     30
   109   1     59     49     55     51
   110   1     61     49     55     51
   111   2    249     49     55     51
   112   3     55     49    249    245
   113   4     59     49    249    245
   114   4     61     49    249    245
   115   1     60     50     56     52
   116   1     62     50     56     52
   117   2    250     50     56     52
   118   3     56     50    250    246
   119   4     60     50    250    246
   120   4     62     50    250    246
   121   5     63     51     55     49
   122   6     65     51     55     49
   123   7    641     51     55     49
   124   8     55     51     63     52
   125   8     65     51     63     52
   126   9    641     51     63     52
   127   6     55     51     65     53
   128   5     63     51     65     53
   129   7    641     51     65     53
   130  10     55     51    641    867
   131  11     63     51    641    867
   132  10     65     51    641    867
   133   5     63     52     56     50
   134   6     66     52     56     50
   135   7    642     52     56     50
   136   8     56     52     63     51
   137   8     66     52     63     51
   138   9    642     52     63     51
   139   6     56     52     66     54
   140   5     63     52     66     54
   141   7    642     52     66     54
   142  10     56     52    642    891
   143  11     63     52    642    891
   144  10     66     52    642    891
   145   3     65     53     57    145
   146   4     67     53     57    145
   147   4   1805     53     57    145
   148   2     57     53     65     51
   149   1     67     53     65     51
   150   1   1805     53     65     51
   151   3     66     54     58    146
   152   4     68     54     58    146
   153   4   1806     54     58    146
   154   2     58     54     66     52
   155   1     68     54     66     52
   156   1   1806     54     66     52
   157   3    151    145     57     53
   158   4    155    145     57     53
   159   4    157    145     57     53
   160   3    152    146     58     54
   161   4    156    146     58     54
   162   4    158    146     58     54
   163   1     83     73     79     75
   164   1     85     73     79     75
   165   2    273     73     79     75
   166   3     79     73    273    269
   167   4     83     73    273    269
   168   4     85     73    273    269
   169   1     84     74     80     76
   170   1     86     74     80     76
   171   2    274     74     80     76
   172   3     80     74    274    270
   173   4     84     74    274    270
   174   4     86     74    274    270
   175   5     87     75     79     73
   176   6     89     75     79     73
   177   7    643     75     79     73
   178   8     79     75     87     76
   179   8     89     75     87     76
   180   9    643     75     87     76
   181   6     79     75     89     77
   182   5     87     75     89     77
   183   7    643     75     89     77
   184  10     79     75    643    868
   185  11     87     75    643    868
   186  10     89     75    643    868
   187   5     87     76     80     74
   188   6     90     76     80     74
   189   7    644     76     80     74
   190   8     80     76     87     75
   191   8     90     76     87     75
   192   9    644     76     87     75
   193   6     80     76     90     78
   194   5     87     76     90     78
   195   7    644     76     90     78
   196  10     80     76    644    892
   197  11     87     76    644    892
   198  10     90     76    644    892
   199   3     89     77     81    169
   200   4     91     77     81    169
   201   4   1807     77     81    169
   202   2     81     77     89     75
   203   1     91     77     89     75
   204   1   1807     77     89     75
   205   3     90     78     82    170
   206   4     92     78     82    170
   207   4   1808     78     82    170
   208   2     82     78     90     76
   209   1     92     78     90     76
   210   1   1808     78     90     76
   211   3    175    169     81     77
   212   4    179    169     81     77
   213   4    181    169     81     77
   214   3    176    170     82     78
   215   4    180    170     82     78
   216   4    182    170     82     78
   217   2      9     97    103     99
   218   1    107     97    103     99
   219   1    109     97    103     99
   220   2     10     98    104    100
   221   1    108     98    104    100
   222   1    110     98    104    100
   223   5    111     99    103     97
   224   6    113     99    103     97
   225   7    645     99    103     97
   226   8    103     99    111    100
   227   8    113     99    111    100
   228   9    645     99    111    100
   229   6    103     99    113    101
   230   5    111     99    113    101
   231   7    645     99    113    101
   232  10    103     99    645    869
   233  11    111     99    645    869
   234  10    113     99    645    869
   235   5    111    100    104     98
   236   6    114    100    104     98
   237   7    646    100    104     98
   238   8    104    100    111     99
   239   8    114    100    111     99
   240   9    646    100    111     99
   241   6    104    100    114    102
   242   5    111    100    114    102
   243   7    646    100    114    102
   244  10    104    100    646    893
   245  11    111    100    646    893
   246  10    114    100    646    893
   247   3    113    101    105    193
   248   4    115    101    105    193
   249   4   1809    101    105    193
   250   2    105    101    113     99
   251   1    115    101    113     99
   252   1   1809    101    113     99
   253   3    114    102    106    194
   254   4    116    102    106    194
   255   4   1810    102    106    194
   256   2    106    102    114    100
   257   1    116    102    114    100
   258   1   1810    102    114    100
   259   3    199    193    105    101
   260   4    203    193    105    101
   261   4    205    193    105    101
   262   3    200    194    106    102
   263   4    204    194    106    102
   264   4    206    194    106    102
   265   2     33    121    127    123
   266   1    131    121    127    123
   267   1    133    121    127    123
   268   2     34    122    128    124
   269   1    132    122    128    124
   270   1    134    122    128    124
   271   5    135    123    127    121
   272   6    137    123    127    121
   273   7    647    123    127    121
   274   8    127    123    135    124
   275   8    137    123    135    124
   276   9    647    123    135    124
   277   6    127    123    137    125
   278   5    135    123    137    125
   279   7    647    123    137    125
   280  10    127    123    647    870
   281  11    135    123    647    870
   282  10    137    123    647    870
   283   5    135    124    128    122
   284   6    138    124    128    122
   285   7    648    124    128    122
   286   8    128    124    135    123
   287   8    138    124    135    123
   288   9    648    124    135    123
   289   6    128    124    138    126
   290   5    135    124    138    126
   291   7    648    124    138    126
   292  10    128    124    648    894
   293  11    135    124    648    894
   294  10    138    124    648    894
   295   3    137    125    129    217
   296   4    139    125    129    217
   297   4   1811    125    129    217
   298   2    129    125    137    123
   299   1    139    125    137    123
   300   1   1811    125    137    123
   301   3    138    126    130    218
   302   4    140    126    130    218
   303   4   1812    126    130    218
   304   2    130    126    138    124
   305   1    140    126    138    124
   306   1   1812    126    138    124
   307   3    223    217    129    125
   308   4    227    217    129    125
   309   4    229    217    129    125
   310   3    224    218    130    126
   311   4    228    218    130    126
   312   4    230    218    130    126
   313   2     57    145    151    147
   314   1    155    145    151    147
   315   1    157    145    151    147
   316   2     58    146    152    148
   317   1    156    146    152    148
   318   1    158    146    152    148
   319   5    159    147    151    145
   320   6    161    147    151    145
   321   7    649    147    151    145
   322   8    151    147    159    148
   323   8    161    147    159    148
   324   9    649    147    159    148
   325   6    151    147    161    149
   326   5    159    147    161    149
   327   7    649    147    161    149
   328  10    151    147    649    871
   329  11    159    147    649    871
   330  10    161    147    649    871
   331   5    159    148    152    146
   332   6    162    148    152    146
   333   7    650    148    152    146
   334   8    152    148    159    147
   335   8    162    148    159    147
   336   9    650    148    159    147
   337   6    152    148    162    150
   338   5    159    148    162    150
   339   7    650    148    162    150
   340  10    152    148    650    895
   341  11    159    148    650    895
   342  10    162    148    650    895
   343   3    161    149    153    241
   344   4    163    149    153    241
   345   4   1813    149    153    241
   346   2    153    149    161    147
   347   1    163    149    161    147
   348   1   1813    149    161    147
   349   3    162    150    154    242
   350   4    164    150    154    242
   351   4   1814    150    154    242
   352   2    154    150    162    148
   353   1    164    150    162    148
   354   1   1814    150    162    148
   355   3    247    241    153    149
   356   4    251    241    153    149
   357   4    253    241    153    149
   358   3    248    242    154    150
   359   4    252    242    154    150
   360   4    254    242    154    150
   361   2     81    169    175    171
   362   1    179    169    175    171
   363   1    181    169    175    171
   364   2     82    170    176    172
   365   1    180    170    176    172
   366   1    182    170    176    172
   367   5    183    171    175    169
   368   6    185    171    175    169
   369   7    651    171    175    169
   370   8    175    171    183    172
   371   8    185    171    183    172
   372   9    651    171    183    172
   373   6    175    171    185    173
   374   5    183    171    185    173
   375   7    651    171    185    173
   376  10    175    171    651    872
   377  11    183    171    651    872
   378  10    185    171    651    872
   379   5    183    172    176    170
   380   6    186    172    176    170
   381   7    652    172    176    170
   382   8    176    172    183    171
   383   8    186    172    183    171
   384   9    652    172    183    171
   385   6    176    172    186    174
   386   5    183    172    186    174
   387   7    652    172    186    174
   388  10    176    172    652    896
   389  11    183    172    652    896
   390  10    186    172    652    896
   391   3    185    173    177    265
   392   4    187    173    177    265
   393   4   1815    173    177    265
   394   2    177    173    185    171
   395   1    187    173    185    171
   396   1   1815    173    185    171
   397   3    186    174    178    266
   398   4    188    174    178    266
   399   4   1816    174    178    266
   400   2    178    174    186    172
   401   1    188    174    186    172
   402   1   1816    174    186    172
   403   3    271    265    177    173
   404   4    275    265    177    173
   405   4    277    265    177    173
   406   3    272    266    178    174
   407   4    276    266    178    174
   408   4    278    266    178    174
   409   2    105    193    199    195
   410   1    203    193    199    195
   411   1    205    193    199    195
   412   2    106    194    200    196
   413   1    204    194    200    196
   414   1    206    194    200    196
   415   5    207    195    199    193
   416   6    209    195    199    193
   417   7    653    195    199    193
   418   8    199    195    207    196
   419   8    209    195    207    196
   420   9    653    195    207    196
   421   6    199    195    209    197
   422   5    207    195    209    197
   423   7    653    195    209    197
   424  10    199    195    653    873
   425  11    207    195    653    873
   426  10    209    195    653    873
   427   5    207    196    200    194
   428   6    210    196    200    194
   429   7    654    196    200    194
   430   8    200    196    207    195
   431   8    210    196    207    195
   432   9    654    196    207    195
   433   6    200    196    210    198
   434   5    207    196    210    198
   435   7    654    196    210    198
   436  10    200    196    654    897
   437  11    207    196    654    897
   438  10    210    196    654    897
   439   3    209    197    201      1
   440   4    211    197    201      1
   441   4   1817    197    201      1
   442   2    201    197    209    195
   443   1    211    197    209    195
   444   1   1817    197    209    195
   445   3    210    198    202      2
   446   4    212    198    202      2
   447   4   1818    198    202      2
   448   2    202    198    210    196
   449   1    212    198    210    196
   450   1   1818    198    210    196
   451   2    129    217    223    219
   452   1    227    217    223    219
   453   1    229    217    223    219
   454   2    130    218    224    220
   455   1    228    218    224    220
   456   1    230    218    224    220
   457   5    231    219    223    217
   458   6    233    219    223    217
   459   7    655    219    223    217
   460   8    223    219    231    220
   461   8    233    219    231    220
   462   9    655    219    231    220
   463   6    223    219    233    221
   464   5    231    219    233    221
   465   7    655    219    233    221
   466  10    223    219    655    874
   467  11    231    219    655    874
   468  10    233    219    655    874
   469   5    231    220    224    218
   470   6    234    220    224    218
   471   7    656    220    224    218
   472   8    224    220    231    219
   473   8    234    220    231    219
   474   9    656    220    231    219
   475   6    224    220    234    222
   476   5    231    220    234    222
   477   7    656    220    234    222
   478  10    224    220    656    898
   479  11    231    220    656    898
   480  10    234    220    656    898
   481   3    233    221    225     25
   482   4    235    221    225     25
   483   4   1819    221    225     25
   484   2    225    221    233    219
   485   1    235    221    233    219
   486   1   1819    221    233    219
   487   3    234    222    226     26
   488   4    236    222    226     26
   489   4   1820    222    226     26
   490   2    226    222    234    220
   491   1    236    222    234    220
   492   1   1820    222    234    220
   493   2    153    241    247    243
   494   1    251    241    247    243
   495   1    253    241    247    243
   496   2    154    242    248    244
   497   1    252    242    248    244
   498   1    254    242    248    244
   499   5    255    243    247    241
   500   6    257    243    247    241
   501   7    657    243    247    241
   502   8    247    243    255    244
   503   8    257    243    255    244
   504   9    657    243    255    244
   505   6    247    243    257    245
   506   5    255    243    257    245
   507   7    657    243    257    245
   508  10    247    243    657    875
   509  11    255    243    657    875
   510  10    257    243    657    875
   511   5    255    244    248    242
   512   6    258    244    248    242
   513   7    658    244    248    242
   514   8    248    244    255    243
   515   8    258    244    255    243
   516   9    658    244    255    243
   517   6    248    244    258    246
   518   5    255    244    258    246
   519   7    658    244    258    246
   520  10    248    244    658    899
   521  11    255    244    658    899
   522  10    258    244    658    899
   523   3    257    245    249     49
   524   4    259    245    249     49
   525   4   1821    245    249     49
   526   2    249    245    257    243
   527   1    259    245    257    243
   528   1   1821    245    257    243
   529   3    258    246    250     50
   530   4    260    246    250     50
   531   4   1822    246    250     50
   532   2    250    246    258    244
   533   1    260    246    258    244
   534   1   1822    246    258    244
   535   2    177    265    271    267
   536   1    275    265    271    267
   537   1    277    265    271    267
   538   2    178    266    272    268
   539   1    276    266    272    268
   540   1    278    266    272    268
   541   5    279    267    271    265
   542   6    281    267    271    265
   543   7    659    267    271    265
   544   8    271    267    279    268
   545   8    281    267    279    268
   546   9    659    267    279    268
   547   6    271    267    281    269
   548   5    279    267    281    269
   549   7    659    267    281    269
   550  10    271    267    659    876
   551  11    279    267    659    876
   552  10    281    267    659    876
   553   5    279    268    272    266
   554   6    282    268    272    266
   555   7    660    268    272    266
   556   8    272    268    279    267
   557   8    282    268    279    267
   558   9    660    268    279    267
   559   6    272    268    282    270
   560   5    279    268    282    270
   561   7    660    268    282    270
   562  10    272    268    660    900
   563  11    279    268    660    900
   564  10    282    268    660    900
   565   3    281    269    273     73
   566   4    283    269    273     73
   567   4   1823    269    273     73
   568   2    273    269    281    267
   569   1    283    269    281    267
   570   1   1823    269    281    267
   571   3    282    270    274     74
   572   4    284    270    274     74
   573   4   1824    270    274     74
   574   2    274    270    282    268
   575   1    284    270    282    268
   576   1   1824    270    282    268
   577   2    369    361    367    363
   578   1    371    361    367    363
   579   1    373    361    367    363
   580   3    367    361    369    549
   581   4    371    361    369    549
   582   4    373    361    369    549
   583   2    370    362    368    364
   584   1    372    362    368    364
   585   1    374    362    368    364
   586   3    368    362    370    550
   587   4    372    362    370    550
   588   4    374    362    370    550
   589   5    375    363    367    361
   590   6    376    363    367    361
   591   7    661    363    367    361
   592   8    367    363    375    364
   593   8    376    363    375    364
   594   9    661    363    375    364
   595   6    367    363    376    365
   596   5    375    363    376    365
   597   7    661    363    376    365
   598  10    367    363    661    877
   599  11    375    363    661    877
   600  10    376    363    661    877
   601   5    375    364    368    362
   602   6    377    364    368    362
   603   7    662    364    368    362
   604   8    368    364    375    363
   605   8    377    364    375    363
   606   9    662    364    375    363
   607   6    368    364    377    366
   608   5    375    364    377    366
   609   7    662    364    377    366
   610  10    368    364    662   1849
   611  11    375    364    662   1849
   612  10    377    364    662   1849
   613   1    378    365    376    363
   614   1   1825    365    376    363
   615   2    461    365    376    363
   616   3    376    365    461    453
   617   4    378    365    461    453
   618   4   1825    365    461    453
   619   1    379    366    377    364
   620   1   1826    366    377    364
   621   2    462    366    377    364
   622   3    377    366    462    454
   623   4    379    366    462    454
   624   4   1826    366    462    454
   625   3    560    549    369    361
   626   4    562    549    369    361
   627   4   1841    549    369    361
   628   3    561    550    370    362
   629   4    563    550    370    362
   630   4   1842    550    370    362
   631   2    392    384    390    386
   632   1    394    384    390    386
   633   1    396    384    390    386
   634   3    390    384    392    572
   635   4    394    384    392    572
   636   4    396    384    392    572
   637   2    393    385    391    387
   638   1    395    385    391    387
   639   1    397    385    391    387
   640   3    391    385    393    573
   641   4    395    385    393    573
   642   4    397    385    393    573
   643   5    398    386    390    384
   644   6    399    386    390    384
   645   7    677    386    390    384
   646   8    390    386    398    387
   647   8    399    386    398    387
   648   9    677    386    398    387
   649   6    390    386    399    388
   650   5    398    386    399    388
   651   7    677    386    399    388
   652  10    390    386    677    878
   653  11    398    386    677    878
   654  10    399    386    677    878
   655   5    398    387    391    385
   656   6    400    387    391    385
   657   7    678    387    391    385
   658   8    391    387    398    386
   659   8    400    387    398    386
   660   9    678    387    398    386
   661   6    391    387    400    389
   662   5    398    387    400    389
   663   7    678    387    400    389
   664  10    391    387    678   1850
   665  11    398    387    678   1850
   666  10    400    387    678   1850
   667   1    401    388    399    386
   668   1   1827    388    399    386
   669   2    484    388    399    386
   670   3    399    388    484    476
   671   4    401    388    484    476
   672   4   1827    388    484    476
   673   1    402    389    400    387
   674   1   1828    389    400    387
   675   2    485    389    400    387
   676   3    400    389    485    477
   677   4    402    389    485    477
   678   4   1828    389    485    477
   679   3    583    572    392    384
   680   4    585    572    392    384
   681   4   1843    572    392    384
   682   3    584    573    393    385
   683   4    586    573    393    385
   684   4   1844    573    393    385
   685   2    415    407    413    409
   686   1    417    407    413    409
   687   1    419    407    413    409
   688   3    413    407    415    595
   689   4    417    407    415    595
   690   4    419    407    415    595
   691   2    416    408    414    410
   692   1    418    408    414    410
   693   1    420    408    414    410
   694   3    414    408    416    596
   695   4    418    408    416    596
   696   4    420    408    416    596
   697   5    421    409    413    407
   698   6    422    409    413    407
   699   7    693    409    413    407
   700   8    413    409    421    410
   701   8    422    409    421    410
   702   9    693    409    421    410
   703   6    413    409    422    411
   704   5    421    409    422    411
   705   7    693    409    422    411
   706  10    413    409    693    879
   707  11    421    409    693    879
   708  10    422    409    693    879
   709   5    421    410    414    408
   710   6    423    410    414    408
   711   7    694    410    414    408
   712   8    414    410    421    409
   713   8    423    410    421    409
   714   9    694    410    421    409
   715   6    414    410    423    412
   716   5    421    410    423    412
   717   7    694    410    423    412
   718  10    414    410    694   1851
   719  11    421    410    694   1851
   720  10    423    410    694   1851
   721   1    424    411    422    409
   722   1   1829    411    422    409
   723   2    507    411    422    409
   724   3    422    411    507    499
   725   4    424    411    507    499
   726   4   1829    411    507    499
   727   1    425    412    423    410
   728   1   1830    412    423    410
   729   2    508    412    423    410
   730   3    423    412    508    500
   731   4    425    412    508    500
   732   4   1830    412    508    500
   733   3    606    595    415    407
   734   4    608    595    415    407
   735   4   1845    595    415    407
   736   3    607    596    416    408
   737   4    609    596    416    408
   738   4   1846    596    416    408
   739   2    438    430    436    432
   740   1    440    430    436    432
   741   1    442    430    436    432
   742   3    436    430    438    618
   743   4    440    430    438    618
   744   4    442    430    438    618
   745   2    439    431    437    433
   746   1    441    431    437    433
   747   1    443    431    437    433
   748   3    437    431    439    619
   749   4    441    431    439    619
   750   4    443    431    439    619
   751   5    444    432    436    430
   752   6    445    432    436    430
   753   7    709    432    436    430
   754   8    436    432    444    433
   755   8    445    432    444    433
   756   9    709    432    444    433
   757   6    436    432    445    434
   758   5    444    432    445    434
   759   7    709    432    445    434
   760  10    436    432    709    880
   761  11    444    432    709    880
   762  10    445    432    709    880
   763   5    444    433    437    431
   764   6    446    433    437    431
   765   7    710    433    437    431
   766   8    437    433    444    432
   767   8    446    433    444    432
   768   9    710    433    444    432
   769   6    437    433    446    435
   770   5    444    433    446    435
   771   7    710    433    446    435
   772  10    437    433    710   1852
   773  11    444    433    710   1852
   774  10    446    433    710   1852
   775   1    447    434    445    432
   776   1   1831    434    445    432
   777   2    530    434    445    432
   778   3    445    434    530    522
   779   4    447    434    530    522
   780   4   1831    434    530    522
   781   1    448    435    446    433
   782   1   1832    435    446    433
   783   2    531    435    446    433
   784   3    446    435    531    523
   785   4    448    435    531    523
   786   4   1832    435    531    523
   787   3    629    618    438    430
   788   4    631    618    438    430
   789   4   1847    618    438    430
   790   3    630    619    439    431
   791   4    632    619    439    431
   792   4   1848    619    439    431
   793   2    461    453    459    455
   794   1    463    453    459    455
   795   1    465    453    459    455
   796   3    459    453    461    365
   797   4    463    453    461    365
   798   4    465    453    461    365
   799   2    462    454    460    456
   800   1    464    454    460    456
   801   1    466    454    460    456
   802   3    460    454    462    366
   803   4    464    454    462    366
   804   4    466    454    462    366
   805   5    467    455    459    453
   806   6    468    455    459    453
   807   7    725    455    459    453
   808   8    459    455    467    456
   809   8    468    455    467    456
   810   9    725    455    467    456
   811   6    459    455    468    457
   812   5    467    455    468    457
   813   7    725    455    468    457
   814  10    459    455    725    881
   815  11    467    455    725    881
   816  10    468    455    725    881
   817   5    467    456    460    454
   818   6    469    456    460    454
   819   7    726    456    460    454
   820   8    460    456    467    455
   821   8    469    456    467    455
   822   9    726    456    467    455
   823   6    460    456    469    458
   824   5    467    456    469    458
   825   7    726    456    469    458
   826  10    460    456    726   1853
   827  11    467    456    726   1853
   828  10    469    456    726   1853
   829   1    470    457    468    455
   830   1   1833    457    468    455
   831   2    553    457    468    455
   832   3    468    457    553    545
   833   4    470    457    553    545
   834   4   1833    457    553    545
   835   1    471    458    469    456
   836   1   1834    458    469    456
   837   2    554    458    469    456
   838   3    469    458    554    546
   839   4    471    458    554    546
   840   4   1834    458    554    546
   841   2    484    476    482    478
   842   1    486    476    482    478
   843   1    488    476    482    478
   844   3    482    476    484    388
   845   4    486    476    484    388
   846   4    488    476    484    388
   847   2    485    477    483    479
   848   1    487    477    483    479
   849   1    489    477    483    479
   850   3    483    477    485    389
   851   4    487    477    485    389
   852   4    489    477    485    389
   853   5    490    478    482    476
   854   6    491    478    482    476
   855   7    741    478    482    476
   856   8    482    478    490    479
   857   8    491    478    490    479
   858   9    741    478    490    479
   859   6    482    478    491    480
   860   5    490    478    491    480
   861   7    741    478    491    480
   862  10    482    478    741    882
   863  11    490    478    741    882
   864  10    491    478    741    882
   865   5    490    479    483    477
   866   6    492    479    483    477
   867   7    742    479    483    477
   868   8    483    479    490    478
   869   8    492    479    490    478
   870   9    742    479    490    478
   871   6    483    479    492    481
   872   5    490    479    492    481
   873   7    742    479    492    481
   874  10    483    479    742   1854
   875  11    490    479    742   1854
   876  10    492    479    742   1854
   877   1    493    480    491    478
   878   1   1835    480    491    478
   879   2    576    480    491    478
   880   3    491    480    576    568
   881   4    493    480    576    568
   882   4   1835    480    576    568
   883   1    494    481    492    479
   884   1   1836    481    492    479
   885   2    577    481    492    479
   886   3    492    481    577    569
   887   4    494    481    577    569
   888   4   1836    481    577    569
   889   2    507    499    505    501
   890   1    509    499    505    501
   891   1    511    499    505    501
   892   3    505    499    507    411
   893   4    509    499    507    411
   894   4    511    499    507    411
   895   2    508    500    506    502
   896   1    510    500    506    502
   897   1    512    500    506    502
   898   3    506    500    508    412
   899   4    510    500    508    412
   900   4    512    500    508    412
   901   5    513    501    505    499
   902   6    514    501    505    499
   903   7    757    501    505    499
   904   8    505    501    513    502
   905   8    514    501    513    502
   906   9    757    501    513    502
   907   6    505    501    514    503
   908   5    513    501    514    503
   909   7    757    501    514    503
   910  10    505    501    757    883
   911  11    513    501    757    883
   912  10    514    501    757    883
   913   5    513    502    506    500
   914   6    515    502    506    500
   915   7    758    502    506    500
   916   8    506    502    513    501
   917   8    515    502    513    501
   918   9    758    502    513    501
   919   6    506    502    515    504
   920   5    513    502    515    504
   921   7    758    502    515    504
   922  10    506    502    758   1855
   923  11    513    502    758   1855
   924  10    515    502    758   1855
   925   1    516    503    514    501
   926   1   1837    503    514    501
   927   2    599    503    514    501
   928   3    514    503    599    591
   929   4    516    503    599    591
   930   4   1837    503    599    591
   931   1    517    504    515    502
   932   1   1838    504    515    502
   933   2    600    504    515    502
   934   3    515    504    600    592
   935   4    517    504    600    592
   936   4   1838    504    600    592
   937   2    530    522    528    524
   938   1    532    522    528    524
   939   1    534    522    528    524
   940   3    528    522    530    434
   941   4    532    522    530    434
   942   4    534    522    530    434
   943   2    531    523    529    525
   944   1    533    523    529    525
   945   1    535    523    529    525
   946   3    529    523    531    435
   947   4    533    523    531    435
   948   4    535    523    531    435
   949   5    536    524    528    522
   950   6    537    524    528    522
   951   7    773    524    528    522
   952   8    528    524    536    525
   953   8    537    524    536    525
   954   9    773    524    536    525
   955   6    528    524    537    526
   956   5    536    524    537    526
   957   7    773    524    537    526
   958  10    528    524    773    884
   959  11    536    524    773    884
   960  10    537    524    773    884
   961   5    536    525    529    523
   962   6    538    525    529    523
   963   7    774    525    529    523
   964   8    529    525    536    524
   965   8    538    525    536    524
   966   9    774    525    536    524
   967   6    529    525    538    527
   968   5    536    525    538    527
   969   7    774    525    538    527
   970  10    529    525    774   1856
   971  11    536    525    774   1856
   972  10    538    525    774   1856
   973   1    539    526    537    524
   974   1   1839    526    537    524
   975   2    622    526    537    524
   976   3    537    526    622    614
   977   4    539    526    622    614
   978   4   1839    526    622    614
   979   1    540    527    538    525
   980   1   1840    527    538    525
   981   2    623    527    538    525
   982   3    538    527    623    615
   983   4    540    527    623    615
   984   4   1840    527    623    615
   985   2    553    545    551    547
   986   1    555    545    551    547
   987   1    557    545    551    547
   988   3    551    545    553    457
   989   4    555    545    553    457
   990   4    557    545    553    457
   991   2    554    546    552    548
   992   1    556    546    552    548
   993   1    558    546    552    548
   994   3    552    546    554    458
   995   4    556    546    554    458
   996   4    558    546    554    458
   997   5    559    547    551    545
   998   6    560    547    551    545
   999   7    789    547    551    545
  1000   8    551    547    559    548
  1001   8    560    547    559    548
  1002   9    789    547    559    548
  1003   6    551    547    560    549
  1004   5    559    547    560    549
  1005   7    789    547    560    549
  1006  10    551    547    789    885
  1007  11    559    547    789    885
  1008  10    560    547    789    885
  1009   5    559    548    552    546
  1010   6    561    548    552    546
  1011   7    790    548    552    546
  1012   8    552    548    559    547
  1013   8    561    548    559    547
  1014   9    790    548    559    547
  1015   6    552    548    561    550
  1016   5    559    548    561    550
  1017   7    790    548    561    550
  1018  10    552    548    790   1857
  1019  11    559    548    790   1857
  1020  10    561    548    790   1857
  1021   1    562    549    560    547
  1022   1   1841    549    560    547
  1023   2    369    549    560    547
  1024   1    563    550    561    548
  1025   1   1842    550    561    548
  1026   2    370    550    561    548
  1027   2    576    568    574    570
  1028   1    578    568    574    570
  1029   1    580    568    574    570
  1030   3    574    568    576    480
  1031   4    578    568    576    480
  1032   4    580    568    576    480
  1033   2    577    569    575    571
  1034   1    579    569    575    571
  1035   1    581    569    575    571
  1036   3    575    569    577    481
  1037   4    579    569    577    481
  1038   4    581    569    577    481
  1039   5    582    570    574    568
  1040   6    583    570    574    568
  1041   7    805    570    574    568
  1042   8    574    570    582    571
  1043   8    583    570    582    571
  1044   9    805    570    582    571
  1045   6    574    570    583    572
  1046   5    582    570    583    572
  1047   7    805    570    583    572
  1048  10    574    570    805    886
  1049  11    582    570    805    886
  1050  10    583    570    805    886
  1051   5    582    571    575    569
  1052   6    584    571    575    569
  1053   7    806    571    575    569
  1054   8    575    571    582    570
  1055   8    584    571    582    570
  1056   9    806    571    582    570
  1057   6    575    571    584    573
  1058   5    582    571    584    573
  1059   7    806    571    584    573
  1060  10    575    571    806   1858
  1061  11    582    571    806   1858
  1062  10    584    571    806   1858
  1063   1    585    572    583    570
  1064   1   1843    572    583    570
  1065   2    392    572    583    570
  1066   1    586    573    584    571
  1067   1   1844    573    584    571
  1068   2    393    573    584    571
  1069   2    599    591    597    593
  1070   1    601    591    597    593
  1071   1    603    591    597    593
  1072   3    597    591    599    503
  1073   4    601    591    599    503
  1074   4    603    591    599    503
  1075   2    600    592    598    594
  1076   1    602    592    598    594
  1077   1    604    592    598    594
  1078   3    598    592    600    504
  1079   4    602    592    600    504
  1080   4    604    592    600    504
  1081   5    605    593    597    591
  1082   6    606    593    597    591
  1083   7    821    593    597    591
  1084   8    597    593    605    594
  1085   8    606    593    605    594
  1086   9    821    593    605    594
  1087   6    597    593    606    595
  1088   5    605    593    606    595
  1089   7    821    593    606    595
  1090  10    597    593    821    887
  1091  11    605    593    821    887
  1092  10    606    593    821    887
  1093   5    605    594    598    592
  1094   6    607    594    598    592
  1095   7    822    594    598    592
  1096   8    598    594    605    593
  1097   8    607    594    605    593
  1098   9    822    594    605    593
  1099   6    598    594    607    596
  1100   5    605    594    607    596
  1101   7    822    594    607    596
  1102  10    598    594    822   1859
  1103  11    605    594    822   1859
  1104  10    607    594    822   1859
  1105   1    608    595    606    593
  1106   1   1845    595    606    593
  1107   2    415    595    606    593
  1108   1    609    596    607    594
  1109   1   1846    596    607    594
  1110   2    416    596    607    594
  1111   2    622    614    620    616
  1112   1    624    614    620    616
  1113   1    626    614    620    616
  1114   3    620    614    622    526
  1115   4    624    614    622    526
  1116   4    626    614    622    526
  1117   2    623    615    621    617
  1118   1    625    615    621    617
  1119   1    627    615    621    617
  1120   3    621    615    623    527
  1121   4    625    615    623    527
  1122   4    627    615    623    527
  1123   5    628    616    620    614
  1124   6    629    616    620    614
  1125   7    837    616    620    614
  1126   8    620    616    628    617
  1127   8    629    616    628    617
  1128   9    837    616    628    617
  1129   6    620    616    629    618
  1130   5    628    616    629    618
  1131   7    837    616    629    618
  1132  10    620    616    837    888
  1133  11    628    616    837    888
  1134  10    629    616    837    888
  1135   5    628    617    621    615
  1136   6    630    617    621    615
  1137   7    838    617    621    615
  1138   8    621    617    628    616
  1139   8    630    617    628    616
  1140   9    838    617    628    616
  1141   6    621    617    630    619
  1142   5    628    617    630    619
  1143   7    838    617    630    619
  1144  10    621    617    838   1860
  1145  11    628    617    838   1860
  1146  10    630    617    838   1860
  1147   1    631    618    629    616
  1148   1   1847    618    629    616
  1149   2    438    618    629    616
  1150   1    632    619    630    617
  1151   1   1848    619    630    617
  1152   2    439    619    630    617
  1153   2    909    901    907    903
  1154   1    911    901    907    903
  1155   1    913    901    907    903
  1156   3    907    901    909    905
  1157   4    911    901    909    905
  1158   4    913    901    909    905
  1159   2    910    902    908    904
  1160   1    912    902    908    904
  1161   1    914    902    908    904
  1162   3    908    902    910    906
  1163   4    912    902    910    906
  1164   4    914    902    910    906
  1165   5    915    903    907    901
  1166   6    917    903    907    901
  1167   7   1537    903    907    901
  1168   8    907    903    915    904
  1169   8    917    903    915    904
  1170   9   1537    903    915    904
  1171   6    907    903    917   1013
  1172   5    915    903    917   1013
  1173   7   1537    903    917   1013
  1174  10    907    903   1537   1765
  1175  11    915    903   1537   1765
  1176  10    917    903   1537   1765
  1177   5    915    904    908    902
  1178   6    918    904    908    902
  1179   7   1538    904    908    902
  1180   8    908    904    915    903
  1181   8    918    904    915    903
  1182   9   1538    904    915    903
  1183   6    908    904    918   1014
  1184   5    915    904    918   1014
  1185   7   1538    904    918   1014
  1186  10    908    904   1538   1789
  1187  11    915    904   1538   1789
  1188  10    918    904   1538   1789
  1189   4    919    905    909    901
  1190   4   1861    905    909    901
  1191   3   1133    905    909    901
  1192   2    909    905   1133   1119
  1193   1    919    905   1133   1119
  1194   1   1861    905   1133   1119
  1195   4    920    906    910    902
  1196   4   1862    906    910    902
  1197   3   1134    906    910    902
  1198   2    910    906   1134   1120
  1199   1    920    906   1134   1120
  1200   1   1862    906   1134   1120
  1201   2   1017   1013    917    903
  1202   1   1027   1013    917    903
  1203   1   1869   1013    917    903
  1204   2   1018   1014    918    904
  1205   1   1028   1014    918    904
  1206   1   1870   1014    918    904
  1207   2    936    928    934    930
  1208   1    938    928    934    930
  1209   1    940    928    934    930
  1210   3    934    928    936    932
  1211   4    938    928    936    932
  1212   4    940    928    936    932
  1213   2    937    929    935    931
  1214   1    939    929    935    931
  1215   1    941    929    935    931
  1216   3    935    929    937    933
  1217   4    939    929    937    933
  1218   4    941    929    937    933
  1219   5    942    930    934    928
  1220   6    944    930    934    928
  1221   7   1539    930    934    928
  1222   8    934    930    942    931
  1223   8    944    930    942    931
  1224   9   1539    930    942    931
  1225   6    934    930    944   1040
  1226   5    942    930    944   1040
  1227   7   1539    930    944   1040
  1228  10    934    930   1539   1766
  1229  11    942    930   1539   1766
  1230  10    944    930   1539   1766
  1231   5    942    931    935    929
  1232   6    945    931    935    929
  1233   7   1540    931    935    929
  1234   8    935    931    942    930
  1235   8    945    931    942    930
  1236   9   1540    931    942    930
  1237   6    935    931    945   1041
  1238   5    942    931    945   1041
  1239   7   1540    931    945   1041
  1240  10    935    931   1540   1790
  1241  11    942    931   1540   1790
  1242  10    945    931   1540   1790
  1243   4    946    932    936    928
  1244   4   1863    932    936    928
  1245   3   1160    932    936    928
  1246   2    936    932   1160   1146
  1247   1    946    932   1160   1146
  1248   1   1863    932   1160   1146
  1249   4    947    933    937    929
  1250   4   1864    933    937    929
  1251   3   1161    933    937    929
  1252   2    937    933   1161   1147
  1253   1    947    933   1161   1147
  1254   1   1864    933   1161   1147
  1255   2   1044   1040    944    930
  1256   1   1054   1040    944    930
  1257   1   1871   1040    944    930
  1258   2   1045   1041    945    931
  1259   1   1055   1041    945    931
  1260   1   1872   1041    945    931
  1261   2    963    955    961    957
  1262   1    965    955    961    957
  1263   1    967    955    961    957
  1264   3    961    955    963    959
  1265   4    965    955    963    959
  1266   4    967    955    963    959
  1267   2    964    956    962    958
  1268   1    966    956    962    958
  1269   1    968    956    962    958
  1270   3    962    956    964    960
  1271   4    966    956    964    960
  1272   4    968    956    964    960
  1273   5    969    957    961    955
  1274   6    971    957    961    955
  1275   7   1541    957    961    955
  1276   8    961    957    969    958
  1277   8    971    957    969    958
  1278   9   1541    957    969    958
  1279   6    961    957    971   1067
  1280   5    969    957    971   1067
  1281   7   1541    957    971   1067
  1282  10    961    957   1541   1767
  1283  11    969    957   1541   1767
  1284  10    971    957   1541   1767
  1285   5    969    958    962    956
  1286   6    972    958    962    956
  1287   7   1542    958    962    956
  1288   8    962    958    969    957
  1289   8    972    958    969    957
  1290   9   1542    958    969    957
  1291   6    962    958    972   1068
  1292   5    969    958    972   1068
  1293   7   1542    958    972   1068
  1294  10    962    958   1542   1791
  1295  11    969    958   1542   1791
  1296  10    972    958   1542   1791
  1297   4    973    959    963    955
  1298   4   1865    959    963    955
  1299   3   1187    959    963    955
  1300   2    963    959   1187   1173
  1301   1    973    959   1187   1173
  1302   1   1865    959   1187   1173
  1303   4    974    960    964    956
  1304   4   1866    960    964    956
  1305   3   1188    960    964    956
  1306   2    964    960   1188   1174
  1307   1    974    960   1188   1174
  1308   1   1866    960   1188   1174
  1309   2   1071   1067    971    957
  1310   1   1081   1067    971    957
  1311   1   1873   1067    971    957
  1312   2   1072   1068    972    958
  1313   1   1082   1068    972    958
  1314   1   1874   1068    972    958
  1315   2    990    982    988    984
  1316   1    992    982    988    984
  1317   1    994    982    988    984
  1318   3    988    982    990    986
  1319   4    992    982    990    986
  1320   4    994    982    990    986
  1321   2    991    983    989    985
  1322   1    993    983    989    985
  1323   1    995    983    989    985
  1324   3    989    983    991    987
  1325   4    993    983    991    987
  1326   4    995    983    991    987
  1327   5    996    984    988    982
  1328   6    998    984    988    982
  1329   7   1543    984    988    982
  1330   8    988    984    996    985
  1331   8    998    984    996    985
  1332   9   1543    984    996    985
  1333   6    988    984    998   1094
  1334   5    996    984    998   1094
  1335   7   1543    984    998   1094
  1336  10    988    984   1543   1768
  1337  11    996    984   1543   1768
  1338  10    998    984   1543   1768
  1339   5    996    985    989    983
  1340   6    999    985    989    983
  1341   7   1544    985    989    983
  1342   8    989    985    996    984
  1343   8    999    985    996    984
  1344   9   1544    985    996    984
  1345   6    989    985    999   1095
  1346   5    996    985    999   1095
  1347   7   1544    985    999   1095
  1348  10    989    985   1544   1792
  1349  11    996    985   1544   1792
  1350  10    999    985   1544   1792
  1351   4   1000    986    990    982
  1352   4   1867    986    990    982
  1353   3   1214    986    990    982
  1354   2    990    986   1214   1200
  1355   1   1000    986   1214   1200
  1356   1   1867    986   1214   1200
  1357   4   1001    987    991    983
  1358   4   1868    987    991    983
  1359   3   1215    987    991    983
  1360   2    991    987   1215   1201
  1361   1   1001    987   1215   1201
  1362   1   1868    987   1215   1201
  1363   2   1098   1094    998    984
  1364   1   1108   1094    998    984
  1365   1   1875   1094    998    984
  1366   2   1099   1095    999    985
  1367   1   1109   1095    999    985
  1368   1   1876   1095    999    985
  1369   2   1017   1009   1015   1011
  1370   1   1019   1009   1015   1011
  1371   1   1021   1009   1015   1011
  1372   3   1015   1009   1017   1013
  1373   4   1019   1009   1017   1013
  1374   4   1021   1009   1017   1013
  1375   2   1018   1010   1016   1012
  1376   1   1020   1010   1016   1012
  1377   1   1022   1010   1016   1012
  1378   3   1016   1010   1018   1014
  1379   4   1020   1010   1018   1014
  1380   4   1022   1010   1018   1014
  1381   5   1023   1011   1015   1009
  1382   6   1025   1011   1015   1009
  1383   7   1545   1011   1015   1009
  1384   8   1015   1011   1023   1012
  1385   8   1025   1011   1023   1012
  1386   9   1545   1011   1023   1012
  1387   6   1015   1011   1025   1121
  1388   5   1023   1011   1025   1121
  1389   7   1545   1011   1025   1121
  1390  10   1015   1011   1545   1769
  1391  11   1023   1011   1545   1769
  1392  10   1025   1011   1545   1769
  1393   5   1023   1012   1016   1010
  1394   6   1026   1012   1016   1010
  1395   7   1546   1012   1016   1010
  1396   8   1016   1012   1023   1011
  1397   8   1026   1012   1023   1011
  1398   9   1546   1012   1023   1011
  1399   6   1016   1012   1026   1122
  1400   5   1023   1012   1026   1122
  1401   7   1546   1012   1026   1122
  1402  10   1016   1012   1546   1793
  1403  11   1023   1012   1546   1793
  1404  10   1026   1012   1546   1793
  1405   3    917   1013   1017   1009
  1406   4   1027   1013   1017   1009
  1407   4   1869   1013   1017   1009
  1408   3    918   1014   1018   1010
  1409   4   1028   1014   1018   1010
  1410   4   1870   1014   1018   1010
  1411   2   1125   1121   1025   1011
  1412   1   1135   1121   1025   1011
  1413   1   1877   1121   1025   1011
  1414   2   1126   1122   1026   1012
  1415   1   1136   1122   1026   1012
  1416   1   1878   1122   1026   1012
  1417   2   1044   1036   1042   1038
  1418   1   1046   1036   1042   1038
  1419   1   1048   1036   1042   1038
  1420   3   1042   1036   1044   1040
  1421   4   1046   1036   1044   1040
  1422   4   1048   1036   1044   1040
  1423   2   1045   1037   1043   1039
  1424   1   1047   1037   1043   1039
  1425   1   1049   1037   1043   1039
  1426   3   1043   1037   1045   1041
  1427   4   1047   1037   1045   1041
  1428   4   1049   1037   1045   1041
  1429   5   1050   1038   1042   1036
  1430   6   1052   1038   1042   1036
  1431   7   1547   1038   1042   1036
  1432   8   1042   1038   1050   1039
  1433   8   1052   1038   1050   1039
  1434   9   1547   1038   1050   1039
  1435   6   1042   1038   1052   1148
  1436   5   1050   1038   1052   1148
  1437   7   1547   1038   1052   1148
  1438  10   1042   1038   1547   1770
  1439  11   1050   1038   1547   1770
  1440  10   1052   1038   1547   1770
  1441   5   1050   1039   1043   1037
  1442   6   1053   1039   1043   1037
  1443   7   1548   1039   1043   1037
  1444   8   1043   1039   1050   1038
  1445   8   1053   1039   1050   1038
  1446   9   1548   1039   1050   1038
  1447   6   1043   1039   1053   1149
  1448   5   1050   1039   1053   1149
  1449   7   1548   1039   1053   1149
  1450  10   1043   1039   1548   1794
  1451  11   1050   1039   1548   1794
  1452  10   1053   1039   1548   1794
  1453   3    944   1040   1044   1036
  1454   4   1054   1040   1044   1036
  1455   4   1871   1040   1044   1036
  1456   3    945   1041   1045   1037
  1457   4   1055   1041   1045   1037
  1458   4   1872   1041   1045   1037
  1459   2   1152   1148   1052   1038
  1460   1   1162   1148   1052   1038
  1461   1   1879   1148   1052   1038
  1462   2   1153   1149   1053   1039
  1463   1   1163   1149   1053   1039
  1464   1   1880   1149   1053   1039
  1465   2   1071   1063   1069   1065
  1466   1   1073   1063   1069   1065
  1467   1   1075   1063   1069   1065
  1468   3   1069   1063   1071   1067
  1469   4   1073   1063   1071   1067
  1470   4   1075   1063   1071   1067
  1471   2   1072   1064   1070   1066
  1472   1   1074   1064   1070   1066
  1473   1   1076   1064   1070   1066
  1474   3   1070   1064   1072   1068
  1475   4   1074   1064   1072   1068
  1476   4   1076   1064   1072   1068
  1477   5   1077   1065   1069   1063
  1478   6   1079   1065   1069   1063
  1479   7   1549   1065   1069   1063
  1480   8   1069   1065   1077   1066
  1481   8   1079   1065   1077   1066
  1482   9   1549   1065   1077   1066
  1483   6   1069   1065   1079   1175
  1484   5   1077   1065   1079   1175
  1485   7   1549   1065   1079   1175
  1486  10   1069   1065   1549   1771
  1487  11   1077   1065   1549   1771
  1488  10   1079   1065   1549   1771
  1489   5   1077   1066   1070   1064
  1490   6   1080   1066   1070   1064
  1491   7   1550   1066   1070   1064
  1492   8   1070   1066   1077   1065
  1493   8   1080   1066   1077   1065
  1494   9   1550   1066   1077   1065
  1495   6   1070   1066   1080   1176
  1496   5   1077   1066   1080   1176
  1497   7   1550   1066   1080   1176
  1498  10   1070   1066   1550   1795
  1499  11   1077   1066   1550   1795
  1500  10   1080   1066   1550   1795
  1501   3    971   1067   1071   1063
  1502   4   1081   1067   1071   1063
  1503   4   1873   1067   1071   1063
  1504   3    972   1068   1072   1064
  1505   4   1082   1068   1072   1064
  1506   4   1874   1068   1072   1064
  1507   2   1179   1175   1079   1065
  1508   1   1189   1175   1079   1065
  1509   1   1881   1175   1079   1065
  1510   2   1180   1176   1080   1066
  1511   1   1190   1176   1080   1066
  1512   1   1882   1176   1080   1066
  1513   2   1098   1090   1096   1092
  1514   1   1100   1090   1096   1092
  1515   1   1102   1090   1096   1092
  1516   3   1096   1090   1098   1094
  1517   4   1100   1090   1098   1094
  1518   4   1102   1090   1098   1094
  1519   2   1099   1091   1097   1093
  1520   1   1101   1091   1097   1093
  1521   1   1103   1091   1097   1093
  1522   3   1097   1091   1099   1095
  1523   4   1101   1091   1099   1095
  1524   4   1103   1091   1099   1095
  1525   5   1104   1092   1096   1090
  1526   6   1106   1092   1096   1090
  1527   7   1551   1092   1096   1090
  1528   8   1096   1092   1104   1093
  1529   8   1106   1092   1104   1093
  1530   9   1551   1092   1104   1093
  1531   6   1096   1092   1106   1202
  1532   5   1104   1092   1106   1202
  1533   7   1551   1092   1106   1202
  1534  10   1096   1092   1551   1772
  1535  11   1104   1092   1551   1772
  1536  10   1106   1092   1551   1772
  1537   5   1104   1093   1097   1091
  1538   6   1107   1093   1097   1091
  1539   7   1552   1093   1097   1091
  1540   8   1097   1093   1104   1092
  1541   8   1107   1093   1104   1092
  1542   9   1552   1093   1104   1092
  1543   6   1097   1093   1107   1203
  1544   5   1104   1093   1107   1203
  1545   7   1552   1093   1107   1203
  1546  10   1097   1093   1552   1796
  1547  11   1104   1093   1552   1796
  1548  10   1107   1093   1552   1796
  1549   3    998   1094   1098   1090
  1550   4   1108   1094   1098   1090
  1551   4   1875   1094   1098   1090
  1552   3    999   1095   1099   1091
  1553   4   1109   1095   1099   1091
  1554   4   1876   1095   1099   1091
  1555   2   1206   1202   1106   1092
  1556   1   1216   1202   1106   1092
  1557   1   1883   1202   1106   1092
  1558   2   1207   1203   1107   1093
  1559   1   1217   1203   1107   1093
  1560   1   1884   1203   1107   1093
  1561   2   1125   1117   1123   1119
  1562   1   1127   1117   1123   1119
  1563   1   1129   1117   1123   1119
  1564   3   1123   1117   1125   1121
  1565   4   1127   1117   1125   1121
  1566   4   1129   1117   1125   1121
  1567   2   1126   1118   1124   1120
  1568   1   1128   1118   1124   1120
  1569   1   1130   1118   1124   1120
  1570   3   1124   1118   1126   1122
  1571   4   1128   1118   1126   1122
  1572   4   1130   1118   1126   1122
  1573   5   1131   1119   1123   1117
  1574   6   1133   1119   1123   1117
  1575   7   1553   1119   1123   1117
  1576   8   1123   1119   1131   1120
  1577   8   1133   1119   1131   1120
  1578   9   1553   1119   1131   1120
  1579   6   1123   1119   1133    905
  1580   5   1131   1119   1133    905
  1581   7   1553   1119   1133    905
  1582  10   1123   1119   1553   1773
  1583  11   1131   1119   1553   1773
  1584  10   1133   1119   1553   1773
  1585   5   1131   1120   1124   1118
  1586   6   1134   1120   1124   1118
  1587   7   1554   1120   1124   1118
  1588   8   1124   1120   1131   1119
  1589   8   1134   1120   1131   1119
  1590   9   1554   1120   1131   1119
  1591   6   1124   1120   1134    906
  1592   5   1131   1120   1134    906
  1593   7   1554   1120   1134    906
  1594  10   1124   1120   1554   1797
  1595  11   1131   1120   1554   1797
  1596  10   1134   1120   1554   1797
  1597   3   1025   1121   1125   1117
  1598   4   1135   1121   1125   1117
  1599   4   1877   1121   1125   1117
  1600   3   1026   1122   1126   1118
  1601   4   1136   1122   1126   1118
  1602   4   1878   1122   1126   1118
  1603   2   1152   1144   1150   1146
  1604   1   1154   1144   1150   1146
  1605   1   1156   1144   1150   1146
  1606   3   1150   1144   1152   1148
  1607   4   1154   1144   1152   1148
  1608   4   1156   1144   1152   1148
  1609   2   1153   1145   1151   1147
  1610   1   1155   1145   1151   1147
  1611   1   1157   1145   1151   1147
  1612   3   1151   1145   1153   1149
  1613   4   1155   1145   1153   1149
  1614   4   1157   1145   1153   1149
  1615   5   1158   1146   1150   1144
  1616   6   1160   1146   1150   1144
  1617   7   1555   1146   1150   1144
  1618   8   1150   1146   1158   1147
  1619   8   1160   1146   1158   1147
  1620   9   1555   1146   1158   1147
  1621   6   1150   1146   1160    932
  1622   5   1158   1146   1160    932
  1623   7   1555   1146   1160    932
  1624  10   1150   1146   1555   1774
  1625  11   1158   1146   1555   1774
  1626  10   1160   1146   1555   1774
  1627   5   1158   1147   1151   1145
  1628   6   1161   1147   1151   1145
  1629   7   1556   1147   1151   1145
  1630   8   1151   1147   1158   1146
  1631   8   1161   1147   1158   1146
  1632   9   1556   1147   1158   1146
  1633   6   1151   1147   1161    933
  1634   5   1158   1147   1161    933
  1635   7   1556   1147   1161    933
  1636  10   1151   1147   1556   1798
  1637  11   1158   1147   1556   1798
  1638  10   1161   1147   1556   1798
  1639   3   1052   1148   1152   1144
  1640   4   1162   1148   1152   1144
  1641   4   1879   1148   1152   1144
  1642   3   1053   1149   1153   1145
  1643   4   1163   1149   1153   1145
  1644   4   1880   1149   1153   1145
  1645   2   1179   1171   1177   1173
  1646   1   1181   1171   1177   1173
  1647   1   1183   1171   1177   1173
  1648   3   1177   1171   1179   1175
  1649   4   1181   1171   1179   1175
  1650   4   1183   1171   1179   1175
  1651   2   1180   1172   1178   1174
  1652   1   1182   1172   1178   1174
  1653   1   1184   1172   1178   1174
  1654   3   1178   1172   1180   1176
  1655   4   1182   1172   1180   1176
  1656   4   1184   1172   1180   1176
  1657   5   1185   1173   1177   1171
  1658   6   1187   1173   1177   1171
  1659   7   1557   1173   1177   1171
  1660   8   1177   1173   1185   1174
  1661   8   1187   1173   1185   1174
  1662   9   1557   1173   1185   1174
  1663   6   1177   1173   1187    959
  1664   5   1185   1173   1187    959
  1665   7   1557   1173   1187    959
  1666  10   1177   1173   1557   1775
  1667  11   1185   1173   1557   1775
  1668  10   1187   1173   1557   1775
  1669   5   1185   1174   1178   1172
  1670   6   1188   1174   1178   1172
  1671   7   1558   1174   1178   1172
  1672   8   1178   1174   1185   1173
  1673   8   1188   1174   1185   1173
  1674   9   1558   1174   1185   1173
  1675   6   1178   1174   1188    960
  1676   5   1185   1174   1188    960
  1677   7   1558   1174   1188    960
  1678  10   1178   1174   1558   1799
  1679  11   1185   1174   1558   1799
  1680  10   1188   1174   1558   1799
  1681   3   1079   1175   1179   1171
  1682   4   1189   1175   1179   1171
  1683   4   1881   1175   1179   1171
  1684   3   1080   1176   1180   1172
  1685   4   1190   1176   1180   1172
  1686   4   1882   1176   1180   1172
  1687   2   1206   1198   1204   1200
  1688   1   1208   1198   1204   1200
  1689   1   1210   1198   1204   1200
  1690   3   1204   1198   1206   1202
  1691   4   1208   1198   1206   1202
  1692   4   1210   1198   1206   1202
  1693   2   1207   1199   1205   1201
  1694   1   1209   1199   1205   1201
  1695   1   1211   1199   1205   1201
  1696   3   1205   1199   1207   1203
  1697   4   1209   1199   1207   1203
  1698   4   1211   1199   1207   1203
  1699   5   1212   1200   1204   1198
  1700   6   1214   1200   1204   1198
  1701   7   1559   1200   1204   1198
  1702   8   1204   1200   1212   1201
  1703   8   1214   1200   1212   1201
  1704   9   1559   1200   1212   1201
  1705   6   1204   1200   1214    986
  1706   5   1212   1200   1214    986
  1707   7   1559   1200   1214    986
  1708  10   1204   1200   1559   1776
  1709  11   1212   1200   1559   1776
  1710  10   1214   1200   1559   1776
  1711   5   1212   1201   1205   1199
  1712   6   1215   1201   1205   1199
  1713   7   1560   1201   1205   1199
  1714   8   1205   1201   1212   1200
  1715   8   1215   1201   1212   1200
  1716   9   1560   1201   1212   1200
  1717   6   1205   1201   1215    987
  1718   5   1212   1201   1215    987
  1719   7   1560   1201   1215    987
  1720  10   1205   1201   1560   1800
  1721  11   1212   1201   1560   1800
  1722  10   1215   1201   1560   1800
  1723   3   1106   1202   1206   1198
  1724   4   1216   1202   1206   1198
  1725   4   1883   1202   1206   1198
  1726   3   1107   1203   1207   1199
  1727   4   1217   1203   1207   1199
  1728   4   1884   1203   1207   1199
  1729   2   1269   1261   1267   1355
  1730   1   1271   1261   1267   1355
  1731   1   1273   1261   1267   1355
  1732   3   1267   1261   1269   1265
  1733   4   1271   1261   1269   1265
  1734   4   1273   1261   1269   1265
  1735   2   1270   1262   1268   1356
  1736   1   1272   1262   1268   1356
  1737   1   1274   1262   1268   1356
  1738   3   1268   1262   1270   1266
  1739   4   1272   1262   1270   1266
  1740   4   1274   1262   1270   1266
  1741   8   1276   1263   1275   1264
  1742   9   1561   1263   1275   1264
  1743   8   1451   1263   1275   1264
  1744   5   1275   1263   1276   1265
  1745   7   1561   1263   1276   1265
  1746   6   1451   1263   1276   1265
  1747  11   1275   1263   1561   1785
  1748  10   1276   1263   1561   1785
  1749  10   1451   1263   1561   1785
  1750   5   1275   1263   1451   1445
  1751   6   1276   1263   1451   1445
  1752   7   1561   1263   1451   1445
  1753   8   1277   1264   1275   1263
  1754   9   1562   1264   1275   1263
  1755   8   1452   1264   1275   1263
  1756   5   1275   1264   1277   1266
  1757   7   1562   1264   1277   1266
  1758   6   1452   1264   1277   1266
  1759  11   1275   1264   1562   1909
  1760  10   1277   1264   1562   1909
  1761  10   1452   1264   1562   1909
  1762   5   1275   1264   1452   1446
  1763   6   1277   1264   1452   1446
  1764   7   1562   1264   1452   1446
  1765   3   1276   1265   1269   1261
  1766   4   1278   1265   1269   1261
  1767   4   1885   1265   1269   1261
  1768   2   1269   1265   1276   1263
  1769   1   1278   1265   1276   1263
  1770   1   1885   1265   1276   1263
  1771   3   1277   1266   1270   1262
  1772   4   1279   1266   1270   1262
  1773   4   1886   1266   1270   1262
  1774   2   1270   1266   1277   1264
  1775   1   1279   1266   1277   1264
  1776   1   1886   1266   1277   1264
  1777   5   1367   1355   1267   1261
  1778   6   1368   1355   1267   1261
  1779   7   1625   1355   1267   1261
  1780   5   1367   1356   1268   1262
  1781   6   1369   1356   1268   1262
  1782   7   1626   1356   1268   1262
  1783   2   1292   1284   1290   1378
  1784   1   1294   1284   1290   1378
  1785   1   1296   1284   1290   1378
  1786   3   1290   1284   1292   1288
  1787   4   1294   1284   1292   1288
  1788   4   1296   1284   1292   1288
  1789   2   1293   1285   1291   1379
  1790   1   1295   1285   1291   1379
  1791   1   1297   1285   1291   1379
  1792   3   1291   1285   1293   1289
  1793   4   1295   1285   1293   1289
  1794   4   1297   1285   1293   1289
  1795   8   1299   1286   1298   1287
  1796   9   1577   1286   1298   1287
  1797   8   1474   1286   1298   1287
  1798   5   1298   1286   1299   1288
  1799   7   1577   1286   1299   1288
  1800   6   1474   1286   1299   1288
  1801  11   1298   1286   1577   1786
  1802  10   1299   1286   1577   1786
  1803  10   1474   1286   1577   1786
  1804   5   1298   1286   1474   1468
  1805   6   1299   1286   1474   1468
  1806   7   1577   1286   1474   1468
  1807   8   1300   1287   1298   1286
  1808   9   1578   1287   1298   1286
  1809   8   1475   1287   1298   1286
  1810   5   1298   1287   1300   1289
  1811   7   1578   1287   1300   1289
  1812   6   1475   1287   1300   1289
  1813  11   1298   1287   1578   1910
  1814  10   1300   1287   1578   1910
  1815  10   1475   1287   1578   1910
  1816   5   1298   1287   1475   1469
  1817   6   1300   1287   1475   1469
  1818   7   1578   1287   1475   1469
  1819   3   1299   1288   1292   1284
  1820   4   1301   1288   1292   1284
  1821   4   1887   1288   1292   1284
  1822   2   1292   1288   1299   1286
  1823   1   1301   1288   1299   1286
  1824   1   1887   1288   1299   1286
  1825   3   1300   1289   1293   1285
  1826   4   1302   1289   1293   1285
  1827   4   1888   1289   1293   1285
  1828   2   1293   1289   1300   1287
  1829   1   1302   1289   1300   1287
  1830   1   1888   1289   1300   1287
  1831   5   1390   1378   1290   1284
  1832   6   1391   1378   1290   1284
  1833   7   1641   1378   1290   1284
  1834   5   1390   1379   1291   1285
  1835   6   1392   1379   1291   1285
  1836   7   1642   1379   1291   1285
  1837   2   1315   1307   1313   1401
  1838   1   1317   1307   1313   1401
  1839   1   1319   1307   1313   1401
  1840   3   1313   1307   1315   1311
  1841   4   1317   1307   1315   1311
  1842   4   1319   1307   1315   1311
  1843   2   1316   1308   1314   1402
  1844   1   1318   1308   1314   1402
  1845   1   1320   1308   1314   1402
  1846   3   1314   1308   1316   1312
  1847   4   1318   1308   1316   1312
  1848   4   1320   1308   1316   1312
  1849   8   1322   1309   1321   1310
  1850   9   1593   1309   1321   1310
  1851   8   1497   1309   1321   1310
  1852   5   1321   1309   1322   1311
  1853   7   1593   1309   1322   1311
  1854   6   1497   1309   1322   1311
  1855  11   1321   1309   1593   1787
  1856  10   1322   1309   1593   1787
  1857  10   1497   1309   1593   1787
  1858   5   1321   1309   1497   1491
  1859   6   1322   1309   1497   1491
  1860   7   1593   1309   1497   1491
  1861   8   1323   1310   1321   1309
  1862   9   1594   1310   1321   1309
  1863   8   1498   1310   1321   1309
  1864   5   1321   1310   1323   1312
  1865   7   1594   1310   1323   1312
  1866   6   1498   1310   1323   1312
  1867  11   1321   1310   1594   1911
  1868  10   1323   1310   1594   1911
  1869  10   1498   1310   1594   1911
  1870   5   1321   1310   1498   1492
  1871   6   1323   1310   1498   1492
  1872   7   1594   1310   1498   1492
  1873   3   1322   1311   1315   1307
  1874   4   1324   1311   1315   1307
  1875   4   1889   1311   1315   1307
  1876   2   1315   1311   1322   1309
  1877   1   1324   1311   1322   1309
  1878   1   1889   1311   1322   1309
  1879   3   1323   1312   1316   1308
  1880   4   1325   1312   1316   1308
  1881   4   1890   1312   1316   1308
  1882   2   1316   1312   1323   1310
  1883   1   1325   1312   1323   1310
  1884   1   1890   1312   1323   1310
  1885   5   1413   1401   1313   1307
  1886   6   1414   1401   1313   1307
  1887   7   1657   1401   1313   1307
  1888   5   1413   1402   1314   1308
  1889   6   1415   1402   1314   1308
  1890   7   1658   1402   1314   1308
  1891   2   1338   1330   1336   1424
  1892   1   1340   1330   1336   1424
  1893   1   1342   1330   1336   1424
  1894   3   1336   1330   1338   1334
  1895   4   1340   1330   1338   1334
  1896   4   1342   1330   1338   1334
  1897   2   1339   1331   1337   1425
  1898   1   1341   1331   1337   1425
  1899   1   1343   1331   1337   1425
  1900   3   1337   1331   1339   1335
  1901   4   1341   1331   1339   1335
  1902   4   1343   1331   1339   1335
  1903   8   1345   1332   1344   1333
  1904   9   1609   1332   1344   1333
  1905   8   1520   1332   1344   1333
  1906   5   1344   1332   1345   1334
  1907   7   1609   1332   1345   1334
  1908   6   1520   1332   1345   1334
  1909  11   1344   1332   1609   1788
  1910  10   1345   1332   1609   1788
  1911  10   1520   1332   1609   1788
  1912   5   1344   1332   1520   1514
  1913   6   1345   1332   1520   1514
  1914   7   1609   1332   1520   1514
  1915   8   1346   1333   1344   1332
  1916   9   1610   1333   1344   1332
  1917   8   1521   1333   1344   1332
  1918   5   1344   1333   1346   1335
  1919   7   1610   1333   1346   1335
  1920   6   1521   1333   1346   1335
  1921  11   1344   1333   1610   1912
  1922  10   1346   1333   1610   1912
  1923  10   1521   1333   1610   1912
  1924   5   1344   1333   1521   1515
  1925   6   1346   1333   1521   1515
  1926   7   1610   1333   1521   1515
  1927   3   1345   1334   1338   1330
  1928   4   1347   1334   1338   1330
  1929   4   1891   1334   1338   1330
  1930   2   1338   1334   1345   1332
  1931   1   1347   1334   1345   1332
  1932   1   1891   1334   1345   1332
  1933   3   1346   1335   1339   1331
  1934   4   1348   1335   1339   1331
  1935   4   1892   1335   1339   1331
  1936   2   1339   1335   1346   1333
  1937   1   1348   1335   1346   1333
  1938   1   1892   1335   1346   1333
  1939   5   1436   1424   1336   1330
  1940   6   1437   1424   1336   1330
  1941   7   1673   1424   1336   1330
  1942   5   1436   1425   1337   1331
  1943   6   1438   1425   1337   1331
  1944   7   1674   1425   1337   1331
  1945   2   1361   1353   1359   1447
  1946   1   1363   1353   1359   1447
  1947   1   1365   1353   1359   1447
  1948   3   1359   1353   1361   1357
  1949   4   1363   1353   1361   1357
  1950   4   1365   1353   1361   1357
  1951   2   1362   1354   1360   1448
  1952   1   1364   1354   1360   1448
  1953   1   1366   1354   1360   1448
  1954   3   1360   1354   1362   1358
  1955   4   1364   1354   1362   1358
  1956   4   1366   1354   1362   1358
  1957   8   1267   1355   1367   1356
  1958   8   1368   1355   1367   1356
  1959   9   1625   1355   1367   1356
  1960   6   1267   1355   1368   1357
  1961   5   1367   1355   1368   1357
  1962   7   1625   1355   1368   1357
  1963  10   1267   1355   1625   1777
  1964  11   1367   1355   1625   1777
  1965  10   1368   1355   1625   1777
  1966   8   1268   1356   1367   1355
  1967   8   1369   1356   1367   1355
  1968   9   1626   1356   1367   1355
  1969   6   1268   1356   1369   1358
  1970   5   1367   1356   1369   1358
  1971   7   1626   1356   1369   1358
  1972  10   1268   1356   1626   1913
  1973  11   1367   1356   1626   1913
  1974  10   1369   1356   1626   1913
  1975   3   1368   1357   1361   1353
  1976   4   1370   1357   1361   1353
  1977   4   1893   1357   1361   1353
  1978   2   1361   1357   1368   1355
  1979   1   1370   1357   1368   1355
  1980   1   1893   1357   1368   1355
  1981   3   1369   1358   1362   1354
  1982   4   1371   1358   1362   1354
  1983   4   1894   1358   1362   1354
  1984   2   1362   1358   1369   1356
  1985   1   1371   1358   1369   1356
  1986   1   1894   1358   1369   1356
  1987   5   1459   1447   1359   1353
  1988   6   1460   1447   1359   1353
  1989   7   1689   1447   1359   1353
  1990   5   1459   1448   1360   1354
  1991   6   1461   1448   1360   1354
  1992   7   1690   1448   1360   1354
  1993   2   1384   1376   1382   1470
  1994   1   1386   1376   1382   1470
  1995   1   1388   1376   1382   1470
  1996   3   1382   1376   1384   1380
  1997   4   1386   1376   1384   1380
  1998   4   1388   1376   1384   1380
  1999   2   1385   1377   1383   1471
  2000   1   1387   1377   1383   1471
  2001   1   1389   1377   1383   1471
  2002   3   1383   1377   1385   1381
  2003   4   1387   1377   1385   1381
  2004   4   1389   1377   1385   1381
  2005   8   1290   1378   1390   1379
  2006   8   1391   1378   1390   1379
  2007   9   1641   1378   1390   1379
  2008   6   1290   1378   1391   1380
  2009   5   1390   1378   1391   1380
  2010   7   1641   1378   1391   1380
  2011  10   1290   1378   1641   1778
  2012  11   1390   1378   1641   1778
  2013  10   1391   1378   1641   1778
  2014   8   1291   1379   1390   1378
  2015   8   1392   1379   1390   1378
  2016   9   1642   1379   1390   1378
  2017   6   1291   1379   1392   1381
  2018   5   1390   1379   1392   1381
  2019   7   1642   1379   1392   1381
  2020  10   1291   1379   1642   1914
  2021  11   1390   1379   1642   1914
  2022  10   1392   1379   1642   1914
  2023   3   1391   1380   1384   1376
  2024   4   1393   1380   1384   1376
  2025   4   1895   1380   1384   1376
  2026   2   1384   1380   1391   1378
  2027   1   1393   1380   1391   1378
  2028   1   1895   1380   1391   1378
  2029   3   1392   1381   1385   1377
  2030   4   1394   1381   1385   1377
  2031   4   1896   1381   1385   1377
  2032   2   1385   1381   1392   1379
  2033   1   1394   1381   1392   1379
  2034   1   1896   1381   1392   1379
  2035   5   1482   1470   1382   1376
  2036   6   1483   1470   1382   1376
  2037   7   1705   1470   1382   1376
  2038   5   1482   1471   1383   1377
  2039   6   1484   1471   1383   1377
  2040   7   1706   1471   1383   1377
  2041   2   1407   1399   1405   1493
  2042   1   1409   1399   1405   1493
  2043   1   1411   1399   1405   1493
  2044   3   1405   1399   1407   1403
  2045   4   1409   1399   1407   1403
  2046   4   1411   1399   1407   1403
  2047   2   1408   1400   1406   1494
  2048   1   1410   1400   1406   1494
  2049   1   1412   1400   1406   1494
  2050   3   1406   1400   1408   1404
  2051   4   1410   1400   1408   1404
  2052   4   1412   1400   1408   1404
  2053   8   1313   1401   1413   1402
  2054   8   1414   1401   1413   1402
  2055   9   1657   1401   1413   1402
  2056   6   1313   1401   1414   1403
  2057   5   1413   1401   1414   1403
  2058   7   1657   1401   1414   1403
  2059  10   1313   1401   1657   1779
  2060  11   1413   1401   1657   1779
  2061  10   1414   1401   1657   1779
  2062   8   1314   1402   1413   1401
  2063   8   1415   1402   1413   1401
  2064   9   1658   1402   1413   1401
  2065   6   1314   1402   1415   1404
  2066   5   1413   1402   1415   1404
  2067   7   1658   1402   1415   1404
  2068  10   1314   1402   1658   1915
  2069  11   1413   1402   1658   1915
  2070  10   1415   1402   1658   1915
  2071   3   1414   1403   1407   1399
  2072   4   1416   1403   1407   1399
  2073   4   1897   1403   1407   1399
  2074   2   1407   1403   1414   1401
  2075   1   1416   1403   1414   1401
  2076   1   1897   1403   1414   1401
  2077   3   1415   1404   1408   1400
  2078   4   1417   1404   1408   1400
  2079   4   1898   1404   1408   1400
  2080   2   1408   1404   1415   1402
  2081   1   1417   1404   1415   1402
  2082   1   1898   1404   1415   1402
  2083   5   1505   1493   1405   1399
  2084   6   1506   1493   1405   1399
  2085   7   1721   1493   1405   1399
  2086   5   1505   1494   1406   1400
  2087   6   1507   1494   1406   1400
  2088   7   1722   1494   1406   1400
  2089   2   1430   1422   1428   1516
  2090   1   1432   1422   1428   1516
  2091   1   1434   1422   1428   1516
  2092   3   1428   1422   1430   1426
  2093   4   1432   1422   1430   1426
  2094   4   1434   1422   1430   1426
  2095   2   1431   1423   1429   1517
  2096   1   1433   1423   1429   1517
  2097   1   1435   1423   1429   1517
  2098   3   1429   1423   1431   1427
  2099   4   1433   1423   1431   1427
  2100   4   1435   1423   1431   1427
  2101   8   1336   1424   1436   1425
  2102   8   1437   1424   1436   1425
  2103   9   1673   1424   1436   1425
  2104   6   1336   1424   1437   1426
  2105   5   1436   1424   1437   1426
  2106   7   1673   1424   1437   1426
  2107  10   1336   1424   1673   1780
  2108  11   1436   1424   1673   1780
  2109  10   1437   1424   1673   1780
  2110   8   1337   1425   1436   1424
  2111   8   1438   1425   1436   1424
  2112   9   1674   1425   1436   1424
  2113   6   1337   1425   1438   1427
  2114   5   1436   1425   1438   1427
  2115   7   1674   1425   1438   1427
  2116  10   1337   1425   1674   1916
  2117  11   1436   1425   1674   1916
  2118  10   1438   1425   1674   1916
  2119   3   1437   1426   1430   1422
  2120   4   1439   1426   1430   1422
  2121   4   1899   1426   1430   1422
  2122   2   1430   1426   1437   1424
  2123   1   1439   1426   1437   1424
  2124   1   1899   1426   1437   1424
  2125   3   1438   1427   1431   1423
  2126   4   1440   1427   1431   1423
  2127   4   1900   1427   1431   1423
  2128   2   1431   1427   1438   1425
  2129   1   1440   1427   1438   1425
  2130   1   1900   1427   1438   1425
  2131   5   1528   1516   1428   1422
  2132   6   1529   1516   1428   1422
  2133   7   1737   1516   1428   1422
  2134   5   1528   1517   1429   1423
  2135   6   1530   1517   1429   1423
  2136   7   1738   1517   1429   1423
  2137   2   1453   1445   1451   1263
  2138   1   1455   1445   1451   1263
  2139   1   1457   1445   1451   1263
  2140   3   1451   1445   1453   1449
  2141   4   1455   1445   1453   1449
  2142   4   1457   1445   1453   1449
  2143   2   1454   1446   1452   1264
  2144   1   1456   1446   1452   1264
  2145   1   1458   1446   1452   1264
  2146   3   1452   1446   1454   1450
  2147   4   1456   1446   1454   1450
  2148   4   1458   1446   1454   1450
  2149   8   1359   1447   1459   1448
  2150   8   1460   1447   1459   1448
  2151   9   1689   1447   1459   1448
  2152   6   1359   1447   1460   1449
  2153   5   1459   1447   1460   1449
  2154   7   1689   1447   1460   1449
  2155  10   1359   1447   1689   1781
  2156  11   1459   1447   1689   1781
  2157  10   1460   1447   1689   1781
  2158   8   1360   1448   1459   1447
  2159   8   1461   1448   1459   1447
  2160   9   1690   1448   1459   1447
  2161   6   1360   1448   1461   1450
  2162   5   1459   1448   1461   1450
  2163   7   1690   1448   1461   1450
  2164  10   1360   1448   1690   1917
  2165  11   1459   1448   1690   1917
  2166  10   1461   1448   1690   1917
  2167   3   1460   1449   1453   1445
  2168   4   1462   1449   1453   1445
  2169   4   1901   1449   1453   1445
  2170   2   1453   1449   1460   1447
  2171   1   1462   1449   1460   1447
  2172   1   1901   1449   1460   1447
  2173   3   1461   1450   1454   1446
  2174   4   1463   1450   1454   1446
  2175   4   1902   1450   1454   1446
  2176   2   1454   1450   1461   1448
  2177   1   1463   1450   1461   1448
  2178   1   1902   1450   1461   1448
  2179   2   1476   1468   1474   1286
  2180   1   1478   1468   1474   1286
  2181   1   1480   1468   1474   1286
  2182   3   1474   1468   1476   1472
  2183   4   1478   1468   1476   1472
  2184   4   1480   1468   1476   1472
  2185   2   1477   1469   1475   1287
  2186   1   1479   1469   1475   1287
  2187   1   1481   1469   1475   1287
  2188   3   1475   1469   1477   1473
  2189   4   1479   1469   1477   1473
  2190   4   1481   1469   1477   1473
  2191   8   1382   1470   1482   1471
  2192   8   1483   1470   1482   1471
  2193   9   1705   1470   1482   1471
  2194   6   1382   1470   1483   1472
  2195   5   1482   1470   1483   1472
  2196   7   1705   1470   1483   1472
  2197  10   1382   1470   1705   1782
  2198  11   1482   1470   1705   1782
  2199  10   1483   1470   1705   1782
  2200   8   1383   1471   1482   1470
  2201   8   1484   1471   1482   1470
  2202   9   1706   1471   1482   1470
  2203   6   1383   1471   1484   1473
  2204   5   1482   1471   1484   1473
  2205   7   1706   1471   1484   1473
  2206  10   1383   1471   1706   1918
  2207  11   1482   1471   1706   1918
  2208  10   1484   1471   1706   1918
  2209   3   1483   1472   1476   1468
  2210   4   1485   1472   1476   1468
  2211   4   1903   1472   1476   1468
  2212   2   1476   1472   1483   1470
  2213   1   1485   1472   1483   1470
  2214   1   1903   1472   1483   1470
  2215   3   1484   1473   1477   1469
  2216   4   1486   1473   1477   1469
  2217   4   1904   1473   1477   1469
  2218   2   1477   1473   1484   1471
  2219   1   1486   1473   1484   1471
  2220   1   1904   1473   1484   1471
  2221   2   1499   1491   1497   1309
  2222   1   1501   1491   1497   1309
  2223   1   1503   1491   1497   1309
  2224   3   1497   1491   1499   1495
  2225   4   1501   1491   1499   1495
  2226   4   1503   1491   1499   1495
  2227   2   1500   1492   1498   1310
  2228   1   1502   1492   1498   1310
  2229   1   1504   1492   1498   1310
  2230   3   1498   1492   1500   1496
  2231   4   1502   1492   1500   1496
  2232   4   1504   1492   1500   1496
  2233   8   1405   1493   1505   1494
  2234   8   1506   1493   1505   1494
  2235   9   1721   1493   1505   1494
  2236   6   1405   1493   1506   1495
  2237   5   1505   1493   1506   1495
  2238   7   1721   1493   1506   1495
  2239  10   1405   1493   1721   1783
  2240  11   1505   1493   1721   1783
  2241  10   1506   1493   1721   1783
  2242   8   1406   1494   1505   1493
  2243   8   1507   1494   1505   1493
  2244   9   1722   1494   1505   1493
  2245   6   1406   1494   1507   1496
  2246   5   1505   1494   1507   1496
  2247   7   1722   1494   1507   1496
  2248  10   1406   1494   1722   1919
  2249  11   1505   1494   1722   1919
  2250  10   1507   1494   1722   1919
  2251   3   1506   1495   1499   1491
  2252   4   1508   1495   1499   1491
  2253   4   1905   1495   1499   1491
  2254   2   1499   1495   1506   1493
  2255   1   1508   1495   1506   1493
  2256   1   1905   1495   1506   1493
  2257   3   1507   1496   1500   1492
  2258   4   1509   1496   1500   1492
  2259   4   1906   1496   1500   1492
  2260   2   1500   1496   1507   1494
  2261   1   1509   1496   1507   1494
  2262   1   1906   1496   1507   1494
  2263   2   1522   1514   1520   1332
  2264   1   1524   1514   1520   1332
  2265   1   1526   1514   1520   1332
  2266   3   1520   1514   1522   1518
  2267   4   1524   1514   1522   1518
  2268   4   1526   1514   1522   1518
  2269   2   1523   1515   1521   1333
  2270   1   1525   1515   1521   1333
  2271   1   1527   1515   1521   1333
  2272   3   1521   1515   1523   1519
  2273   4   1525   1515   1523   1519
  2274   4   1527   1515   1523   1519
  2275   8   1428   1516   1528   1517
  2276   8   1529   1516   1528   1517
  2277   9   1737   1516   1528   1517
  2278   6   1428   1516   1529   1518
  2279   5   1528   1516   1529   1518
  2280   7   1737   1516   1529   1518
  2281  10   1428   1516   1737   1784
  2282  11   1528   1516   1737   1784
  2283  10   1529   1516   1737   1784
  2284   8   1429   1517   1528   1516
  2285   8   1530   1517   1528   1516
  2286   9   1738   1517   1528   1516
  2287   6   1429   1517   1530   1519
  2288   5   1528   1517   1530   1519
  2289   7   1738   1517   1530   1519
  2290  10   1429   1517   1738   1920
  2291  11   1528   1517   1738   1920
  2292  10   1530   1517   1738   1920
  2293   3   1529   1518   1522   1514
  2294   4   1531   1518   1522   1514
  2295   4   1907   1518   1522   1514
  2296   2   1522   1518   1529   1516
  2297   1   1531   1518   1529   1516
  2298   1   1907   1518   1529   1516
  2299   3   1530   1519   1523   1515
  2300   4   1532   1519   1523   1515
  2301   4   1908   1519   1523   1515
  2302   2   1523   1519   1530   1517
  2303   1   1532   1519   1530   1517
  2304   1   1908   1519   1530   1517

