LAMMPS data file. msi2lmp v3.9.11 / 6 Sep 2024 / CGCMM for 12BL_2_1_10

    440 atoms
    435 bonds
    812 angles

  13 atom types
  14 bond types
  28 angle types

   -28.434540066     0.080011562 xlo xhi
    13.248304507    50.659675099 ylo yhi
   -29.189160241    16.199347283 zlo zhi

Masses

   1  12.011150 # c3
   2   1.007970 # hc
   3  12.011150 # c2
   4  12.011150 # c
   5  12.011150 # c-
   6  15.999400 # o-
   7  12.011150 # c_1  0.000001
   8  15.999400 # o_1  0.000001
   9  12.011150 # ce1
  10   1.007970 # he1
  11  15.999400 # o_2  0.000001
  12  15.999400 # oe1
  13  40.080000 # ca++

Pair Coeffs # lj/cut/coul/long

   1   0.0389999952   3.8754094636 # c3
   2   0.0380000011   2.4499714540 # hc
   3   0.0389999952   3.8754094636 # c2
   4   0.1599999990   3.4745050026 # c
   5   0.1479999981   3.6170487995 # c-
   6   0.2280000124   2.8597848722 # o-
   7   0.1599999990   3.4745050026   # c_1   ← copied from type 4 (c)
   8   0.2280000124   2.8597848722   # o_1   ← copied from type 12 (oe1)
   9   0.0600019646   3.5635754253 # ce1
  10   0.0399959909   2.4500029525 # he1
  11   0.2280000124   2.8597848722   # o_2   ← copied from type 6 (o-)
  12   0.2280000124   2.8597848722 # oe1
  13   0.2900005905   2.9845102461 # ca++

Bond Coeffs # harmonic

   1   340.6175     1.1050 # c3-hc
   2   322.7158     1.5260 # c3-c2
   3   340.6175     1.1050 # hc-c2
   4   322.7158     1.5260 # c2-c
   5   283.0924     1.5200 # c-c-
   6   322.7158     1.5260 # c3-c
   7   540.0000     1.2500 # c--o-
   8   283.0924     1.5200   # c-c_1  ← copied from type 5
   9   540.0000     1.2500   # c_1-o_1 ← copied from type 7
  10   540.0000     1.2500   # c_1-o_2 ← copied from type 7
  11   322.7158     1.5260 # ce1-ce1
  12   340.6175     1.0900 # ce1-he1
  13   273.2000     1.4000 # ce1-oe1
  14   273.2000     1.4000   # ce1-o_2 ← copied from type 13

Angle Coeffs # harmonic

   1    39.5000   106.4000 # hc-c3-hc
   2    44.4000   110.0000 # hc-c3-c2
   3    44.4000   110.0000 # hc-c2-c
   4    39.5000   106.4000 # hc-c2-hc
   5    44.4000   110.0000 # c3-c2-hc
   6    46.6000   110.5000 # c3-c2-c
   7    46.6000   110.5000 # c2-c-c-
   8    46.6000   110.5000 # c3-c-c2
   9    46.6000   110.5000 # c2-c-c2
  10    46.6000   110.5000 # c3-c-c-
  11    68.0000   120.0000 # c-c--o-
  12   145.0000   123.0000 # o--c--o-
  13    44.4000   110.0000 # hc-c3-c
  14    46.6000   110.5000 # c-c2-c
  15    46.6000   110.5000 # c2-c-c_1
  16    46.6000   110.5000 # c3-c-c_1
  17    46.6000   110.5000 # c-c_1-o_1
  18    46.6000   110.5000 # c-c_1-o_2
  19    46.6000   110.5000 # o_1-c_1-o_2
  20    46.6000   110.5000 # c3-c-c3
  21    44.4000   110.0000 # ce1-ce1-he1
  22    70.0000   109.5000 # ce1-ce1-oe1
  23    39.5000   106.4000 # he1-ce1-he1
  24    57.0000   109.5000 # he1-ce1-oe1
  25    70.0000   109.5000 # ce1-ce1-o_2 ->copied from 22
  26    57.0000   109.5000 # he1-ce1-o_2 ->copied from 24
  27    44.4000   110.0000 # c_1-o_2-ce1
  28    60.0000   107.0000 # ce1-oe1-ce1

Atoms # full

      1     12   1 -0.159000    -5.045378777    23.071906590    -2.104207029   0   0   0 # c3
      2     12   2  0.053000    -5.557230652    23.419100869    -3.061320543   0   0   0 # hc
      3     12   2  0.053000    -5.710216889    23.302555697    -1.207303446   0   0   0 # hc
      4     12   2  0.053000    -4.856401060    21.949374453    -2.161719609   0   0   0 # hc
      5     13   3 -0.106000    -3.917421145    25.316614861    -1.843145895   0   0   0 # c2
      6     13   4 -0.053000    -3.708524228    26.138373111    -3.131276621   0   0   0 # c
      7     13   5  0.500000    -4.609118420    25.678570821    -4.292094621   0   0   0 # c-
      8     13   6 -0.625000    -6.019435550    25.217218534    -4.014313351   0   0   0 # o-
      9     13   1 -0.106000    -2.236832783    26.087206753    -3.586187481   0   0   0 # c3
     10     13   2  0.053000    -1.953308628    25.040194264    -3.926120849   0   0   0 # hc
     11     13   2  0.053000    -1.555634724    26.413765283    -2.733112123   0   0   0 # hc
     12     13   2  0.053000    -2.102663275    26.799077097    -4.466417164   0   0   0 # hc
     13     13   2  0.053000    -4.948397040    25.495695166    -1.391380611   0   0   0 # hc
     14     13   2  0.053000    -3.139806516    25.706045169    -1.109411160   0   0   0 # hc
     15     13   6 -0.625000    -4.046390806    25.584048919    -5.690194903   0   0   0 # o-
     16     14   3 -0.106000    -3.976637411    27.617921568    -2.805460386   0   0   0 # c2
     17     14   4 -0.053000    -3.504214463    27.960703701    -1.377187880   0   0   0 # c
     18     14   7  0.650000    -4.532121055    27.310703362    -0.432253038   0   0   0 # c_1
     19     14   1 -0.106000    -2.069648936    27.498782335    -1.063910723   0   0   0 # c3
     20     14   2  0.053000    -1.802025520    27.786650946     0.005978922   0   0   0 # hc
     21     14   2  0.053000    -1.349428580    28.004256700    -1.787568144   0   0   0 # hc
     22     14   2  0.053000    -1.983243811    26.369840681    -1.190352609   0   0   0 # hc
     23     14   2  0.053000    -3.468609565    28.256913565    -3.600315261   0   0   0 # hc
     24     14   2  0.053000    -5.098625996    27.818431553    -2.824281948   0   0   0 # hc
     25     14   8 -0.450000    -4.073977819    26.630809809     0.835376296   0   0   0 # o_1
     26     15   3 -0.106000    -3.658028599    29.476359167    -1.188779540   0   0   0 # c2
     27     15   4 -0.053000    -2.533119862    30.318371716    -1.819834358   0   0   0 # c
     28     15   5  0.500000    -2.303988596    29.914241911    -3.287432537   0   0   0 # c-
     29     15   6 -0.625000    -3.089188432    30.592680534    -4.384242696   0   0   0 # o-
     30     15   1 -0.106000    -1.220369411    30.147099516    -1.029653864   0   0   0 # c3
     31     15   2  0.053000    -0.864974975    29.066923456    -1.066030962   0   0   0 # hc
     32     15   2  0.053000    -1.377737887    30.451963769     0.056256441   0   0   0 # hc
     33     15   2  0.053000    -0.419988438    30.812477423    -1.494195682   0   0   0 # hc
     34     15   2  0.053000    -4.652613127    29.723059603    -1.677185629   0   0   0 # hc
     35     15   2  0.053000    -3.691431890    29.733826163    -0.078540082   0   0   0 # hc
     36     15   6 -0.625000    -1.224271875    28.919058641    -3.637838973   0   0   0 # o-
     37     16   3 -0.106000    -2.914462018    31.811102055    -1.802210426   0   0   0 # c2
     38     16   4 -0.053000    -3.487482124    32.340230524    -0.472940801   0   0   0 # c
     39     16   5  0.500000    -4.860699080    31.698050999    -0.184215885   0   0   0 # c-
     40     16   6 -0.625000    -5.704368664    31.140900142    -1.306944160   0   0   0 # o-
     41     16   1 -0.106000    -2.574064733    32.006638474     0.719395569   0   0   0 # c3
     42     16   2  0.053000    -3.031233006    32.426071322     1.675693607   0   0   0 # hc
     43     16   2  0.053000    -1.544592577    32.466894978     0.552623427   0   0   0 # hc
     44     16   2  0.053000    -2.478147509    30.874453748     0.810919922   0   0   0 # hc
     45     16   2  0.053000    -1.986346277    32.407785048    -2.088516682   0   0   0 # hc
     46     16   2  0.053000    -3.718725810    31.990115499    -2.590053706   0   0   0 # hc
     47     16   6 -0.625000    -5.313463993    31.520248589     1.244627885   0   0   0 # o-
     48     17   3 -0.106000    -3.636194914    33.877069853    -0.544349001   0   0   0 # c2
     49     17   4 -0.053000    -4.111879740    34.402477390    -1.916045431   0   0   0 # c
     50     17   7  0.650000    -5.332002039    33.582936600    -2.383677631   0   0   0 # c_1
     51     17   8 -0.450000    -6.495632585    33.359281609    -1.447946925   0   0   0 # o_1
     52     17   1 -0.106000    -2.988264503    34.251251260    -2.960798941   0   0   0 # c3
     53     17   2  0.053000    -2.726229807    33.158396045    -3.136369086   0   0   0 # hc
     54     17   2  0.053000    -2.062779608    34.813548417    -2.605009178   0   0   0 # hc
     55     17   2  0.053000    -3.344747204    34.699277816    -3.946691536   0   0   0 # hc
     56     17   2  0.053000    -4.346489522    34.200045918     0.286761067   0   0   0 # hc
     57     17   2  0.053000    -2.617266365    34.355927158    -0.365615857   0   0   0 # hc
     58     18   3 -0.106000    -4.362426339    35.926862632    -1.816911735   0   0   0 # c2
     59     18   4 -0.053000    -5.799620102    36.230455618    -1.356087463   0   0   0 # c
     60     18   5  0.500000    -6.575659013    35.737840025    -2.606818832   0   0   0 # c-
     61     18   6 -0.625000    -5.951422583    35.929128557    -3.967354726   0   0   0 # o-
     62     18   1 -0.106000    -6.093404762    35.541040622    -0.009736520   0   0   0 # c3
     63     18   2  0.053000    -7.194097736    35.677869914     0.253258745   0   0   0 # hc
     64     18   2  0.053000    -5.448209904    36.021441559     0.797975859   0   0   0 # hc
     65     18   2  0.053000    -5.840469067    34.432507898    -0.060625562   0   0   0 # hc
     66     18   2  0.053000    -3.576326071    36.394164616    -1.136512964   0   0   0 # hc
     67     18   2  0.053000    -4.269478958    36.382336563    -2.857627914   0   0   0 # hc
     68     18   6 -0.625000    -7.858213347    34.940554455    -2.495310477   0   0   0 # o-
     69     19   3 -0.106000    -6.017885100    37.753039643    -1.169328027   0   0   0 # c2
     70     19   4 -0.053000    -7.457855445    38.062822879    -0.700312991   0   0   0 # c
     71     19   5  0.500000    -7.696632336    37.676137833     0.769870524   0   0   0 # c-
     72     19   6 -0.625000    -6.598027884    37.877494226     1.785831324   0   0   0 # o-
     73     19   1 -0.106000    -8.318456614    37.117068230    -1.543774380   0   0   0 # c3
     74     19   2  0.053000    -8.078291588    36.082268003    -1.138530112   0   0   0 # hc
     75     19   2  0.053000    -8.024280798    37.206223827    -2.641610775   0   0   0 # hc
     76     19   2  0.053000    -9.437581317    37.271353796    -1.459424239   0   0   0 # hc
     77     19   2  0.053000    -5.278449558    38.192421251    -0.421217212   0   0   0 # hc
     78     19   2  0.053000    -5.851686223    38.233903820    -2.189587430   0   0   0 # hc
     79     19   6 -0.625000    -8.972084678    36.974425218     1.168679420   0   0   0 # o-
     80     20   3 -0.106000    -7.818582970    39.552818974    -0.885129685   0   0   0 # c2
     81     20   4 -0.053000    -9.182918852    39.642642918    -1.596873079   0   0   0 # c
     82     20   7  0.650000    -8.832049857    39.056064221    -2.979201909   0   0   0 # c_1
     83     20   8 -0.450000    -7.509177920    39.423193412    -3.608392159   0   0   0 # o_1
     84     20   1 -0.106000   -10.275699869    38.910371645    -0.793307490   0   0   0 # c3
     85     20   2  0.053000   -11.257590417    38.932236861    -1.371850585   0   0   0 # hc
     86     20   2  0.053000   -10.405894965    39.461969830     0.193480559   0   0   0 # hc
     87     20   2  0.053000   -10.004426263    37.838942893    -0.529441809   0   0   0 # hc
     88     20   2  0.053000    -7.795687957    40.085504883     0.122137754   0   0   0 # hc
     89     20   2  0.053000    -7.062585889    40.036763031    -1.587700646   0   0   0 # hc
     90     21   3 -0.106000    -9.631223642    41.107652112    -1.800028471   0   0   0 # c2
     91     21   4 -0.053000   -10.219900435    41.724512530    -0.510202624   0   0   0 # c
     92     21   5  0.500000    -9.234440732    41.494145450     0.650763816   0   0   0 # c-
     93     21   6 -0.625000    -8.047463498    42.411017454     0.819692295   0   0   0 # o-
     94     21   1 -0.106000   -11.605749326    41.133710935    -0.172308428   0   0   0 # c3
     95     21   2  0.053000   -11.589428140    40.009725115    -0.010774013   0   0   0 # hc
     96     21   2  0.053000   -12.330470422    41.374633937    -1.018268125   0   0   0 # hc
     97     21   2  0.053000   -11.975400656    41.612359181     0.792959168   0   0   0 # hc
     98     21   2  0.053000    -8.728056079    41.704150761    -2.159447898   0   0   0 # hc
     99     21   2  0.053000   -10.445002338    41.154556617    -2.597289986   0   0   0 # hc
    100     21   6 -0.625000    -9.512628581    40.426699006     1.681819202   0   0   0 # o-
    101     22   3 -0.106000   -10.412307560    43.246431967    -0.686179841   0   0   0 # c2
    102     22   4 -0.053000   -11.249609443    43.814408037     0.482276956   0   0   0 # c
    103     22   5  0.500000   -12.718710022    43.382302861     0.314244599   0   0   0 # c-
    104     22   6 -0.625000   -13.318903796    43.275963940    -1.067329917   0   0   0 # o-
    105     22   1 -0.106000   -10.754704102    43.273770133     1.836193314   0   0   0 # c3
    106     22   2  0.053000   -11.389303347    43.714571627     2.674172998   0   0   0 # hc
    107     22   2  0.053000    -9.660863795    43.538580512     1.999226090   0   0   0 # hc
    108     22   2  0.053000   -10.864857576    42.139244724     1.839999077   0   0   0 # hc
    109     22   2  0.053000    -9.378450034    43.723921567    -0.720103069   0   0   0 # hc
    110     22   2  0.053000   -10.965164102    43.473967970    -1.656800570   0   0   0 # hc
    111     22   6 -0.625000   -13.519101964    42.949105121     1.518953306   0   0   0 # o-
    112     23   3 -0.106000   -11.302190317    45.353708656     0.500607727   0   0   0 # c2
    113     23   4 -0.053000    -9.962981076    46.096856447     0.685528736   0   0   0 # c
    114     23   7  0.650000    -9.037060068    45.830431673    -0.512468070   0   0   0 # c_1
    115     23   1 -0.106000    -9.214265342    45.652532269     1.954751268   0   0   0 # c3
    116     23   2  0.053000    -8.889876488    44.567967525     1.836763431   0   0   0 # hc
    117     23   2  0.053000    -9.889834136    45.748691092     2.865230334   0   0   0 # hc
    118     23   2  0.053000    -8.284843562    46.298625172     2.088518292   0   0   0 # hc
    119     23   2  0.053000   -11.776965755    45.713427664    -0.471274388   0   0   0 # hc
    120     23   2  0.053000   -11.983444809    45.631283707     1.368437683   0   0   0 # hc
    121     23   8 -0.450000    -7.805091182    44.975170303    -0.335081408   0   0   0 # o_1
    122     24   3 -0.106000   -10.248276633    47.614152710     0.708474741   0   0   0 # c2
    123     24   4 -0.053000   -11.145752662    48.121659287     1.859406114   0   0   0 # c
    124     24   5  0.500000   -12.526659429    47.441586586     1.841095280   0   0   0 # c-
    125     24   6 -0.625000   -13.471013345    47.678866010     0.687586156   0   0   0 # o-
    126     24   1 -0.106000   -10.497130782    47.910314181     3.240075807   0   0   0 # c3
    127     24   2  0.053000   -11.168708381    48.367135799     4.039968999   0   0   0 # hc
    128     24   2  0.053000    -9.478020750    48.420303373     3.264381975   0   0   0 # hc
    129     24   2  0.053000   -10.376917228    46.799372872     3.453031274   0   0   0 # hc
    130     24   2  0.053000    -9.252127511    48.165139342     0.768978361   0   0   0 # hc
    131     24   2  0.053000   -10.755417178    47.882754522    -0.276648388   0   0   0 # hc
    132     24   6 -0.625000   -12.944150450    46.554926880     2.989561838   0   0   0 # o-
    133     26   1 -0.159000   -11.348828900    49.633966785     1.657427683   0   0   0 # c3
    134     26   2  0.053000   -12.010846346    50.041948316     2.490928558   0   0   0 # hc
    135     26   2  0.053000   -10.337650103    50.159675099     1.682076780   0   0   0 # hc
    136     26   2  0.053000   -11.849388168    49.817159695     0.649728294   0   0   0 # hc
    137     91   9  0.094000    -6.813191140    27.301053528     1.494923263   0   0   0 # ce1
    138     91  10  0.053000    -5.745930264    27.361518938     1.890204012   0   0   0 # he1
    139     91  10  0.053000    -7.211419057    28.355218004     1.321459558   0   0   0 # he1
    140     91   9  0.094000    -6.826785759    26.517799895     0.169770946   0   0   0 # ce1
    141     91  10  0.053000    -6.414272937    25.468223799     0.336935738   0   0   0 # he1
    142     91  10  0.053000    -7.898721210    26.448651662    -0.212342920   0   0   0 # he1
    143     91  11 -0.400000    -5.982271693    27.239381627    -0.852717942   0   0   0 # o_2
    144     92   9  0.094000    -8.018592291    28.830205444     3.552224717   0   0   0 # ce1
    145     92  10  0.053000    -7.340022939    29.284987778     2.756823842   0   0   0 # he1
    146     92  10  0.053000    -9.099993043    28.864329930     3.192650047   0   0   0 # he1
    147     92   9  0.094000    -7.600008113    27.370210279     3.804350658   0   0   0 # ce1
    148     92  10  0.053000    -6.523788055    27.348543700     4.179470678   0   0   0 # he1
    149     92  10  0.053000    -8.285546105    26.898643723     4.583546346   0   0   0 # he1
    150     92  12 -0.400000    -7.687638345    26.602817776     2.508279434   0   0   0 # oe1
    151     93   9  0.094000    -9.780792278    31.037807827     4.116829260   0   0   0 # ce1
    152     93  10  0.053000    -9.878958292    30.421185353     3.162932056   0   0   0 # he1
    153     93  10  0.053000   -10.429776822    30.576778545     4.932893720   0   0   0 # he1
    154     93   9  0.094000    -8.312112845    31.041492472     4.577560653   0   0   0 # ce1
    155     93  10  0.053000    -7.656151028    31.498637298     3.764961883   0   0   0 # he1
    156     93  10  0.053000    -8.213595039    31.649981557     5.536456068   0   0   0 # he1
    157     93  12 -0.400000    -7.884249810    29.617077693     4.833335812   0   0   0 # oe1
    158     94   9  0.094000   -12.455965399    31.709109726     4.640456725   0   0   0 # ce1
    159     94  10  0.053000   -12.030540996    30.662753246     4.794599500   0   0   0 # he1
    160     94  10  0.053000   -12.319819888    32.315070773     5.596677725   0   0   0 # he1
    161     94   9  0.094000   -11.703964470    32.396603419     3.486788791   0   0   0 # ce1
    162     94  10  0.053000   -11.834846219    31.789405836     2.530716016   0   0   0 # he1
    163     94  10  0.053000   -12.106746541    33.451660765     3.331134019   0   0   0 # he1
    164     94  12 -0.400000   -10.242069819    32.450974066     3.856285056   0   0   0 # oe1
    165     95   9  0.094000   -14.313266898    31.782449371     6.751611262   0   0   0 # ce1
    166     95  10  0.053000   -13.185956145    31.848051890     6.908668801   0   0   0 # he1
    167     95  10  0.053000   -14.736116355    32.832244932     6.613368994   0   0   0 # he1
    168     95   9  0.094000   -14.604010106    30.943880259     5.494231179   0   0   0 # ce1
    169     95  10  0.053000   -14.182549110    29.893786100     5.632151032   0   0   0 # he1
    170     95  10  0.053000   -15.728369409    30.886156743     5.315048722   0   0   0 # he1
    171     95  12 -0.400000   -13.927217603    31.608002191     4.320407973   0   0   0 # oe1
    172     96   9  0.094000   -15.239897868    33.429487504     8.836647429   0   0   0 # ce1
    173     96  10  0.053000   -14.743225035    33.834663570     7.893795434   0   0   0 # he1
    174     96  10  0.053000   -16.364421079    33.352197450     8.665617078   0   0   0 # he1
    175     96   9  0.094000   -14.673912416    32.032683266     9.148540847   0   0   0 # ce1
    176     96  10  0.053000   -13.548856103    32.105980843     9.317246958   0   0   0 # he1
    177     96  10  0.053000   -15.175414575    31.607569903    10.079820542   0   0   0 # he1
    178     96  12 -0.400000   -14.950703567    31.143462972     7.961340993   0   0   0 # oe1
    179     97   9  0.094000   -17.089140046    35.477364669     9.362054799   0   0   0 # ce1
    180     97  10  0.053000   -17.210425862    34.726150524     8.512941413   0   0   0 # he1
    181     97  10  0.053000   -17.584981174    35.065513647    10.302484735   0   0   0 # he1
    182     97   9  0.094000   -15.590259214    35.702596758     9.631155469   0   0   0 # ce1
    183     97  10  0.053000   -15.092914752    36.114160262     8.691573128   0   0   0 # he1
    184     97  10  0.053000   -15.454508509    36.437786289    10.491772023   0   0   0 # he1
    185     97  12 -0.400000   -14.975552310    34.371245907     9.985760987   0   0   0 # oe1
    186     98   9  0.094000   -19.778900083    35.903110660    10.077550114   0   0   0 # ce1
    187     98  10  0.053000   -19.208888314    34.948386468    10.329525063   0   0   0 # he1
    188     98  10  0.053000   -19.645992903    36.655233331    10.924023998   0   0   0 # he1
    189     98   9  0.094000   -19.220548779    36.498619459     8.772574204   0   0   0 # ce1
    190     98  10  0.053000   -19.351417712    35.747598776     7.924981407   0   0   0 # he1
    191     98  10  0.053000   -19.769842101    37.464811828     8.518656187   0   0   0 # he1
    192     98  12 -0.400000   -17.751991996    36.777690839     8.977971391   0   0   0 # oe1
    193     99   9  0.094000   -21.467706908    36.118046162    12.319077626   0   0   0 # ce1
    194     99  10  0.053000   -20.349914868    36.339302396    12.355515409   0   0   0 # he1
    195     99  10  0.053000   -22.032038265    37.072812674    12.055038061   0   0   0 # he1
    196     99   9  0.094000   -21.739530189    35.050380374    11.244266837   0   0   0 # ce1
    197     99  10  0.053000   -21.175546537    34.094679198    11.505323900   0   0   0 # he1
    198     99  10  0.053000   -22.856906797    34.833021395    11.184554691   0   0   0 # he1
    199     99  12 -0.400000   -21.245726792    35.583355003     9.921644802   0   0   0 # oe1
    200    100   9  0.094000   -22.433703938    37.984258981    14.193290999   0   0   0 # ce1
    201    100  10  0.053000   -22.070152697    38.275547460    13.152659776   0   0   0 # he1
    202    100  10  0.053000   -23.549504396    37.754061848    14.151573229   0   0   0 # he1
    203    100   9  0.094000   -21.671519991    36.733596901    14.666683006   0   0   0 # ce1
    204    100  10  0.053000   -20.555242593    36.960964579    14.708848837   0   0   0 # he1
    205    100  10  0.053000   -22.039191688    36.420804530    15.699347283   0   0   0 # he1
    206    100  12 -0.400000   -21.924603314    35.627971526    13.671534463   0   0   0 # oe1
    207    101  10  0.053000   -24.583474403    38.985468434    13.887631407   0   0   0 # he1
    208    101   9  0.041000   -23.004837868    40.307568710    14.654471328   0   0   0 # ce1
    209    101  10  0.053000   -22.649525356    40.606855060    13.613426972   0   0   0 # he1
    210    101  10  0.053000   -22.886002559    41.187838584    15.368912661   0   0   0 # he1
    211    101  12 -0.400000   -22.197135877    39.131307526    15.145185684   0   0   0 # oe1
    212    107   9  0.094000    -7.460438939    33.482267714    -4.884128037   0   0   0 # ce1
    213    107  10  0.053000    -6.866496077    33.746927821    -5.817952909   0   0   0 # he1
    214    107  10  0.053000    -7.600391050    34.428929500    -4.270912716   0   0   0 # he1
    215    107   9  0.094000    -6.694761937    32.407888382    -4.086340078   0   0   0 # ce1
    216    107  10  0.053000    -7.269372232    32.130666001    -3.141487171   0   0   0 # he1
    217    107  10  0.053000    -6.603745755    31.481272821    -4.741573037   0   0   0 # he1
    218    107  11 -0.400000    -5.304551731    32.871106674    -3.713998014   0   0   0 # o_2
    219    108   9  0.094000    -8.651213212    34.578697278    -7.111600264   0   0   0 # ce1
    220    108  10  0.053000    -7.818120199    35.101770648    -6.541536845   0   0   0 # he1
    221    108  10  0.053000    -8.212076081    33.761689422    -7.774644401   0   0   0 # he1
    222    108   9  0.094000    -9.590650468    33.954554917    -6.066904463   0   0   0 # ce1
    223    108  10  0.053000    -9.960025180    34.773056752    -5.364341040   0   0   0 # he1
    224    108  10  0.053000   -10.478839767    33.453936958    -6.576762702   0   0   0 # he1
    225    108  12 -0.400000    -8.803233045    32.922830184    -5.294050327   0   0   0 # oe1
    226    109   9  0.094000    -7.749641078    35.104035476    -9.835953221   0   0   0 # ce1
    227    109  10  0.053000    -7.147399232    34.379606868    -9.193291851   0   0   0 # he1
    228    109  10  0.053000    -8.568786743    34.532244837   -10.379627575   0   0   0 # he1
    229    109   9  0.094000    -8.394969222    36.196994559    -8.966047091   0   0   0 # ce1
    230    109  10  0.053000    -7.564014315    36.759405532    -8.431368606   0   0   0 # he1
    231    109  10  0.053000    -8.964032420    36.923979233    -9.635021781   0   0   0 # he1
    232    109  12 -0.400000    -9.362834623    35.592172430    -7.973865306   0   0   0 # oe1
    233    110   9  0.094000    -8.150857154    34.569843476   -12.554194744   0   0   0 # ce1
    234    110  10  0.053000    -8.756832530    34.085779805   -11.720750842   0   0   0 # he1
    235    110  10  0.053000    -8.637844659    35.560185336   -12.840853545   0   0   0 # he1
    236    110   9  0.094000    -6.723689845    34.832682069   -12.039201192   0   0   0 # ce1
    237    110  10  0.053000    -6.240112474    33.853579126   -11.712056732   0   0   0 # he1
    238    110  10  0.053000    -6.095944184    35.323223964   -12.854660633   0   0   0 # he1
    239    110  12 -0.400000    -6.862100553    35.766721777   -10.862076499   0   0   0 # oe1
    240    111   9  0.094000   -10.273733733    34.792789069   -14.364881460   0   0   0 # ce1
    241    111  10  0.053000   -10.202453757    35.423063097   -13.417121492   0   0   0 # he1
    242    111  10  0.053000    -9.745665915    35.330375057   -15.220480617   0   0   0 # he1
    243    111   9  0.094000    -9.605238998    33.426833508   -14.124307471   0   0   0 # ce1
    244    111  10  0.053000   -10.139372284    32.896241712   -13.267922784   0   0   0 # he1
    245    111  10  0.053000    -9.670673823    32.790738098   -15.068492573   0   0   0 # he1
    246    111  12 -0.400000    -8.159423335    33.655152374   -13.753418796   0   0   0 # oe1
    247    112   9  0.094000   -11.592749516    36.560208277   -16.195948933   0   0   0 # ce1
    248    112  10  0.053000   -10.500548852    36.700345569   -15.900900972   0   0   0 # he1
    249    112  10  0.053000   -11.651624576    35.875854359   -17.105981488   0   0   0 # he1
    250    112   9  0.094000   -12.357958549    35.916766520   -15.025838058   0   0   0 # ce1
    251    112  10  0.053000   -12.293976369    36.589457625   -14.107642299   0   0   0 # he1
    252    112  10  0.053000   -13.449957658    35.764623340   -15.315505630   0   0   0 # he1
    253    112  12 -0.400000   -11.723351290    34.581265820   -14.724569311   0   0   0 # oe1
    254    113   9  0.094000   -11.493236463    37.426938436   -18.865933112   0   0   0 # ce1
    255    113  10  0.053000   -11.058717433    36.436174777   -18.506556100   0   0   0 # he1
    256    113  10  0.053000   -12.579581853    37.271756640   -19.175518709   0   0   0 # he1
    257    113   9  0.094000   -11.424514084    38.452612286   -17.720056272   0   0   0 # ce1
    258    113  10  0.053000   -10.336758003    38.610242572   -17.418016275   0   0   0 # he1
    259    113  10  0.053000   -11.877222254    39.443856054   -18.054720282   0   0   0 # he1
    260    113  12 -0.400000   -12.195364294    37.899357502   -16.546593550   0   0   0 # oe1
    261    114   9  0.094000   -12.283674344    36.701187400   -21.511161280   0   0   0 # ce1
    262    114  10  0.053000   -12.870704215    36.384619814   -20.586535849   0   0   0 # he1
    263    114  10  0.053000   -12.695267928    37.691202457   -21.898804892   0   0   0 # he1
    264    114   9  0.094000   -10.799834644    36.876226230   -21.140816873   0   0   0 # ce1
    265    114  10  0.053000   -10.382323537    35.885907115   -20.760563221   0   0   0 # he1
    266    114  10  0.053000   -10.211233976    37.213713157   -22.056923363   0   0   0 # he1
    267    114  12 -0.400000   -10.697947358    37.916030470   -20.052065196   0   0   0 # oe1
    268    115   9  0.094000   -14.302187067    36.969906045   -23.477596671   0   0   0 # ce1
    269    115  10  0.053000   -14.135011258    37.736844610   -22.650802901   0   0   0 # he1
    270    115  10  0.053000   -13.668950496    37.249458502   -24.383552553   0   0   0 # he1
    271    115   9  0.094000   -13.882368461    35.578004669   -22.972866146   0   0   0 # ce1
    272    115  10  0.053000   -14.510284922    35.293893007   -22.064828566   0   0   0 # he1
    273    115  10  0.053000   -14.027677027    34.805184452   -23.798178333   0   0   0 # he1
    274    115  12 -0.400000   -12.426538299    35.647085373   -22.581834718   0   0   0 # oe1
    275    116   9  0.094000   -15.146636045    38.625767405   -25.592499535   0   0   0 # ce1
    276    116  10  0.053000   -14.064562312    38.566006768   -25.238352607   0   0   0 # he1
    277    116  10  0.053000   -15.319357182    37.847975711   -26.407998464   0   0   0 # he1
    278    116   9  0.094000   -16.086228219    38.340718590   -24.407126388   0   0   0 # ce1
    279    116  10  0.053000   -15.916755735    39.118341462   -23.591052350   0   0   0 # he1
    280    116  10  0.053000   -17.171836144    38.376902558   -24.752867287   0   0   0 # he1
    281    116  12 -0.400000   -15.759067406    36.968404906   -23.872053447   0   0   0 # oe1
    282    117  10  0.053000   -15.881035568    39.148594583   -28.689160241   0   0   0 # he1
    283    117   9  0.041000   -14.503100693    40.201402318   -27.338092147   0   0   0 # ce1
    284    117  10  0.053000   -13.416161255    40.137903885   -27.000461660   0   0   0 # he1
    285    117  10  0.053000   -14.698970412    41.219071565   -27.812915790   0   0   0 # he1
    286    117  12 -0.400000   -15.414105114    40.001907482   -26.151832574   0   0   0 # oe1
    287    123   9  0.094000    -7.870478755    37.240404996    -5.215145643   0   0   0 # ce1
    288    123  10  0.053000    -7.115783785    37.785307060    -4.559369153   0   0   0 # he1
    289    123  10  0.053000    -7.919408579    36.144358894    -4.902669894   0   0   0 # he1
    290    123   9  0.094000    -9.260587553    37.902874588    -5.090754053   0   0   0 # ce1
    291    123  10  0.053000    -9.204387916    38.950090544    -5.536892941   0   0   0 # he1
    292    123  10  0.053000   -10.014137667    37.289030914    -5.686791227   0   0   0 # he1
    293    123  11 -0.400000    -9.727717015    38.044507477    -3.657659533   0   0   0 # o_2
    294    124   9  0.094000    -5.956861184    35.345235818    -6.827355515   0   0   0 # ce1
    295    124  10  0.053000    -6.213418397    35.060099025    -5.754863640   0   0   0 # he1
    296    124  10  0.053000    -6.714772271    34.864786279    -7.529384645   0   0   0 # he1
    297    124   9  0.094000    -6.034588985    36.876261585    -6.963229357   0   0   0 # ce1
    298    124  10  0.053000    -5.286198528    37.365915281    -6.256370254   0   0   0 # he1
    299    124  10  0.053000    -5.778077043    37.155331405    -8.038357277   0   0   0 # he1
    300    124  12 -0.400000    -7.429877178    37.378363209    -6.654201893   0   0   0 # oe1
    301    125   9  0.094000    -5.815056272    32.598608581    -7.243005753   0   0   0 # ce1
    302    125  10  0.053000    -6.772688397    33.177927962    -7.026933834   0   0   0 # he1
    303    125  10  0.053000    -5.709981999    32.451426564    -8.368537776   0   0   0 # he1
    304    125   9  0.094000    -4.608524373    33.369078678    -6.672277447   0   0   0 # ce1
    305    125  10  0.053000    -4.715125279    33.407288829    -5.538948593   0   0   0 # he1
    306    125  10  0.053000    -3.636884613    32.836856544    -6.940657639   0   0   0 # he1
    307    125  12 -0.400000    -4.596008861    34.792970414    -7.170712427   0   0   0 # oe1
    308    126   9  0.094000    -7.117231533    30.069475381    -8.299697455   0   0   0 # ce1
    309    126  10  0.053000    -7.058439646    30.969196972    -8.997397449   0   0   0 # he1
    310    126  10  0.053000    -6.192022480    29.419492968    -8.442197039   0   0   0 # he1
    311    126   9  0.094000    -7.152867432    30.533506717    -6.834564182   0   0   0 # ce1
    312    126  10  0.053000    -8.052860553    31.209052018    -6.650244150   0   0   0 # he1
    313    126  10  0.053000    -7.221080173    29.616017563    -6.161491831   0   0   0 # he1
    314    126  12 -0.400000    -5.875452451    31.274029723    -6.522028507   0   0   0 # oe1
    315    127   9  0.094000    -6.765438587    27.876813459    -9.879150422   0   0   0 # ce1
    316    127  10  0.053000    -5.950545609    28.619023794    -9.589231164   0   0   0 # he1
    317    127  10  0.053000    -6.833543200    27.066245663    -9.080194007   0   0   0 # he1
    318    127   9  0.094000    -8.107695858    28.625146331    -9.970177399   0   0   0 # ce1
    319    127  10  0.053000    -8.035957662    29.443336407   -10.760731436   0   0   0 # he1
    320    127  10  0.053000    -8.951492966    27.904527860   -10.231653314   0   0   0 # he1
    321    127  12 -0.400000    -8.342177681    29.244973180    -8.615294938   0   0   0 # oe1
    322    128   9  0.094000    -5.139831380    25.597931829    -9.849123214   0   0   0 # ce1
    323    128  10  0.053000    -5.517385596    26.111794830    -8.903914982   0   0   0 # he1
    324    128  10  0.053000    -5.875287455    24.782299540   -10.154652388   0   0   0 # he1
    325    128   9  0.094000    -5.030706171    26.625176703   -10.990179718   0   0   0 # ce1
    326    128  10  0.053000    -4.284341795    27.436754197   -10.700560987   0   0   0 # he1
    327    128  10  0.053000    -4.685185360    26.109605410   -11.946249007   0   0   0 # he1
    328    128  12 -0.400000    -6.389582114    27.247388698   -11.196603089   0   0   0 # oe1
    329    129   9  0.094000    -5.006625537    22.888985435    -9.244059355   0   0   0 # ce1
    330    129  10  0.053000    -5.983215663    23.447432559    -9.428937633   0   0   0 # he1
    331    129  10  0.053000    -4.591420281    22.524398505   -10.241174721   0   0   0 # he1
    332    129   9  0.094000    -3.991921657    23.849036950    -8.599073286   0   0   0 # ce1
    333    129  10  0.053000    -4.406497024    24.249875165    -7.615495766   0   0   0 # he1
    334    129  10  0.053000    -3.003888918    23.311471140    -8.413740751   0   0   0 # he1
    335    129  12 -0.400000    -3.790089883    24.978829980    -9.578251178   0   0   0 # oe1
    336    130   9  0.094000    -5.688694432    20.553955355   -10.506326561   0   0   0 # ce1
    337    130  10  0.053000    -5.490454429    21.543718336   -11.036279397   0   0   0 # he1
    338    130  10  0.053000    -4.708762940    19.980656408   -10.402406151   0   0   0 # he1
    339    130   9  0.094000    -6.269514517    20.837586173    -9.109305389   0   0   0 # ce1
    340    130  10  0.053000    -7.251007478    21.406926259    -9.218932349   0   0   0 # he1
    341    130  10  0.053000    -6.451023731    19.861520349    -8.549048050   0   0   0 # he1
    342    130  12 -0.400000    -5.275555127    21.693642444    -8.363605866   0   0   0 # oe1
    343    131   9  0.094000    -4.688014288    18.768348197   -12.438909617   0   0   0 # ce1
    344    131  10  0.053000    -4.017236924    19.413704657   -11.780497800   0   0   0 # he1
    345    131  10  0.053000    -4.886201644    17.775256481   -11.915168485   0   0   0 # he1
    346    131   9  0.094000    -6.024058988    19.494740760   -12.673029351   0   0   0 # ce1
    347    131  10  0.053000    -5.831302475    20.490398333   -13.193820537   0   0   0 # he1
    348    131  10  0.053000    -6.710432494    18.850936215   -13.316393942   0   0   0 # he1
    349    131  12 -0.400000    -6.660316641    19.741869930   -11.327232251   0   0   0 # oe1
    350    132   9  0.094000    -3.132618052    16.458834731   -12.693969402   0   0   0 # ce1
    351    132  10  0.053000    -3.685328693    16.746604851   -11.739265699   0   0   0 # he1
    352    132  10  0.053000    -3.819022213    15.827715969   -13.350008896   0   0   0 # he1
    353    132   9  0.094000    -2.733303731    17.737411561   -13.452538402   0   0   0 # ce1
    354    132  10  0.053000    -2.048229666    18.370525636   -12.797286623   0   0   0 # he1
    355    132  10  0.053000    -2.197443677    17.467073533   -14.421716217   0   0   0 # he1
    356    132  12 -0.400000    -3.995946269    18.505778755   -13.754288509   0   0   0 # oe1
    357    133  10  0.053000    -4.209391088    14.326859046   -12.831202076   0   0   0 # he1
    358    133   9  0.041000    -2.373166613    14.407439339   -11.626014506   0   0   0 # ce1
    359    133  10  0.053000    -2.925758074    14.696189037   -10.671553263   0   0   0 # he1
    360    133  10  0.053000    -1.479624702    13.748304507   -11.367967449   0   0   0 # he1
    361    133  12 -0.400000    -1.907107109    15.654164984   -12.336501333   0   0   0 # oe1
    362    139   9  0.094000    -8.469283427    44.531745793    -3.051289785   0   0   0 # ce1
    363    139  10  0.053000    -8.324299071    43.985334307    -2.061231872   0   0   0 # he1
    364    139  10  0.053000    -9.520589580    44.325679776    -3.441228422   0   0   0 # he1
    365    139   9  0.094000    -8.283651008    46.044947570    -2.841523438   0   0   0 # ce1
    366    139  10  0.053000    -7.230810893    46.252144295    -2.456818844   0   0   0 # he1
    367    139  10  0.053000    -8.443448318    46.588813075    -3.830509154   0   0   0 # he1
    368    139  11 -0.400000    -9.292670686    46.525453965    -1.827770772   0   0   0 # o_2
    369    140   9  0.094000    -9.137084794    42.314885011    -4.640586011   0   0   0 # ce1
    370    140  10  0.053000    -9.843962430    42.790756571    -3.883126435   0   0   0 # he1
    371    140  10  0.053000    -9.311833519    42.769847422    -5.671127154   0   0   0 # he1
    372    140   9  0.094000    -7.683719028    42.547240235    -4.190813411   0   0   0 # ce1
    373    140  10  0.053000    -7.524816728    42.049371741    -3.177309209   0   0   0 # he1
    374    140  10  0.053000    -6.961539281    42.103658012    -4.953302761   0   0   0 # he1
    375    140  12 -0.400000    -7.457263428    44.030904470    -4.051872500   0   0   0 # oe1
    376    141   9  0.094000   -11.002457780    40.730439301    -6.548114482   0   0   0 # ce1
    377    141  10  0.053000   -10.822220740    41.828728505    -6.794960416   0   0   0 # he1
    378    141  10  0.053000   -10.272351820    40.082213097    -7.136959097   0   0   0 # he1
    379    141   9  0.094000   -10.791775630    40.481156966    -5.045382537   0   0   0 # ce1
    380    141  10  0.053000   -11.517903481    41.106943692    -4.428625111   0   0   0 # he1
    381    141  10  0.053000   -10.969556570    39.375136438    -4.834701952   0   0   0 # he1
    382    141  12 -0.400000    -9.373180445    40.827480475    -4.671466332   0   0   0 # oe1
    383    142   9  0.094000   -11.558511573    39.347634627    -9.003650745   0   0   0 # ce1
    384    142  10  0.053000   -10.497977580    39.617961291    -8.683885303   0   0   0 # he1
    385    142  10  0.053000   -11.816092679    38.307195702    -8.614903635   0   0   0 # he1
    386    142   9  0.094000   -12.544358911    40.374560047    -8.416899024   0   0   0 # ce1
    387    142  10  0.053000   -12.290789991    41.416985127    -8.802370602   0   0   0 # he1
    388    142  10  0.053000   -13.609063124    40.101232857    -8.718869921   0   0   0 # he1
    389    142  12 -0.400000   -12.414670972    40.343485808    -6.914027720   0   0   0 # oe1
    390    143   9  0.094000   -11.106030401    36.928737386   -10.522227875   0   0   0 # ce1
    391    143  10  0.053000   -11.093219966    36.936522177    -9.382099189   0   0   0 # he1
    392    143  10  0.053000   -12.154073043    36.673662198   -10.891233663   0   0   0 # he1
    393    143   9  0.094000   -10.691015642    38.314940581   -11.047101765   0   0   0 # ce1
    394    143  10  0.053000    -9.634896355    38.554226146   -10.690711409   0   0   0 # he1
    395    143  10  0.053000   -10.718833699    38.316013575   -12.186855818   0   0   0 # he1
    396    143  12 -0.400000   -11.646188427    39.353303036   -10.510614468   0   0   0 # oe1
    397    144   9  0.094000   -11.837992648    34.120596280   -11.243524454   0   0   0 # ce1
    398    144  10  0.053000   -12.674814574    34.848053758   -10.978530979   0   0   0 # he1
    399    144  10  0.053000   -11.660618730    34.137969447   -12.369928693   0   0   0 # he1
    400    144   9  0.094000   -10.536799821    34.531018047   -10.537499478   0   0   0 # ce1
    401    144  10  0.053000   -10.683635122    34.545166665    -9.407023946   0   0   0 # he1
    402    144  10  0.053000    -9.724398630    33.777402839   -10.803203495   0   0   0 # he1
    403    144  12 -0.400000   -10.124252214    35.898743333   -11.023748908   0   0   0 # oe1
    404    145   9  0.094000   -13.019287014    32.606726234   -13.124689413   0   0   0 # ce1
    405    145  10  0.053000   -12.784797727    33.717441711   -13.223902687   0   0   0 # he1
    406    145  10  0.053000   -12.096856269    32.001420291   -13.412125278   0   0   0 # he1
    407    145   9  0.094000   -13.398348210    32.315394396   -11.662517635   0   0   0 # ce1
    408    145  10  0.053000   -14.304744008    32.943714315   -11.374515960   0   0   0 # he1
    409    145  10  0.053000   -13.629890726    31.208572554   -11.517132769   0   0   0 # he1
    410    145  12 -0.400000   -12.210530983    32.718535263   -10.826310286   0   0   0 # oe1
    411    146   9  0.094000   -12.396830048    31.908670831   -15.755459984   0   0   0 # ce1
    412    146  10  0.053000   -11.601603155    32.204315104   -14.993054364   0   0   0 # he1
    413    146  10  0.053000   -12.577126915    30.784417816   -15.699187752   0   0   0 # he1
    414    146   9  0.094000   -13.713081588    32.644691753   -15.447110715   0   0   0 # ce1
    415    146  10  0.053000   -13.540152140    33.770505361   -15.497869976   0   0   0 # he1
    416    146  10  0.053000   -14.512672572    32.345437996   -16.202572604   0   0   0 # he1
    417    146  12 -0.400000   -14.154219183    32.262800629   -14.055938046   0   0   0 # oe1
    418    147   9  0.094000   -11.191346723    29.929837030   -17.309166893   0   0   0 # ce1
    419    147  10  0.053000   -11.512576272    29.760379458   -16.228476507   0   0   0 # he1
    420    147  10  0.053000   -12.075690899    29.724859390   -17.999115853   0   0   0 # he1
    421    147   9  0.094000   -10.742342853    31.392847863   -17.477047447   0   0   0 # ce1
    422    147  10  0.053000    -9.880997885    31.614819668   -16.763741417   0   0   0 # he1
    423    147  10  0.053000   -10.413095906    31.580917676   -18.552176948   0   0   0 # he1
    424    147  12 -0.400000   -11.926513860    32.266557702   -17.143977411   0   0   0 # oe1
    425    148   9  0.094000   -11.904761168    27.414413150   -18.205937799   0   0   0 # ce1
    426    148  10  0.053000   -12.650634033    28.200444323   -17.851332562   0   0   0 # he1
    427    148  10  0.053000   -11.710416628    27.555098497   -19.320474598   0   0   0 # he1
    428    148   9  0.094000   -10.589209522    27.580299893   -17.423889936   0   0   0 # ce1
    429    148  10  0.053000   -10.795116055    27.435213896   -16.312110318   0   0   0 # he1
    430    148  10  0.053000    -9.821415231    26.814093805   -17.774678075   0   0   0 # he1
    431    148  12 -0.400000   -10.071742801    28.978885531   -17.656269274   0   0   0 # oe1
    432    149  10  0.053000   -13.047353051    27.243672145   -20.326896723   0   0   0 # he1
    433    149   9  0.041000   -13.783107048    25.938959966   -18.718419651   0   0   0 # ce1
    434    149  10  0.053000   -14.513119025    26.719625250   -18.322088801   0   0   0 # he1
    435    149  10  0.053000   -14.227736126    24.897441496   -18.587562892   0   0   0 # he1
    436    149  12 -0.400000   -12.479823826    26.039844068   -17.964594151   0   0   0 # oe1
    437    159  13  1.500000   -22.336982439    24.883577998     7.041769773   0   0   0 # ca++
    438    160  13  1.500000   -20.743716408    19.439121209    -3.784456962   0   0   0 # ca++
    439    161  13  1.500000   -26.593549099    28.370923911     1.768882644   0   0   0 # ca++
    440    162  13  1.500000   -27.934540066    26.228089866    -4.667169039   0   0   0 # ca++

Bonds

     1   1      1      4
     2   1      1      2
     3   1      1      3
     4   2      1      5
     5   3     13      5
     6   4      5      6
     7   3     14      5
     8   5      6      7
     9   6      9      6
    10   4     16      6
    11   7      7      8
    12   7      7     15
    13   1      9     12
    14   1      9     10
    15   1      9     11
    16   3     23     16
    17   4     16     17
    18   3     24     16
    19   8     17     18
    20   6     19     17
    21   4     26     17
    22   9     18     25
    23  10     18    143
    24   1     19     22
    25   1     19     20
    26   1     19     21
    27   3     34     26
    28   4     26     27
    29   3     35     26
    30   5     27     28
    31   6     30     27
    32   4     37     27
    33   7     28     29
    34   7     28     36
    35   1     30     33
    36   1     30     31
    37   1     30     32
    38   3     45     37
    39   4     37     38
    40   3     46     37
    41   5     38     39
    42   6     41     38
    43   4     48     38
    44   7     39     40
    45   7     39     47
    46   1     41     44
    47   1     41     42
    48   1     41     43
    49   3     56     48
    50   4     48     49
    51   3     57     48
    52   8     49     50
    53   6     52     49
    54   4     58     49
    55   9     50     51
    56  10     50    218
    57   1     52     55
    58   1     52     53
    59   1     52     54
    60   3     66     58
    61   4     58     59
    62   3     67     58
    63   5     59     60
    64   6     62     59
    65   4     69     59
    66   7     60     61
    67   7     60     68
    68   1     62     65
    69   1     62     63
    70   1     62     64
    71   3     77     69
    72   4     69     70
    73   3     78     69
    74   5     70     71
    75   6     73     70
    76   4     80     70
    77   7     71     72
    78   7     71     79
    79   1     73     76
    80   1     73     74
    81   1     73     75
    82   3     88     80
    83   4     80     81
    84   3     89     80
    85   8     81     82
    86   6     84     81
    87   4     90     81
    88   9     82     83
    89  10     82    293
    90   1     84     87
    91   1     84     85
    92   1     84     86
    93   3     98     90
    94   4     90     91
    95   3     99     90
    96   5     91     92
    97   6     94     91
    98   4    101     91
    99   7     92     93
   100   7     92    100
   101   1     94     97
   102   1     94     95
   103   1     94     96
   104   3    109    101
   105   4    101    102
   106   3    110    101
   107   5    102    103
   108   6    105    102
   109   4    112    102
   110   7    103    104
   111   7    103    111
   112   1    105    108
   113   1    105    106
   114   1    105    107
   115   3    119    112
   116   4    112    113
   117   3    120    112
   118   8    113    114
   119   6    115    113
   120   4    122    113
   121   9    114    121
   122  10    114    368
   123   1    115    118
   124   1    115    116
   125   1    115    117
   126   3    130    122
   127   4    122    123
   128   3    131    122
   129   5    123    124
   130   6    126    123
   131   6    133    123
   132   7    124    125
   133   7    124    132
   134   1    126    129
   135   1    126    127
   136   1    126    128
   137   1    133    134
   138   1    133    135
   139   1    133    136
   140  11    137    140
   141  12    137    138
   142  12    137    139
   143  13    137    150
   144  12    140    141
   145  12    140    142
   146  14    140    143
   147  11    144    147
   148  12    144    145
   149  12    144    146
   150  13    144    157
   151  12    147    148
   152  12    147    149
   153  13    147    150
   154  11    151    154
   155  12    151    152
   156  12    151    153
   157  13    151    164
   158  12    154    155
   159  12    154    156
   160  13    154    157
   161  11    158    161
   162  12    158    159
   163  12    158    160
   164  13    158    171
   165  12    161    162
   166  12    161    163
   167  13    161    164
   168  11    165    168
   169  12    165    166
   170  12    165    167
   171  13    165    178
   172  12    168    169
   173  12    168    170
   174  13    168    171
   175  11    172    175
   176  12    172    173
   177  12    172    174
   178  13    172    185
   179  12    175    176
   180  12    175    177
   181  13    175    178
   182  11    179    182
   183  12    179    180
   184  12    179    181
   185  13    179    192
   186  12    182    183
   187  12    182    184
   188  13    182    185
   189  11    186    189
   190  12    186    187
   191  12    186    188
   192  13    186    199
   193  12    189    190
   194  12    189    191
   195  13    189    192
   196  11    193    196
   197  12    193    194
   198  12    193    195
   199  13    193    206
   200  12    196    197
   201  12    196    198
   202  13    196    199
   203  11    200    203
   204  12    200    201
   205  12    200    202
   206  13    200    211
   207  12    203    204
   208  12    203    205
   209  13    203    206
   210  12    208    207
   211  12    208    209
   212  12    208    210
   213  13    208    211
   214  11    212    215
   215  12    212    213
   216  12    212    214
   217  13    212    225
   218  12    215    216
   219  12    215    217
   220  14    215    218
   221  11    219    222
   222  12    219    220
   223  12    219    221
   224  13    219    232
   225  12    222    223
   226  12    222    224
   227  13    222    225
   228  11    226    229
   229  12    226    227
   230  12    226    228
   231  13    226    239
   232  12    229    230
   233  12    229    231
   234  13    229    232
   235  11    233    236
   236  12    233    234
   237  12    233    235
   238  13    233    246
   239  12    236    237
   240  12    236    238
   241  13    236    239
   242  11    240    243
   243  12    240    241
   244  12    240    242
   245  13    240    253
   246  12    243    244
   247  12    243    245
   248  13    243    246
   249  11    247    250
   250  12    247    248
   251  12    247    249
   252  13    247    260
   253  12    250    251
   254  12    250    252
   255  13    250    253
   256  11    254    257
   257  12    254    255
   258  12    254    256
   259  13    254    267
   260  12    257    258
   261  12    257    259
   262  13    257    260
   263  11    261    264
   264  12    261    262
   265  12    261    263
   266  13    261    274
   267  12    264    265
   268  12    264    266
   269  13    264    267
   270  11    268    271
   271  12    268    269
   272  12    268    270
   273  13    268    281
   274  12    271    272
   275  12    271    273
   276  13    271    274
   277  11    275    278
   278  12    275    276
   279  12    275    277
   280  13    275    286
   281  12    278    279
   282  12    278    280
   283  13    278    281
   284  12    283    282
   285  12    283    284
   286  12    283    285
   287  13    283    286
   288  11    287    290
   289  12    287    288
   290  12    287    289
   291  13    287    300
   292  12    290    291
   293  12    290    292
   294  14    290    293
   295  11    294    297
   296  12    294    295
   297  12    294    296
   298  13    294    307
   299  12    297    298
   300  12    297    299
   301  13    297    300
   302  11    301    304
   303  12    301    302
   304  12    301    303
   305  13    301    314
   306  12    304    305
   307  12    304    306
   308  13    304    307
   309  11    308    311
   310  12    308    309
   311  12    308    310
   312  13    308    321
   313  12    311    312
   314  12    311    313
   315  13    311    314
   316  11    315    318
   317  12    315    316
   318  12    315    317
   319  13    315    328
   320  12    318    319
   321  12    318    320
   322  13    318    321
   323  11    322    325
   324  12    322    323
   325  12    322    324
   326  13    322    335
   327  12    325    326
   328  12    325    327
   329  13    325    328
   330  11    329    332
   331  12    329    330
   332  12    329    331
   333  13    329    342
   334  12    332    333
   335  12    332    334
   336  13    332    335
   337  11    336    339
   338  12    336    337
   339  12    336    338
   340  13    336    349
   341  12    339    340
   342  12    339    341
   343  13    339    342
   344  11    343    346
   345  12    343    344
   346  12    343    345
   347  13    343    356
   348  12    346    347
   349  12    346    348
   350  13    346    349
   351  11    350    353
   352  12    350    351
   353  12    350    352
   354  13    350    361
   355  12    353    354
   356  12    353    355
   357  13    353    356
   358  12    358    357
   359  12    358    359
   360  12    358    360
   361  13    358    361
   362  11    362    365
   363  12    362    363
   364  12    362    364
   365  13    362    375
   366  12    365    366
   367  12    365    367
   368  14    365    368
   369  11    369    372
   370  12    369    370
   371  12    369    371
   372  13    369    382
   373  12    372    373
   374  12    372    374
   375  13    372    375
   376  11    376    379
   377  12    376    377
   378  12    376    378
   379  13    376    389
   380  12    379    380
   381  12    379    381
   382  13    379    382
   383  11    383    386
   384  12    383    384
   385  12    383    385
   386  13    383    396
   387  12    386    387
   388  12    386    388
   389  13    386    389
   390  11    390    393
   391  12    390    391
   392  12    390    392
   393  13    390    403
   394  12    393    394
   395  12    393    395
   396  13    393    396
   397  11    397    400
   398  12    397    398
   399  12    397    399
   400  13    397    410
   401  12    400    401
   402  12    400    402
   403  13    400    403
   404  11    404    407
   405  12    404    405
   406  12    404    406
   407  13    404    417
   408  12    407    408
   409  12    407    409
   410  13    407    410
   411  11    411    414
   412  12    411    412
   413  12    411    413
   414  13    411    424
   415  12    414    415
   416  12    414    416
   417  13    414    417
   418  11    418    421
   419  12    418    419
   420  12    418    420
   421  13    418    431
   422  12    421    422
   423  12    421    423
   424  13    421    424
   425  11    425    428
   426  12    425    426
   427  12    425    427
   428  13    425    436
   429  12    428    429
   430  12    428    430
   431  13    428    431
   432  12    433    432
   433  12    433    434
   434  12    433    435
   435  13    433    436

Angles

     1   1      4      1      2
     2   1      4      1      3
     3   2      4      1      5
     4   1      2      1      3
     5   2      2      1      5
     6   2      3      1      5
     7   3     13      5      6
     8   4     13      5     14
     9   5      1      5     13
    10   3     14      5      6
    11   6      1      5      6
    12   5      1      5     14
    13   7      5      6      7
    14   8      9      6      5
    15   9      5      6     16
    16  10      9      6      7
    17   7     16      6      7
    18   8      9      6     16
    19  11      6      7      8
    20  11      6      7     15
    21  12      8      7     15
    22  13     12      9      6
    23  13     10      9      6
    24  13     11      9      6
    25   1     12      9     10
    26   1     12      9     11
    27   1     10      9     11
    28   3     23     16      6
    29  14      6     16     17
    30   3     24     16      6
    31   3     23     16     17
    32   4     23     16     24
    33   3     24     16     17
    34  15     16     17     18
    35   8     19     17     16
    36   9     16     17     26
    37  16     19     17     18
    38  15     26     17     18
    39   8     19     17     26
    40  17     17     18     25
    41  18     17     18    143
    42  19     25     18    143
    43  13     22     19     17
    44  13     20     19     17
    45  13     21     19     17
    46   1     22     19     20
    47   1     22     19     21
    48   1     20     19     21
    49   3     34     26     17
    50  14     17     26     27
    51   3     35     26     17
    52   3     34     26     27
    53   4     34     26     35
    54   3     35     26     27
    55   7     26     27     28
    56   8     30     27     26
    57   9     26     27     37
    58  10     30     27     28
    59   7     37     27     28
    60   8     30     27     37
    61  11     27     28     29
    62  11     27     28     36
    63  12     29     28     36
    64  13     33     30     27
    65  13     31     30     27
    66  13     32     30     27
    67   1     33     30     31
    68   1     33     30     32
    69   1     31     30     32
    70   3     45     37     27
    71  14     27     37     38
    72   3     46     37     27
    73   3     45     37     38
    74   4     45     37     46
    75   3     46     37     38
    76   7     37     38     39
    77   8     41     38     37
    78   9     37     38     48
    79  10     41     38     39
    80   7     48     38     39
    81   8     41     38     48
    82  11     38     39     40
    83  11     38     39     47
    84  12     40     39     47
    85  13     44     41     38
    86  13     42     41     38
    87  13     43     41     38
    88   1     44     41     42
    89   1     44     41     43
    90   1     42     41     43
    91   3     56     48     38
    92  14     38     48     49
    93   3     57     48     38
    94   3     56     48     49
    95   4     56     48     57
    96   3     57     48     49
    97  15     48     49     50
    98   8     52     49     48
    99   9     48     49     58
   100  16     52     49     50
   101  15     58     49     50
   102   8     52     49     58
   103  17     49     50     51
   104  18     49     50    218
   105  19     51     50    218
   106  13     55     52     49
   107  13     53     52     49
   108  13     54     52     49
   109   1     55     52     53
   110   1     55     52     54
   111   1     53     52     54
   112   3     66     58     49
   113  14     49     58     59
   114   3     67     58     49
   115   3     66     58     59
   116   4     66     58     67
   117   3     67     58     59
   118   7     58     59     60
   119   8     62     59     58
   120   9     58     59     69
   121  10     62     59     60
   122   7     69     59     60
   123   8     62     59     69
   124  11     59     60     61
   125  11     59     60     68
   126  12     61     60     68
   127  13     65     62     59
   128  13     63     62     59
   129  13     64     62     59
   130   1     65     62     63
   131   1     65     62     64
   132   1     63     62     64
   133   3     77     69     59
   134  14     59     69     70
   135   3     78     69     59
   136   3     77     69     70
   137   4     77     69     78
   138   3     78     69     70
   139   7     69     70     71
   140   8     73     70     69
   141   9     69     70     80
   142  10     73     70     71
   143   7     80     70     71
   144   8     73     70     80
   145  11     70     71     72
   146  11     70     71     79
   147  12     72     71     79
   148  13     76     73     70
   149  13     74     73     70
   150  13     75     73     70
   151   1     76     73     74
   152   1     76     73     75
   153   1     74     73     75
   154   3     88     80     70
   155  14     70     80     81
   156   3     89     80     70
   157   3     88     80     81
   158   4     88     80     89
   159   3     89     80     81
   160  15     80     81     82
   161   8     84     81     80
   162   9     80     81     90
   163  16     84     81     82
   164  15     90     81     82
   165   8     84     81     90
   166  17     81     82     83
   167  18     81     82    293
   168  19     83     82    293
   169  13     87     84     81
   170  13     85     84     81
   171  13     86     84     81
   172   1     87     84     85
   173   1     87     84     86
   174   1     85     84     86
   175   3     98     90     81
   176  14     81     90     91
   177   3     99     90     81
   178   3     98     90     91
   179   4     98     90     99
   180   3     99     90     91
   181   7     90     91     92
   182   8     94     91     90
   183   9     90     91    101
   184  10     94     91     92
   185   7    101     91     92
   186   8     94     91    101
   187  11     91     92     93
   188  11     91     92    100
   189  12     93     92    100
   190  13     97     94     91
   191  13     95     94     91
   192  13     96     94     91
   193   1     97     94     95
   194   1     97     94     96
   195   1     95     94     96
   196   3    109    101     91
   197  14     91    101    102
   198   3    110    101     91
   199   3    109    101    102
   200   4    109    101    110
   201   3    110    101    102
   202   7    101    102    103
   203   8    105    102    101
   204   9    101    102    112
   205  10    105    102    103
   206   7    112    102    103
   207   8    105    102    112
   208  11    102    103    104
   209  11    102    103    111
   210  12    104    103    111
   211  13    108    105    102
   212  13    106    105    102
   213  13    107    105    102
   214   1    108    105    106
   215   1    108    105    107
   216   1    106    105    107
   217   3    119    112    102
   218  14    102    112    113
   219   3    120    112    102
   220   3    119    112    113
   221   4    119    112    120
   222   3    120    112    113
   223  15    112    113    114
   224   8    115    113    112
   225   9    112    113    122
   226  16    115    113    114
   227  15    122    113    114
   228   8    115    113    122
   229  17    113    114    121
   230  18    113    114    368
   231  19    121    114    368
   232  13    118    115    113
   233  13    116    115    113
   234  13    117    115    113
   235   1    118    115    116
   236   1    118    115    117
   237   1    116    115    117
   238   3    130    122    113
   239  14    113    122    123
   240   3    131    122    113
   241   3    130    122    123
   242   4    130    122    131
   243   3    131    122    123
   244   7    122    123    124
   245   8    126    123    122
   246   8    133    123    122
   247  10    126    123    124
   248  10    133    123    124
   249  20    126    123    133
   250  11    123    124    125
   251  11    123    124    132
   252  12    125    124    132
   253  13    129    126    123
   254  13    127    126    123
   255  13    128    126    123
   256   1    129    126    127
   257   1    129    126    128
   258   1    127    126    128
   259  13    134    133    123
   260  13    135    133    123
   261  13    136    133    123
   262   1    134    133    135
   263   1    134    133    136
   264   1    135    133    136
   265  21    140    137    138
   266  21    140    137    139
   267  22    140    137    150
   268  23    138    137    139
   269  24    138    137    150
   270  24    139    137    150
   271  21    137    140    141
   272  21    137    140    142
   273  25    137    140    143
   274  23    141    140    142
   275  26    141    140    143
   276  26    142    140    143
   277  27     18    143    140
   278  21    147    144    145
   279  21    147    144    146
   280  22    147    144    157
   281  23    145    144    146
   282  24    145    144    157
   283  24    146    144    157
   284  21    144    147    148
   285  21    144    147    149
   286  22    144    147    150
   287  23    148    147    149
   288  24    148    147    150
   289  24    149    147    150
   290  28    137    150    147
   291  21    154    151    152
   292  21    154    151    153
   293  22    154    151    164
   294  23    152    151    153
   295  24    152    151    164
   296  24    153    151    164
   297  21    151    154    155
   298  21    151    154    156
   299  22    151    154    157
   300  23    155    154    156
   301  24    155    154    157
   302  24    156    154    157
   303  28    144    157    154
   304  21    161    158    159
   305  21    161    158    160
   306  22    161    158    171
   307  23    159    158    160
   308  24    159    158    171
   309  24    160    158    171
   310  21    158    161    162
   311  21    158    161    163
   312  22    158    161    164
   313  23    162    161    163
   314  24    162    161    164
   315  24    163    161    164
   316  28    151    164    161
   317  21    168    165    166
   318  21    168    165    167
   319  22    168    165    178
   320  23    166    165    167
   321  24    166    165    178
   322  24    167    165    178
   323  21    165    168    169
   324  21    165    168    170
   325  22    165    168    171
   326  23    169    168    170
   327  24    169    168    171
   328  24    170    168    171
   329  28    158    171    168
   330  21    175    172    173
   331  21    175    172    174
   332  22    175    172    185
   333  23    173    172    174
   334  24    173    172    185
   335  24    174    172    185
   336  21    172    175    176
   337  21    172    175    177
   338  22    172    175    178
   339  23    176    175    177
   340  24    176    175    178
   341  24    177    175    178
   342  28    165    178    175
   343  21    182    179    180
   344  21    182    179    181
   345  22    182    179    192
   346  23    180    179    181
   347  24    180    179    192
   348  24    181    179    192
   349  21    179    182    183
   350  21    179    182    184
   351  22    179    182    185
   352  23    183    182    184
   353  24    183    182    185
   354  24    184    182    185
   355  28    172    185    182
   356  21    189    186    187
   357  21    189    186    188
   358  22    189    186    199
   359  23    187    186    188
   360  24    187    186    199
   361  24    188    186    199
   362  21    186    189    190
   363  21    186    189    191
   364  22    186    189    192
   365  23    190    189    191
   366  24    190    189    192
   367  24    191    189    192
   368  28    179    192    189
   369  21    196    193    194
   370  21    196    193    195
   371  22    196    193    206
   372  23    194    193    195
   373  24    194    193    206
   374  24    195    193    206
   375  21    193    196    197
   376  21    193    196    198
   377  22    193    196    199
   378  23    197    196    198
   379  24    197    196    199
   380  24    198    196    199
   381  28    186    199    196
   382  21    203    200    201
   383  21    203    200    202
   384  22    203    200    211
   385  23    201    200    202
   386  24    201    200    211
   387  24    202    200    211
   388  21    200    203    204
   389  21    200    203    205
   390  22    200    203    206
   391  23    204    203    205
   392  24    204    203    206
   393  24    205    203    206
   394  28    193    206    203
   395  23    209    208    210
   396  24    209    208    211
   397  23    209    208    207
   398  24    210    208    211
   399  23    210    208    207
   400  24    207    208    211
   401  28    200    211    208
   402  21    215    212    213
   403  21    215    212    214
   404  22    215    212    225
   405  23    213    212    214
   406  24    213    212    225
   407  24    214    212    225
   408  21    212    215    216
   409  21    212    215    217
   410  25    212    215    218
   411  23    216    215    217
   412  26    216    215    218
   413  26    217    215    218
   414  27     50    218    215
   415  21    222    219    220
   416  21    222    219    221
   417  22    222    219    232
   418  23    220    219    221
   419  24    220    219    232
   420  24    221    219    232
   421  21    219    222    223
   422  21    219    222    224
   423  22    219    222    225
   424  23    223    222    224
   425  24    223    222    225
   426  24    224    222    225
   427  28    212    225    222
   428  21    229    226    227
   429  21    229    226    228
   430  22    229    226    239
   431  23    227    226    228
   432  24    227    226    239
   433  24    228    226    239
   434  21    226    229    230
   435  21    226    229    231
   436  22    226    229    232
   437  23    230    229    231
   438  24    230    229    232
   439  24    231    229    232
   440  28    219    232    229
   441  21    236    233    234
   442  21    236    233    235
   443  22    236    233    246
   444  23    234    233    235
   445  24    234    233    246
   446  24    235    233    246
   447  21    233    236    237
   448  21    233    236    238
   449  22    233    236    239
   450  23    237    236    238
   451  24    237    236    239
   452  24    238    236    239
   453  28    226    239    236
   454  21    243    240    241
   455  21    243    240    242
   456  22    243    240    253
   457  23    241    240    242
   458  24    241    240    253
   459  24    242    240    253
   460  21    240    243    244
   461  21    240    243    245
   462  22    240    243    246
   463  23    244    243    245
   464  24    244    243    246
   465  24    245    243    246
   466  28    233    246    243
   467  21    250    247    248
   468  21    250    247    249
   469  22    250    247    260
   470  23    248    247    249
   471  24    248    247    260
   472  24    249    247    260
   473  21    247    250    251
   474  21    247    250    252
   475  22    247    250    253
   476  23    251    250    252
   477  24    251    250    253
   478  24    252    250    253
   479  28    240    253    250
   480  21    257    254    255
   481  21    257    254    256
   482  22    257    254    267
   483  23    255    254    256
   484  24    255    254    267
   485  24    256    254    267
   486  21    254    257    258
   487  21    254    257    259
   488  22    254    257    260
   489  23    258    257    259
   490  24    258    257    260
   491  24    259    257    260
   492  28    247    260    257
   493  21    264    261    262
   494  21    264    261    263
   495  22    264    261    274
   496  23    262    261    263
   497  24    262    261    274
   498  24    263    261    274
   499  21    261    264    265
   500  21    261    264    266
   501  22    261    264    267
   502  23    265    264    266
   503  24    265    264    267
   504  24    266    264    267
   505  28    254    267    264
   506  21    271    268    269
   507  21    271    268    270
   508  22    271    268    281
   509  23    269    268    270
   510  24    269    268    281
   511  24    270    268    281
   512  21    268    271    272
   513  21    268    271    273
   514  22    268    271    274
   515  23    272    271    273
   516  24    272    271    274
   517  24    273    271    274
   518  28    261    274    271
   519  21    278    275    276
   520  21    278    275    277
   521  22    278    275    286
   522  23    276    275    277
   523  24    276    275    286
   524  24    277    275    286
   525  21    275    278    279
   526  21    275    278    280
   527  22    275    278    281
   528  23    279    278    280
   529  24    279    278    281
   530  24    280    278    281
   531  28    268    281    278
   532  23    284    283    285
   533  24    284    283    286
   534  23    284    283    282
   535  24    285    283    286
   536  23    285    283    282
   537  24    282    283    286
   538  28    275    286    283
   539  21    290    287    288
   540  21    290    287    289
   541  22    290    287    300
   542  23    288    287    289
   543  24    288    287    300
   544  24    289    287    300
   545  21    287    290    291
   546  21    287    290    292
   547  25    287    290    293
   548  23    291    290    292
   549  26    291    290    293
   550  26    292    290    293
   551  27     82    293    290
   552  21    297    294    295
   553  21    297    294    296
   554  22    297    294    307
   555  23    295    294    296
   556  24    295    294    307
   557  24    296    294    307
   558  21    294    297    298
   559  21    294    297    299
   560  22    294    297    300
   561  23    298    297    299
   562  24    298    297    300
   563  24    299    297    300
   564  28    287    300    297
   565  21    304    301    302
   566  21    304    301    303
   567  22    304    301    314
   568  23    302    301    303
   569  24    302    301    314
   570  24    303    301    314
   571  21    301    304    305
   572  21    301    304    306
   573  22    301    304    307
   574  23    305    304    306
   575  24    305    304    307
   576  24    306    304    307
   577  28    294    307    304
   578  21    311    308    309
   579  21    311    308    310
   580  22    311    308    321
   581  23    309    308    310
   582  24    309    308    321
   583  24    310    308    321
   584  21    308    311    312
   585  21    308    311    313
   586  22    308    311    314
   587  23    312    311    313
   588  24    312    311    314
   589  24    313    311    314
   590  28    301    314    311
   591  21    318    315    316
   592  21    318    315    317
   593  22    318    315    328
   594  23    316    315    317
   595  24    316    315    328
   596  24    317    315    328
   597  21    315    318    319
   598  21    315    318    320
   599  22    315    318    321
   600  23    319    318    320
   601  24    319    318    321
   602  24    320    318    321
   603  28    308    321    318
   604  21    325    322    323
   605  21    325    322    324
   606  22    325    322    335
   607  23    323    322    324
   608  24    323    322    335
   609  24    324    322    335
   610  21    322    325    326
   611  21    322    325    327
   612  22    322    325    328
   613  23    326    325    327
   614  24    326    325    328
   615  24    327    325    328
   616  28    315    328    325
   617  21    332    329    330
   618  21    332    329    331
   619  22    332    329    342
   620  23    330    329    331
   621  24    330    329    342
   622  24    331    329    342
   623  21    329    332    333
   624  21    329    332    334
   625  22    329    332    335
   626  23    333    332    334
   627  24    333    332    335
   628  24    334    332    335
   629  28    322    335    332
   630  21    339    336    337
   631  21    339    336    338
   632  22    339    336    349
   633  23    337    336    338
   634  24    337    336    349
   635  24    338    336    349
   636  21    336    339    340
   637  21    336    339    341
   638  22    336    339    342
   639  23    340    339    341
   640  24    340    339    342
   641  24    341    339    342
   642  28    329    342    339
   643  21    346    343    344
   644  21    346    343    345
   645  22    346    343    356
   646  23    344    343    345
   647  24    344    343    356
   648  24    345    343    356
   649  21    343    346    347
   650  21    343    346    348
   651  22    343    346    349
   652  23    347    346    348
   653  24    347    346    349
   654  24    348    346    349
   655  28    336    349    346
   656  21    353    350    351
   657  21    353    350    352
   658  22    353    350    361
   659  23    351    350    352
   660  24    351    350    361
   661  24    352    350    361
   662  21    350    353    354
   663  21    350    353    355
   664  22    350    353    356
   665  23    354    353    355
   666  24    354    353    356
   667  24    355    353    356
   668  28    343    356    353
   669  23    359    358    360
   670  24    359    358    361
   671  23    359    358    357
   672  24    360    358    361
   673  23    360    358    357
   674  24    357    358    361
   675  28    350    361    358
   676  21    365    362    363
   677  21    365    362    364
   678  22    365    362    375
   679  23    363    362    364
   680  24    363    362    375
   681  24    364    362    375
   682  21    362    365    366
   683  21    362    365    367
   684  25    362    365    368
   685  23    366    365    367
   686  26    366    365    368
   687  26    367    365    368
   688  27    114    368    365
   689  21    372    369    370
   690  21    372    369    371
   691  22    372    369    382
   692  23    370    369    371
   693  24    370    369    382
   694  24    371    369    382
   695  21    369    372    373
   696  21    369    372    374
   697  22    369    372    375
   698  23    373    372    374
   699  24    373    372    375
   700  24    374    372    375
   701  28    362    375    372
   702  21    379    376    377
   703  21    379    376    378
   704  22    379    376    389
   705  23    377    376    378
   706  24    377    376    389
   707  24    378    376    389
   708  21    376    379    380
   709  21    376    379    381
   710  22    376    379    382
   711  23    380    379    381
   712  24    380    379    382
   713  24    381    379    382
   714  28    369    382    379
   715  21    386    383    384
   716  21    386    383    385
   717  22    386    383    396
   718  23    384    383    385
   719  24    384    383    396
   720  24    385    383    396
   721  21    383    386    387
   722  21    383    386    388
   723  22    383    386    389
   724  23    387    386    388
   725  24    387    386    389
   726  24    388    386    389
   727  28    376    389    386
   728  21    393    390    391
   729  21    393    390    392
   730  22    393    390    403
   731  23    391    390    392
   732  24    391    390    403
   733  24    392    390    403
   734  21    390    393    394
   735  21    390    393    395
   736  22    390    393    396
   737  23    394    393    395
   738  24    394    393    396
   739  24    395    393    396
   740  28    383    396    393
   741  21    400    397    398
   742  21    400    397    399
   743  22    400    397    410
   744  23    398    397    399
   745  24    398    397    410
   746  24    399    397    410
   747  21    397    400    401
   748  21    397    400    402
   749  22    397    400    403
   750  23    401    400    402
   751  24    401    400    403
   752  24    402    400    403
   753  28    390    403    400
   754  21    407    404    405
   755  21    407    404    406
   756  22    407    404    417
   757  23    405    404    406
   758  24    405    404    417
   759  24    406    404    417
   760  21    404    407    408
   761  21    404    407    409
   762  22    404    407    410
   763  23    408    407    409
   764  24    408    407    410
   765  24    409    407    410
   766  28    397    410    407
   767  21    414    411    412
   768  21    414    411    413
   769  22    414    411    424
   770  23    412    411    413
   771  24    412    411    424
   772  24    413    411    424
   773  21    411    414    415
   774  21    411    414    416
   775  22    411    414    417
   776  23    415    414    416
   777  24    415    414    417
   778  24    416    414    417
   779  28    404    417    414
   780  21    421    418    419
   781  21    421    418    420
   782  22    421    418    431
   783  23    419    418    420
   784  24    419    418    431
   785  24    420    418    431
   786  21    418    421    422
   787  21    418    421    423
   788  22    418    421    424
   789  23    422    421    423
   790  24    422    421    424
   791  24    423    421    424
   792  28    411    424    421
   793  21    428    425    426
   794  21    428    425    427
   795  22    428    425    436
   796  23    426    425    427
   797  24    426    425    436
   798  24    427    425    436
   799  21    425    428    429
   800  21    425    428    430
   801  22    425    428    431
   802  23    429    428    430
   803  24    429    428    431
   804  24    430    428    431
   805  28    418    431    428
   806  23    434    433    435
   807  24    434    433    436
   808  23    434    433    432
   809  24    435    433    436
   810  23    435    433    432
   811  24    432    433    436
   812  28    425    436    433
