LAMMPS data file via write_data, version 2 Aug 2023, timestep = 17000, units = real

440 atoms
13 atom types
435 bonds
14 bond types
812 angles
28 angle types

-28.434540066 0.080011562 xlo xhi
13.248304507 50.659675099 ylo yhi
-29.189160241 16.199347283 zlo zhi

Masses

1 12.01115
2 1.00797
3 12.01115
4 12.01115
5 12.01115
6 15.9994
7 12.01115
8 15.9994
9 12.01115
10 1.00797
11 15.9994
12 15.9994
13 40.08

Pair Coeffs # lj/cut/coul/long

1 0.039 3.87541
2 0.038 2.44997
3 0.039 3.87541
4 0.16 3.47451
5 0.148 3.61705
6 0.228 2.85978
7 0.16 3.47451
8 0.228 2.85978
9 0.060002 3.56358
10 0.039996 2.45
11 0.228 2.85978
12 0.228 2.85978
13 0.290001 2.98451

Bond Coeffs # harmonic

1 340.618 1.105
2 322.716 1.526
3 340.618 1.105
4 322.716 1.526
5 283.092 1.52
6 322.716 1.526
7 540 1.25
8 507.413 1.5202
9 1702.28 1.202
10 734.296 1.3683
11 322.716 1.526
12 340.618 1.09
13 273.2 1.4
14 800.791 1.405

Angle Coeffs # harmonic

1 39.5 106.4
2 44.4 110
3 44.4 110
4 39.5 106.4
5 44.4 110
6 46.6 110.5
7 46.6 110.5
8 46.6 110.5
9 46.6 110.5
10 46.6 110.5
11 68 120
12 145 123
13 44.4 110
14 46.6 110.5
15 46.6 110.5
16 46.6 110.5
17 46.6 110.5
18 46.6 110.5
19 46.6 110.5
20 46.6 110.5
21 44.4 110
22 70 109.5
23 39.5 106.4
24 57 109.5
25 70 109.5
26 57 109.5
27 44.4 110
28 60 107

Atoms # full

435 149 10 0.053 -15.268336382968496 28.719755035567108 -26.344115663667505 0 0 0
413 146 10 0.053 -14.838789952278283 30.63207320870097 -19.38785617774054 0 0 0
281 116 12 -0.4 -14.743165873760297 33.630293251412475 -24.75411456700672 0 0 0
285 117 10 0.053 -17.450861901486892 30.008192004565334 -26.685585823356533 0 0 0
277 116 10 0.053 -17.055247762247554 32.8070522950548 -26.018246757886967 0 0 0
416 146 10 0.053 -14.3170237631796 31.909878661261804 -21.49251360581653 0 0 0
286 117 12 -0.4 -16.136594486259803 31.491194655550512 -27.345146460116013 0 0 0
276 116 10 0.053 -16.10545622784981 31.53809865727456 -25.27411526663219 0 0 0
278 116 9 0.094 -14.93252666162906 33.162525665875926 -26.083013448905245 0 0 0
280 116 10 0.053 -15.101036842395603 34.002275273950296 -26.75984008785449 0 0 0
283 117 9 0.041 -17.30175024010266 30.703457926473746 -27.514259291655705 0 0 0
284 117 10 0.053 -18.196180169549077 31.322041472528465 -27.60953382429217 0 0 0
275 116 9 0.094 -16.13962607352039 32.22103786328345 -26.12583910347086 0 0 0
432 149 10 0.053 -15.69613015682835 28.49694185619782 -24.639084214372424 0 0 0
282 117 10 0.053 -17.223098234715106 30.10788028579407 -28.4241105953145 0 0 0
433 149 9 0.041 -14.981213219245067 28.2204739447843 -25.416654343319422 0 0 0
434 149 10 0.053 -15.083973539149005 27.14778844021113 -25.582198476693787 0 0 0
272 115 10 0.053 -14.334007377601916 35.7159624666489 -23.175318134642236 0 0 0
408 145 10 0.053 -14.193395533012335 35.456271331663196 -18.392566269120554 0 0 0
398 144 10 0.053 -14.24837806271659 35.63657596658843 -15.746780879270371 0 0 0
392 143 10 0.053 -14.189943202667507 34.85533105273742 -12.491838144002326 0 0 0
409 145 10 0.053 -14.531014363373279 34.00355928740993 -17.472025478221905 0 0 0
153 93 10 0.053 -14.693073268841854 33.379554100341856 2.2740100169626287 0 0 0
211 101 12 -0.4 -15.913712832666535 35.252168185149415 9.819975332853506 0 0 0
193 99 9 0.094 -15.330264636027847 33.80983754141354 13.934384467287538 0 0 0
207 101 10 0.053 -14.341690110853646 36.5564159698866 9.50345262231376 0 0 0
202 100 10 0.053 -17.372676343561686 35.78617562095656 11.229676775315559 0 0 0
204 100 10 0.053 -17.18524818273968 33.17031286324206 12.023496403326787 0 0 0
210 101 10 0.053 -15.749702338406705 37.283845156926176 10.260482228932712 0 0 0
194 99 10 0.053 -15.609614470301846 32.754144333471 13.884052573082686 0 0 0
195 99 10 0.053 -15.59814801188041 34.11933067881904 14.945295247023589 0 0 0
205 100 10 0.053 -15.563752880654215 33.357091601349566 11.403745908638964 0 0 0
203 100 9 0.094 -16.414406282752985 33.91224336431367 11.807290123929308 0 0 0
209 101 10 0.053 -14.68084650194295 36.22803040063668 11.195772213803503 0 0 0
208 101 9 0.041 -15.14473025117627 36.376216777941444 10.218400300801266 0 0 0
206 100 12 -0.4 -16.060010171692063 34.60282681574941 13.002207892838161 0 0 0
200 100 9 0.094 -16.933283774030546 34.90526449274323 10.753567832450873 0 0 0
201 100 10 0.053 -17.75782904793502 34.44774698941718 10.206051029706261 0 0 0
2 12 2 0.053 -8.25862668190116 25.369350871414824 -6.54684665049467 0 0 0
343 131 9 0.094 -2.898646780925015 24.694234648242045 -8.833820435102837 0 0 0
340 130 10 0.053 -3.260271918974386 25.165257758631014 -13.9809348756852 0 0 0
349 131 12 -0.4 -2.8188586586180984 24.028642748432038 -11.204883618229346 0 0 0
347 131 10 0.053 -1.112721808126555 24.379390797767304 -10.050914915163423 0 0 0
348 131 10 0.053 -1.9866009170237424 22.93207005248016 -9.687013074333823 0 0 0
344 131 10 0.053 -3.9647282732780664 24.710977278859247 -9.074225449721197 0 0 0
346 131 9 0.094 -2.125238531502838 23.97908139947672 -9.958846720003617 0 0 0
345 131 10 0.053 -2.806045186230581 24.119997170332464 -7.9090093538637465 0 0 0
4 12 2 0.053 -6.484464188264895 25.461453834774353 -6.572001304412779 0 0 0
336 130 9 0.094 -2.6689169456922293 25.27014658780585 -11.885786724808113 0 0 0
337 130 10 0.053 -1.6623416277761234 25.348936082081696 -12.299004636474619 0 0 0
341 130 10 0.053 -4.499365628515989 24.674765460249812 -12.879611730008753 0 0 0
339 130 9 0.094 -3.705225118540018 25.410781309043898 -13.01478757161151 0 0 0
10 13 2 0.053 -5.2863529206372 24.320221191654642 -3.9652463220762706 0 0 0
22 14 2 0.053 -7.538740743400514 25.467566676217498 -0.9969437614616748 0 0 0
3 12 2 0.053 -7.296955785214959 24.1977053099085 -5.613597977019855 0 0 0
1 12 1 -0.159 -7.354147239980623 25.257359849323002 -5.921683673811418 0 0 0
12 13 2 0.053 -4.941960464544089 25.130952744923967 -2.4287203134350914 0 0 0
9 13 1 -0.106 -5.707868687964995 25.02070963129914 -3.2194475930321746 0 0 0
11 13 2 0.053 -6.572813681838205 24.5031450489579 -2.7671742141116455 0 0 0
254 113 9 0.094 -9.744695326371902 35.93794687065141 -19.059980987398774 0 0 0
255 113 10 0.053 -8.768429665858148 36.09179728852861 -19.52495095430749 0 0 0
256 113 10 0.053 -9.895119659365815 34.858035521592434 -19.001376976060925 0 0 0
424 147 12 -0.4 -13.531639012698434 29.55114152402298 -20.53895531012078 0 0 0
271 115 9 0.094 -13.496468451104972 35.016593009185115 -23.219049068665214 0 0 0
406 145 10 0.053 -12.453078152301167 32.96268209660886 -18.592293336897022 0 0 0
268 115 9 0.094 -13.499567721572053 34.29294727368071 -24.56706969090812 0 0 0
422 147 10 0.053 -11.857802392092047 28.400263136148638 -20.20029707032955 0 0 0
436 149 12 -0.4 -13.651053502422592 28.530726864242123 -25.043500579358412 0 0 0
267 114 12 -0.4 -10.775949263313795 36.53955083269533 -19.83223823583533 0 0 0
273 115 10 0.053 -13.649277945953346 34.292816028485866 -22.416046129910235 0 0 0
405 145 10 0.053 -12.445262547398325 34.332726840794514 -19.67053501297173 0 0 0
269 115 10 0.053 -13.309232920042469 35.016104724425716 -25.36391503998562 0 0 0
415 146 10 0.053 -12.676767588708008 32.122633537111845 -20.980257089854568 0 0 0
430 148 10 0.053 -11.656774989755444 31.109848745784017 -24.814010262157637 0 0 0
414 146 9 0.094 -13.694034044452254 31.997884747045223 -20.60140381464814 0 0 0
423 147 10 0.053 -11.494338590626345 30.09135965759068 -20.382384690383045 0 0 0
425 148 9 0.094 -13.45694249621426 29.920789094899778 -24.81370530861031 0 0 0
417 146 12 -0.4 -14.119321433114035 33.13003723992179 -19.848387806513543 0 0 0
427 148 10 0.053 -13.656447085545123 30.480033419692404 -25.728618759109114 0 0 0
428 148 9 0.094 -12.011749795070308 30.186424609044472 -24.355650681466226 0 0 0
421 147 9 0.094 -12.14365951443008 29.294672851053566 -20.754642861532087 0 0 0
429 148 10 0.053 -11.335212469424995 29.412450859338666 -24.726969820176944 0 0 0
420 147 10 0.053 -12.62067800815926 28.37528191155036 -22.64033210218337 0 0 0
404 145 9 0.094 -13.096170993348306 33.71693274908107 -19.05164044672821 0 0 0
264 114 9 0.094 -10.787467884146077 36.09824802976465 -21.184814941895972 0 0 0
419 147 10 0.053 -10.907462009020527 28.60484729860167 -22.386672129760353 0 0 0
263 114 10 0.053 -12.225416572840093 37.47971707916 -22.009595150245833 0 0 0
265 114 10 0.053 -10.594098839768154 35.02486845068086 -21.261183405657395 0 0 0
431 148 12 -0.4 -11.918880048618933 30.324227810340236 -22.940379915627272 0 0 0
412 146 10 0.053 -13.188375890519623 30.756659814806305 -18.87773175343485 0 0 0
418 147 9 0.094 -11.881085771036306 29.077535498027277 -22.24853448673458 0 0 0
266 114 10 0.053 -9.99532566756579 36.594600509485325 -21.748077295738522 0 0 0
274 115 12 -0.4 -12.261854668641014 35.701340431116286 -23.052846879171238 0 0 0
261 114 9 0.094 -12.14562666872413 36.40849781086277 -21.82117127527713 0 0 0
411 146 9 0.094 -13.819504436012979 30.710487657093864 -19.76726281500087 0 0 0
270 115 10 0.053 -12.679835640073593 33.57222606942106 -24.59546081115955 0 0 0
262 114 10 0.053 -12.946081516690317 36.17250798616022 -21.114260535386506 0 0 0
407 145 9 0.094 -13.730517857671432 34.571130044678064 -17.953170614531125 0 0 0
279 116 10 0.053 -14.04506175553488 32.644170248124425 -26.45310452434178 0 0 0
426 148 10 0.053 -14.158170620832355 30.295699133287187 -24.063574724053662 0 0 0
247 112 9 0.094 -9.550229783676768 34.7796695339807 -16.032158632848716 0 0 0
233 110 9 0.094 -11.406744945055728 31.71280001446513 -10.493318913054864 0 0 0
234 110 10 0.053 -12.115199649196546 31.229628914327442 -11.16983256603234 0 0 0
240 111 9 0.094 -9.325929790855392 33.14752441310114 -13.218278335472949 0 0 0
241 111 10 0.053 -9.748775086241755 34.14443322214347 -13.073264274850883 0 0 0
243 111 9 0.094 -10.232899253698697 32.11345447612905 -12.549133979969826 0 0 0
244 111 10 0.053 -11.187877182292977 32.08221992162457 -13.077691055440962 0 0 0
246 111 12 -0.4 -10.409309657686828 32.46139114559362 -11.182917281032921 0 0 0
385 142 10 0.053 -12.695264292143012 34.535317607729596 -7.991704458099501 0 0 0
384 142 10 0.053 -11.333318916992646 35.021829810918064 -8.937571044515298 0 0 0
250 112 9 0.094 -8.528584459289647 33.86476556386777 -15.349308969315693 0 0 0
251 112 10 0.053 -7.904928734739289 33.394248627804046 -16.110107145727305 0 0 0
252 112 10 0.053 -7.83911602003134 34.45430410071273 -14.739271967374831 0 0 0
253 112 12 -0.4 -9.188630388423837 32.84602756858986 -14.602164642274102 0 0 0
239 110 12 -0.4 -9.990623969073091 31.27859018002938 -8.54407213407018 0 0 0
320 127 10 0.053 -8.87113590739364 28.199643201449316 -8.39573477366325 0 0 0
390 143 9 0.094 -13.19401841683831 34.42346842057546 -12.373113389476705 0 0 0
387 142 10 0.053 -12.775810108619858 37.25140134743702 -9.339656905399817 0 0 0
397 144 9 0.094 -13.20674999484053 35.30631601030567 -15.731628621437174 0 0 0
399 144 10 0.053 -12.646035145363411 36.175560933359414 -15.383828470909856 0 0 0
400 144 9 0.094 -13.027913886637354 34.13398052843377 -14.750567614557847 0 0 0
402 144 10 0.053 -12.387004615426337 33.36717320018242 -15.189896437560588 0 0 0
403 144 12 -0.4 -12.418663059401675 34.59594402876715 -13.549968405425204 0 0 0
383 142 9 0.094 -12.407652234325628 35.18628295755912 -8.817959716906813 0 0 0
395 143 10 0.053 -12.454373102240293 36.18035130660205 -11.377037675539954 0 0 0
410 145 12 -0.4 -12.72698093173173 34.95694138312047 -17.025275091782245 0 0 0
396 143 12 -0.4 -13.144872509122953 34.807069718429716 -9.98100381887742 0 0 0
394 143 10 0.053 -11.436041362406774 34.77820475959905 -11.181598691010832 0 0 0
393 143 9 0.094 -12.477637522234339 35.10344921151465 -11.20501234282756 0 0 0
228 109 10 0.053 -11.717878530194591 31.940441753011193 -7.572852927187842 0 0 0
226 109 9 0.094 -10.706841756842303 31.588678711402462 -7.3528507518008865 0 0 0
321 127 12 -0.4 -7.715682065352262 29.266120060193927 -7.078792820439481 0 0 0
227 109 10 0.053 -10.825653547578248 30.685422049667398 -6.751537868359721 0 0 0
249 112 10 0.053 -10.184760976773799 35.25127892906691 -15.279706209863232 0 0 0
260 113 12 -0.4 -8.872363405277243 35.77047665112071 -16.797695279195743 0 0 0
235 110 10 0.053 -12.009365782890775 32.39902152366528 -9.899335121257032 0 0 0
248 112 10 0.053 -10.208944545178111 34.17552431122298 -16.65973143557901 0 0 0
236 110 9 0.094 -10.770605718971995 30.66635458488935 -9.566912159362245 0 0 0
237 110 10 0.053 -11.535803767194066 30.006440779402787 -9.151864866206086 0 0 0
245 111 10 0.053 -9.78990146713903 31.119625009126633 -12.63444473704319 0 0 0
238 110 10 0.053 -10.128090066591042 30.016471683242134 -10.160948117406916 0 0 0
242 111 10 0.053 -8.349646499845488 33.14853725796307 -12.729730250287028 0 0 0
318 127 9 0.094 -7.940418032351672 28.76717887392461 -8.392190574913508 0 0 0
319 127 10 0.053 -8.105512737811766 29.578947444886484 -9.100695411519293 0 0 0
309 126 10 0.053 -7.440185668817159 31.273154984496582 -7.50266543617967 0 0 0
386 142 9 0.094 -12.701046846744669 36.64369163979088 -8.434760316314797 0 0 0
389 142 12 -0.4 -11.695308284594109 37.13632802053176 -7.556030814797212 0 0 0
388 142 10 0.053 -13.67727666214623 36.70259939764796 -7.950998553826356 0 0 0
259 113 10 0.053 -10.745231957529995 36.61096228948351 -17.250095744621124 0 0 0
258 113 10 0.053 -9.363048992569 37.55568577730641 -17.691477804100213 0 0 0
257 113 9 0.094 -9.73017710118073 36.5300639506112 -17.645933906148997 0 0 0
391 143 10 0.053 -13.331769438097531 33.36225836741648 -12.158158075377738 0 0 0
231 109 10 0.053 -9.110033651743674 33.04162601971246 -7.136562758846262 0 0 0
351 132 10 0.053 -2.254762135511441 28.487191245359238 -8.519244994667401 0 0 0
229 109 9 0.094 -9.943281964751511 32.65120499544141 -6.547538128456579 0 0 0
352 132 10 0.053 -3.734720456929087 28.717856351079607 -7.667958160237237 0 0 0
329 129 9 0.094 -3.5463733025136546 27.75099187724555 -13.642746765382888 0 0 0
350 132 9 0.094 -2.7741491384703094 28.209076676160457 -7.598053175223828 0 0 0
342 130 12 -0.4 -4.300992799177374 26.706855461158856 -13.028338198694957 0 0 0
333 129 10 0.053 -2.3026435524301263 28.178194348487317 -11.893895028688458 0 0 0
334 129 10 0.053 -2.2755772127608056 29.40363835434377 -13.10595231602848 0 0 0
322 128 9 0.094 -4.559023703757014 28.818201322025168 -10.80973926326274 0 0 0
330 129 10 0.053 -4.208035138877462 28.315597362492486 -14.300737942936266 0 0 0
324 128 10 0.053 -4.220131426036194 27.78997560330601 -10.667900755535753 0 0 0
325 128 9 0.094 -6.088164544718535 28.842179591491746 -10.959455976873777 0 0 0
326 128 10 0.053 -6.480319441239684 29.806861120730552 -10.634904271312996 0 0 0
327 128 10 0.053 -6.344442576789419 28.776720732455757 -12.017961040620836 0 0 0
323 128 10 0.053 -4.279463120477926 29.34530880211633 -9.898844356599867 0 0 0
328 128 12 -0.4 -6.728506885247592 27.75854661439793 -10.28056299715303 0 0 0
317 127 10 0.053 -6.948068361609257 26.85803637086112 -8.452034193268696 0 0 0
315 127 9 0.094 -6.791074369253492 27.856181436466475 -8.858804563240296 0 0 0
308 126 9 0.094 -6.911822183204635 30.43802691962907 -7.040503803024218 0 0 0
316 127 10 0.053 -5.837866746876959 28.172501999705993 -8.437884079837787 0 0 0
310 126 10 0.053 -5.995392617095857 30.302991114349354 -7.618471377270613 0 0 0
335 129 12 -0.4 -3.9435149709405395 29.471604044870723 -11.92202289198327 0 0 0
332 129 9 0.094 -2.9451328953252798 28.710068707961675 -12.596825752044692 0 0 0
355 132 10 0.053 -4.099610741626226 26.503668772837347 -7.5388263039366175 0 0 0
331 129 10 0.053 -2.7569061838121205 27.367529844466095 -14.292653090153493 0 0 0
338 130 10 0.053 -2.774074393033772 26.102249876723736 -11.190594230238924 0 0 0
353 132 9 0.094 -3.022111337213397 26.68535224962439 -7.546947883514328 0 0 0
359 133 10 0.053 -0.4166107604599089 27.48247640245468 -6.676336318280854 0 0 0
354 132 10 0.053 -2.643118303772195 26.269342835870074 -6.611490288717181 0 0 0
357 133 10 0.053 -0.2629903934078839 29.106261595651386 -7.355965669366166 0 0 0
358 133 9 0.041 -0.6888610165169435 28.530831362891306 -6.5309515285026505 0 0 0
356 132 12 -0.4 -2.4088466666357244 26.023994868336604 -8.650605913522655 0 0 0
401 144 10 0.053 -13.988393501985811 33.64020103901694 -14.581781565263405 0 0 0
68 18 6 -0.625 -9.209190667501634 33.581319374139596 4.469409036599039 0 0 0
140 91 9 0.094 -10.22215860401464 29.29618079228074 -3.086905580502599 0 0 0
74 19 2 0.053 -10.929142166824809 37.1815950182149 4.290540218072559 0 0 0
75 19 2 0.053 -11.084948297068156 37.17178029812506 2.526541669678416 0 0 0
151 93 9 0.094 -13.730451711105276 33.86299691696698 2.4517881661911933 0 0 0
144 92 9 0.094 -12.270173664003895 32.74740556551034 -0.7445904832354596 0 0 0
145 92 10 0.053 -11.537592020658531 33.4959597320554 -1.047751375384947 0 0 0
146 92 10 0.053 -13.193745146178424 32.99293740464383 -1.273600995065608 0 0 0
157 93 12 -0.4 -12.461559326367148 32.79109122733892 0.6668792619094757 0 0 0
148 92 10 0.053 -11.115599464112114 30.93816505791899 -0.4526442576187664 0 0 0
212 107 9 0.094 -8.938194907224508 34.30030506407892 -1.9457225148562671 0 0 0
214 107 10 0.053 -9.316326485034246 33.33884270764072 -1.5968368465928753 0 0 0
222 108 9 0.094 -10.240822945693488 34.49328129312729 -3.9195780847554436 0 0 0
223 108 10 0.053 -10.76386683740695 35.32931568085301 -3.4496527510301616 0 0 0
225 108 12 -0.4 -8.935462466670424 34.33369578470613 -3.3694078757504524 0 0 0
60 18 5 0.5 -9.362855613991746 34.70205606350966 3.9372672202400487 0 0 0
61 18 6 -0.625 -10.39892569812205 34.86752309778016 3.2531140273902213 0 0 0
213 107 10 0.053 -9.598347867703191 35.06398391797308 -1.5257802884723926 0 0 0
78 19 2 0.053 -8.742763828455795 36.562951715695675 1.911135995845484 0 0 0
69 19 3 -0.106 -8.364363361191877 36.94101803489289 2.879049923887539 0 0 0
150 92 12 -0.4 -11.270103825127416 31.42042404177825 -2.50299613403702 0 0 0
142 91 10 0.053 -10.648304496614932 29.263243747149385 -4.090403444089125 0 0 0
149 92 10 0.053 -12.664383114077573 30.672592641304863 -1.1840370985308406 0 0 0
147 92 9 0.094 -11.811479665896437 31.35216734037697 -1.1840632445018568 0 0 0
155 93 10 0.053 -13.664338071548782 34.49604114898655 0.3977609820977766 0 0 0
287 123 9 0.094 -8.026054278498291 37.722093414140225 -3.6471796713534763 0 0 0
216 107 10 0.053 -6.933224466992487 33.59576720252371 -1.491863457294706 0 0 0
312 126 10 0.053 -7.296240593421261 31.47830254634015 -5.171367131042597 0 0 0
288 123 10 0.053 -8.175938363694383 36.676649285707555 -3.3901128305576655 0 0 0
232 109 12 -0.4 -10.814403732588772 33.70956296607201 -6.165077571214045 0 0 0
154 93 9 0.094 -12.98293840470736 34.0432761797064 1.1225199562412893 0 0 0
215 107 9 0.094 -7.523430641541897 34.51057080062119 -1.3846225722161227 0 0 0
439 161 13 1.5 -10.564822781857497 32.389184070359164 2.6349438873083333 -1 0 0
59 18 4 -0.053 -8.11605749199327 35.64453380243925 3.7778236719543896 0 0 0
224 108 10 0.053 -10.84674589988555 33.60997049263585 -3.713439329684644 0 0 0
141 91 10 0.053 -10.97545402990954 28.829978321333446 -2.445294846853308 0 0 0
139 91 10 0.053 -9.456854820759247 31.276137905570785 -3.4650587121068828 0 0 0
143 91 11 -0.4 -8.997650110538446 28.589832470460507 -3.0949795920306684 0 0 0
218 107 11 -0.4 -7.571850323800042 34.96084170097181 -0.04533361914982688 0 0 0
50 17 7 0.65 -7.755990583849133 33.98540445567115 0.9077943242822035 0 0 0
51 17 8 -0.45 -8.927426418739303 33.89581387047135 1.1669995260394745 0 0 0
137 91 9 0.094 -10.016502731693423 30.763479786724552 -2.682754300126383 0 0 0
156 93 10 0.053 -12.166189254847646 34.7568500884971 1.2536005103040886 0 0 0
220 108 10 0.053 -10.662268585993704 35.68893001359302 -5.664465683546747 0 0 0
25 14 8 -0.45 -9.422662994128975 26.71478929518158 -2.132793095423093 0 0 0
40 16 6 -0.625 -8.957321714439644 31.247744246387228 0.7415261639621205 0 0 0
138 91 10 0.053 -9.385932068698882 30.845454182121152 -1.7977245720780302 0 0 0
164 94 12 -0.4 -12.945963415796061 33.08196614323515 3.340197766285614 0 0 0
230 109 10 0.053 -9.500529329328725 32.188460236863435 -5.664443576655997 0 0 0
152 93 10 0.053 -13.944236445202908 34.84654562516078 2.876734619937186 0 0 0
13 13 2 0.053 -7.759533751228182 27.191875723709163 -5.050888738919465 0 0 0
18 14 7 0.65 -8.742512675337528 27.706436464599218 -2.067629091742478 0 0 0
20 14 2 0.053 -7.574117222679475 26.561173706064448 0.38321094496751407 0 0 0
34 15 2 0.053 -7.577848133866281 29.768511604379974 -1.262622506517537 0 0 0
35 15 2 0.053 -7.6665018505612 28.81303150910492 0.16993770228457505 0 0 0
39 16 5 0.5 -8.379863944684027 30.69989454458451 1.702394658961468 0 0 0
47 16 6 -0.625 -9.094256981483882 30.358710276832593 2.6747810700045194 0 0 0
14 13 2 0.053 -8.216727780219637 25.832163334045898 -4.052945291033844 0 0 0
77 19 2 0.053 -7.375214528600368 37.35867978778928 2.610238464103517 0 0 0
73 19 1 -0.106 -10.745021577841312 37.783257227088306 3.3806914943871855 0 0 0
87 20 2 0.053 -10.716887631479729 37.675824507217456 0.302323368964001 0 0 0
219 108 9 0.094 -10.165371143433319 34.74648344523922 -5.435054282968213 0 0 0
56 17 2 0.053 -7.397111692723016 32.361795380727706 3.5090264717694932 0 0 0
5 13 3 -0.106 -7.405149215001202 26.20200945833531 -4.701868554824058 0 0 0
162 94 10 0.053 -14.143949974146548 32.178659337750354 4.7566129315179095 0 0 0
17 14 4 -0.053 -7.272924878474723 27.604432203175598 -1.5719220723605378 0 0 0
19 14 1 -0.106 -7.091099664283369 26.395819514944733 -0.5983407671167837 0 0 0
221 108 10 0.053 -9.134222237058747 34.89869754103373 -5.762881158822281 0 0 0
161 94 9 0.094 -13.435503693488961 33.004235875150684 4.671319698898384 0 0 0
26 15 3 -0.106 -7.0576183441141715 28.94403044805841 -0.7396367836213892 0 0 0
293 123 11 -0.4 -8.410592315879926 37.94153746066365 -1.279614634442907 0 0 0
289 123 10 0.053 -8.968957788422125 38.03081307440949 -4.097683267442026 0 0 0
295 124 10 0.053 -6.980386559581491 35.28738710347117 -4.803370758601041 0 0 0
300 124 12 -0.4 -6.985172002303994 37.87216502807803 -4.609366386148042 0 0 0
302 125 10 0.053 -5.828873860341869 33.07838584443637 -6.394400136466506 0 0 0
303 125 10 0.053 -4.139852168975589 32.95226706744498 -6.031235921843244 0 0 0
58 18 3 -0.106 -6.809586815074239 34.89758697825842 3.2375465598043305 0 0 0
57 17 2 0.053 -5.717555172436216 32.31920313772619 3.245675524068111 0 0 0
55 17 2 0.053 -5.164247736612072 35.13303395830649 1.0923846865433682 0 0 0
66 18 2 0.053 -6.32409351749464 34.40279120148473 4.103034179675725 0 0 0
217 107 10 0.053 -6.995665139855033 35.25514698367353 -1.9803744963308103 0 0 0
67 18 2 0.053 -6.07075761924534 35.70572691613592 3.0656604427078022 0 0 0
311 126 9 0.094 -6.561193252328234 30.785756154953468 -5.5865359320568935 0 0 0
296 124 10 0.053 -5.850416186416713 35.722061864766054 -6.05525783925694 0 0 0
8 13 6 -0.625 -5.154971201644589 27.80346152533615 -5.577372470314062 0 0 0
314 126 12 -0.4 -5.222511097558912 31.290771945382147 -5.4831429954128446 0 0 0
15 13 6 -0.625 -3.759983761751279 26.890460815272625 -4.25911552686054 0 0 0
7 13 5 0.5 -4.907859913188545 26.879178345458282 -4.76623645623894 0 0 0
297 124 9 0.094 -5.8309379305399744 37.06532616843093 -4.36263668224493 0 0 0
294 124 9 0.094 -5.971262910494126 35.66450936391497 -4.972805406477641 0 0 0
301 125 9 0.094 -5.128688499043553 32.70647958132948 -5.642239009660416 0 0 0
440 162 13 1.5 -3.7832115864482954 29.472378549942125 -4.22392347140521 -1 0 0
313 126 10 0.053 -6.654640168075395 29.89659591362876 -4.964820474194277 0 0 0
306 125 10 0.053 -4.726610373903992 32.97651936239525 -3.5359298078629475 0 0 0
304 125 9 0.094 -5.342170489692289 33.43915122864978 -4.307984947873045 0 0 0
31 15 2 0.053 -4.327800025165294 27.83434788250203 -0.16122644781390189 0 0 0
33 15 2 0.053 -4.032062889944963 29.037417022702925 1.096169947812373 0 0 0
307 125 12 -0.4 -4.972717672358123 34.80954647698847 -4.419769236143843 0 0 0
6 13 4 -0.053 -6.096985092439129 26.388083337907144 -3.85562055985977 0 0 0
299 124 10 0.053 -4.960026840921752 37.55738822886088 -4.79670061450293 0 0 0
305 125 10 0.053 -6.368929513596085 33.31816292302719 -3.9556160995129512 0 0 0
298 124 10 0.053 -5.606733740964283 36.98817890207567 -3.2960484542831554 0 0 0
16 14 3 -0.106 -6.242959664130415 27.51585752403618 -2.755284642049461 0 0 0
21 14 2 0.053 -6.029067217750128 26.165962619768052 -0.39812672447803665 0 0 0
23 14 2 0.053 -5.247036290104913 27.598967232483577 -2.281344742740317 0 0 0
24 14 2 0.053 -6.360011343400418 28.469809555867553 -3.3003944358477497 0 0 0
27 15 4 -0.053 -5.687441169567255 29.59510454404922 -0.285445502811185 0 0 0
28 15 5 0.5 -4.843936384007285 30.14101222404948 -1.5198525242638483 0 0 0
29 15 6 -0.625 -5.4283828300901344 30.658597773989985 -2.4990993677892614 0 0 0
30 15 1 -0.106 -4.834202988315305 28.55616696832731 0.5060877919216431 0 0 0
32 15 2 0.053 -5.431682526880816 27.945602197830084 1.2036367608225447 0 0 0
36 15 6 -0.625 -3.6546383883965556 29.781954365108213 -1.7047920635141798 0 0 0
37 16 3 -0.106 -5.966571376473219 30.883073631714524 0.6129023877725294 0 0 0
38 16 4 -0.053 -6.84675751461883 30.971500124725953 1.932128461861872 0 0 0
41 16 1 -0.106 -6.335610595124734 29.910451877792063 2.9619034948505094 0 0 0
42 16 2 0.053 -6.723611862268015 30.091406154615505 3.9836156572816432 0 0 0
43 16 2 0.053 -5.2331090495804435 29.895921802041048 3.0472379402610468 0 0 0
44 16 2 0.053 -6.664206126935217 28.88583720139607 2.7101375688351714 0 0 0
45 16 2 0.053 -4.972160828165282 31.291109380810195 0.8815329648493309 0 0 0
46 16 2 0.053 -6.38719642238731 31.652140648354088 -0.06431744841471743 0 0 0
48 17 3 -0.106 -6.66929520872556 32.37040602866309 2.6773168642213716 0 0 0
49 17 4 -0.053 -6.711914766653088 33.83306887027607 2.0425124729430695 0 0 0
52 17 1 -0.106 -5.302535052898264 34.07736856753269 1.3978395555861831 0 0 0
53 17 2 0.053 -5.133107519638243 33.49208427400928 0.4771293866457879 0 0 0
54 17 2 0.053 -4.467398475159678 33.843701352246526 2.0855096651709717 0 0 0
360 133 10 0.053 -0.1971844923792615 28.86477310418916 -5.6175548906114505 0 0 0
361 133 12 -0.4 -2.0980682978711713 28.708555808225523 -6.435462123279761 0 0 0
174 96 10 0.053 -8.352653393815903 27.85628641090318 8.878307666444332 0 0 0
167 95 10 0.053 -9.06985623228085 30.148518598458566 5.19514081003151 0 0 0
175 96 9 0.094 -10.114777592683408 28.48040930017401 7.795542525110034 0 0 0
173 96 10 0.053 -9.776258877408317 26.990565909635354 9.341226431660798 0 0 0
178 96 12 -0.4 -9.264193223451695 29.370286751162553 7.080787206005176 0 0 0
169 95 10 0.053 -11.034287560326087 31.185457571607216 7.24664315363591 0 0 0
165 95 9 0.094 -9.85749655345892 29.952934038801313 5.922434531672716 0 0 0
171 95 12 -0.4 -11.509166186161993 31.628892477319372 5.264794215333682 0 0 0
166 95 10 0.053 -10.545003687109006 29.26662304549002 5.422218496004974 0 0 0
170 95 10 0.053 -9.802086842156633 32.05910236513975 6.381352821930625 0 0 0
168 95 9 0.094 -10.554550984801521 31.276120932341858 6.2697623028258525 0 0 0
177 96 10 0.053 -11.059433745075971 28.964014798756462 8.050939148623264 0 0 0
158 94 9 0.094 -12.263197946276634 32.78532216521167 5.635164221014282 0 0 0
159 94 10 0.053 -11.623304015552142 33.67063466880583 5.636085348200182 0 0 0
62 18 1 -0.106 -7.766586872381934 36.04549634955057 5.246761274687134 0 0 0
176 96 10 0.053 -10.369839597873407 27.62299134247402 7.169980141144056 0 0 0
188 98 10 0.053 -13.772595491703788 31.571193279158514 12.692983355797104 0 0 0
172 96 9 0.094 -9.417739559259147 27.987696949538027 9.075078476091523 0 0 0
185 97 12 -0.4 -9.56943476207465 28.914618606552267 10.148479771752275 0 0 0
182 97 9 0.094 -10.673216980749942 28.65480708403717 11.006054153572164 0 0 0
160 94 10 0.053 -12.657759896465965 32.69439018767771 6.6499592159015695 0 0 0
183 97 10 0.053 -10.591574587687955 27.663180167324136 11.455759565034926 0 0 0
184 97 10 0.053 -11.60956229643835 28.669531712358587 10.444731255078477 0 0 0
181 97 10 0.053 -10.557865569113796 30.70139978335173 11.678113475839572 0 0 0
180 97 10 0.053 -9.891004336467683 29.542817194998882 12.807883257189806 0 0 0
179 97 9 0.094 -10.7160211415752 29.711974026219565 12.112887124923553 0 0 0
191 98 10 0.053 -12.750535247099767 30.266757123053015 14.588985905133034 0 0 0
192 98 12 -0.4 -11.964922888208012 29.648730242292892 12.793341833825636 0 0 0
63 18 2 0.053 -8.621925314922665 36.497548205807384 5.782919623480129 0 0 0
190 98 10 0.053 -11.19891736623884 30.960554399055315 14.245130591934489 0 0 0
189 98 9 0.094 -12.141388703936146 30.66560145407006 13.776738295814873 0 0 0
186 98 9 0.094 -12.844115138949972 31.88717795817468 13.173313659194758 0 0 0
65 18 2 0.053 -7.4616118647528165 35.17871103893264 5.865211447659885 0 0 0
199 99 12 -0.4 -13.09950602099587 32.84816436970213 14.191150818956991 0 0 0
187 98 10 0.053 -12.218886419592232 32.318662924752466 12.38936815090501 0 0 0
198 99 10 0.053 -13.48404766809821 34.86194460377477 14.303471578501858 0 0 0
196 99 9 0.094 -13.815811364135755 33.992258605935824 13.735396908452334 0 0 0
197 99 10 0.053 -13.584152602252907 34.235812848192765 12.694980530306998 0 0 0
163 94 10 0.053 -13.97547430035018 33.90684334480981 4.968046957352985 0 0 0
64 18 2 0.053 -6.931473662500083 36.76935307944205 5.293520195370697 0 0 0
374 140 10 0.053 -8.272757742952967 40.950226412435846 -6.712242624903395 0 0 0
376 141 9 0.094 -11.622104908386618 38.55516679299641 -7.540893404280823 0 0 0
378 141 10 0.053 -11.227377997127544 38.923231627647084 -8.490290801059642 0 0 0
377 141 10 0.053 -12.612810517543192 39.00066581816959 -7.421384055595579 0 0 0
381 141 10 0.053 -9.716819033481015 38.612308191599375 -6.526293023559656 0 0 0
80 20 3 -0.106 -9.126784595071125 39.382375734509225 2.196789219866934 0 0 0
81 20 4 -0.053 -9.270923122361571 39.33678815349346 0.6302653803368085 0 0 0
82 20 7 0.65 -8.19792624870095 38.40142030676457 0.005720054633608913 0 0 0
84 20 1 -0.106 -10.675091454411678 38.78042091994485 0.24165979443909313 0 0 0
85 20 2 0.053 -10.958753664030265 39.04110704298621 -0.7953706967151489 0 0 0
86 20 2 0.053 -11.484290485949836 39.15064182857724 0.8952396056499371 0 0 0
88 20 2 0.053 -9.855250539308424 40.142027934718335 2.533368245414537 0 0 0
89 20 2 0.053 -8.14120879822826 39.86561978206018 2.352652351186615 0 0 0
90 21 3 -0.106 -9.058956506071171 40.79732328480302 0.0108619367785184 0 0 0
91 21 4 -0.053 -9.685833352483273 42.169530043240606 0.5265413555162163 0 0 0
92 21 5 0.5 -9.128019600551715 42.58661584744201 1.93936571879521 0 0 0
93 21 6 -0.625 -7.8977256358441155 42.50960713917554 2.1708669057969248 0 0 0
94 21 1 -0.106 -11.234997109305734 42.00715675962064 0.5248158760752659 0 0 0
95 21 2 0.053 -11.576084258345457 41.29743854577765 1.2983722084731513 0 0 0
96 21 2 0.053 -11.620298767841884 41.652191373810176 -0.44946384507877896 0 0 0
97 21 2 0.053 -11.769158743013252 42.943653463176396 0.7529897161320266 0 0 0
98 21 2 0.053 -7.965008263881012 40.97572538103632 -0.037652020740440995 0 0 0
99 21 2 0.053 -9.331313505164497 40.714480113160846 -1.0584745734436396 0 0 0
100 21 6 -0.625 -9.885850188251055 42.67856702610086 2.934034738786849 0 0 0
101 22 3 -0.106 -9.226048212871751 43.30921788823878 -0.48474783354932605 0 0 0
102 22 4 -0.053 -9.91036550652086 44.730399472191436 -0.6313363828517491 0 0 0
103 22 5 0.5 -11.267808660954534 44.58918280260784 -1.4373567896748043 0 0 0
104 22 6 -0.625 -11.189850816951113 44.06154786336479 -2.575456494744854 0 0 0
105 22 1 -0.106 -10.196922207877204 45.378115627144275 0.7627623646866416 0 0 0
106 22 2 0.053 -10.45923342345631 46.450405913274885 0.6865220618530201 0 0 0
107 22 2 0.053 -9.336252922666052 45.31139269268466 1.449861019297228 0 0 0
109 22 2 0.053 -8.150218514869543 43.47645091727542 -0.2969400349353661 0 0 0
110 22 2 0.053 -9.211924782785422 42.87454624713346 -1.4987346872900331 0 0 0
112 23 3 -0.106 -9.050256819621463 45.75640932838703 -1.4914741492111783 0 0 0
113 23 4 -0.053 -7.5408011676540685 46.17928192740842 -1.323069324246625 0 0 0
115 23 1 -0.106 -7.238542330270837 46.56431109788681 0.15712287604857111 0 0 0
116 23 2 0.053 -7.185621244210941 45.674855902029 0.8131378314101164 0 0 0
117 23 2 0.053 -8.000222986631867 47.23595713883759 0.5904984356444339 0 0 0
119 23 2 0.053 -9.133368006085503 45.46996959908478 -2.558446065903106 0 0 0
120 23 2 0.053 -9.6272750672698 46.694560964012936 -1.4363371282686954 0 0 0
122 24 3 -0.106 -7.187844132645447 47.419169459168465 -2.2658620466318387 0 0 0
123 24 4 -0.053 -8.109534688476252 48.68181572714 -2.5237918824156447 0 0 0
124 24 5 0.5 -9.386708317738524 48.38401013391763 -3.402606097150106 0 0 0
125 24 6 -0.625 -9.32280076181271 47.509355222065594 -4.299537341236489 0 0 0
126 24 1 -0.106 -8.454969323752987 49.39653030650374 -1.1859475148786596 0 0 0
111 22 6 -0.625 -12.090214432443734 45.53139130119958 -1.3396275350760087 0 0 0
128 24 2 0.053 -7.5622951574248445 49.56544643666361 -0.554634869753547 0 0 0
129 24 2 0.053 -9.17541259193335 48.815524600369336 -0.5823196417404375 0 0 0
132 24 6 -0.625 -10.530682162397241 48.621955199642024 -2.944471386095758 0 0 0
133 26 1 -0.159 -7.26560925617566 49.7053807112066 -3.3389903454825665 0 0 0
362 139 9 0.094 -7.869637791239793 42.60167567225337 -3.8562259784986743 0 0 0
364 139 10 0.053 -8.707280379823713 43.272778828271456 -3.6607541759667126 0 0 0
369 140 9 0.094 -9.948293662099003 41.024151155792644 -5.332868532436697 0 0 0
370 140 10 0.053 -10.122791176819817 40.49835134837948 -4.3912468018098565 0 0 0
371 140 10 0.053 -10.33137570941973 42.03134531842218 -5.163147670577294 0 0 0
375 140 12 -0.4 -7.838100949231078 42.32023469626426 -5.252988728607256 0 0 0
76 19 2 0.053 -11.427496702981074 38.651682214848115 3.444350175736143 0 0 0
292 123 10 0.053 -8.15779546084744 39.56116762191543 -2.5371012943191777 0 0 0
438 160 13 1.5 -11.507198279893894 46.395710391740465 -3.6573988708280902 0 -1 0
437 159 13 1.5 -8.20931275847937 41.681553377299736 4.5480048751120306 0 0 0
71 19 5 0.5 -8.806036535773707 38.88739760202845 4.614275982421446 0 0 0
108 22 2 0.053 -11.043676122263701 44.905361338331524 1.2905881691582233 0 0 0
372 140 9 0.094 -8.43639042039214 41.086558144488166 -5.642314602565788 0 0 0
373 140 10 0.053 -7.916091226641906 40.25160511499171 -5.172378382035744 0 0 0
70 19 4 -0.053 -9.250740588257557 38.202743982408414 3.2582210313061624 0 0 0
380 141 10 0.053 -11.103524322376838 38.64231882523247 -5.451357845430253 0 0 0
290 123 9 0.094 -7.77400262423989 38.55546290092995 -2.38246052515158 0 0 0
363 139 10 0.053 -8.064645836529829 41.71093430793588 -3.2575949638443022 0 0 0
127 24 2 0.053 -8.927041711649391 50.38436200339746 -1.3491534638902907 0 0 0
72 19 6 -0.625 -7.598424443666405 39.21992539727089 4.710372027129416 0 0 0
382 141 12 -0.4 -10.68630008643703 40.4463457766645 -6.402736680297143 0 0 0
379 141 9 0.094 -10.719999414332646 39.02515974931922 -6.3993868266887555 0 0 0
131 24 2 0.053 -6.962170611675563 47.02350768474646 -3.2766350775577213 0 0 0
367 139 10 0.053 -5.804187488421292 43.18650382466332 -4.179848348125574 0 0 0
366 139 10 0.053 -6.127147403861441 42.658333622076654 -2.5624622947262616 0 0 0
136 26 2 0.053 -6.934000548979732 49.28941125614603 -4.310359162769924 0 0 0
114 23 7 0.65 -6.621638004868726 44.99554728514689 -1.7369379500092397 0 0 0
118 23 2 0.053 -6.264829476909488 47.07881487508142 0.2654159164994544 0 0 0
368 139 11 -0.4 -6.753999865584037 44.595412983087485 -3.048075020552959 0 0 0
121 23 8 -0.45 -5.451875355700695 45.10284739454811 -1.4711988135225433 0 0 0
365 139 9 0.094 -6.552025676332859 43.239086029418885 -3.3866655431689 0 0 0
130 24 2 0.053 -6.190562903589993 47.78650304973094 -1.9490732810665639 0 0 0
83 20 8 -0.45 -7.04324957077291 38.60936076649811 0.27803295199321504 0 0 0
135 26 2 0.053 -6.348604177122698 50.01924377884785 -2.80412850888729 0 0 0
291 123 10 0.053 -6.7021428432559444 38.66761063250122 -2.2059493690938483 0 0 0
134 26 2 0.053 -7.827846769675212 50.63137013125004 -3.5694388432189097 0 0 0
79 19 6 -0.625 -9.621020724430686 39.665048143254744 5.170669010010026 0 0 0

Velocities

435 6.161533920447218e-05 0.00013388188578098627 -0.00011295558143366061
413 -6.62152720751074e-05 -9.305633505943919e-05 -4.628883559965933e-05
281 2.6613772746018904e-05 -5.7776074176286536e-05 1.5818012198231733e-05
285 -1.912798293555965e-05 1.502191729387021e-05 -2.8721163055565254e-05
277 -4.580285347275952e-06 -4.705676755790076e-05 3.062934727762033e-05
416 -0.00011661758857544082 -6.18721078045886e-05 -3.795801494418058e-05
286 6.46775879643832e-07 7.154211907450099e-07 -1.4759024801394161e-05
276 3.393900974576507e-05 -4.043773342250918e-05 -7.793350421303067e-06
278 -2.058379280615824e-05 7.1126641929248204e-06 -1.2062011383072125e-07
280 -5.992376598853892e-05 3.0300004821086064e-05 3.728481229941886e-05
283 -2.6369642763014043e-06 9.43382935708438e-06 -3.2147001685265245e-05
284 2.550724845081987e-06 1.4689239581589373e-05 -4.2174301166462665e-05
275 5.959918603757785e-06 -2.692292536008644e-05 4.288972388415739e-06
432 -9.288857636340277e-06 0.00019402217089969307 -0.00010872210989752465
282 7.336115761566419e-06 1.2637790961069738e-06 -2.477672692065932e-05
433 7.568247282733482e-06 0.00016810634661569885 -8.544480672699706e-05
434 -3.912553621530625e-05 0.00015848671456529403 -3.905382073302827e-05
272 -1.2967485382377635e-05 -9.761604560770364e-05 6.557645534997425e-05
408 -0.00010950730297664098 -0.00014269697896185488 3.623119120476182e-05
398 6.392759653980343e-05 1.6729840781258084e-05 -5.7563850296190735e-05
392 0.00010441898961638084 9.645996549783454e-06 0.00010879089311208398
409 3.407952169140837e-05 -0.00016598594802375686 5.5383757554633744e-05
153 5.4964293979702016e-05 0.00012248712955297074 -1.2821667436069655e-05
211 3.268554439743429e-05 -9.114991916006061e-05 3.315373630355808e-05
193 -1.4132919672642635e-05 -1.1497539201014345e-05 5.0739619222246534e-05
207 7.593045769179241e-05 -0.0001237218224666161 2.1222246029478882e-05
202 3.019231832342021e-05 -1.2587583986081788e-05 7.460047107044283e-06
204 -4.490371326945428e-05 -1.1632706479291633e-05 4.943054368426896e-05
210 9.257043468615143e-05 -8.085209430433414e-05 -1.5445858699967207e-05
194 -1.07665445731238e-05 -1.208903270719477e-05 4.9834439170723236e-05
195 -1.3039799959165268e-05 3.4911065824985776e-07 4.5546459349856276e-05
205 -3.4097351054892325e-05 -4.9648085493262e-05 5.7280358436084484e-05
203 -2.7611509214054817e-05 -3.2341722014799416e-05 5.28277008512735e-05
209 3.821394056521378e-05 -8.023604654244576e-05 3.09100747096446e-05
208 6.87851900553276e-05 -0.00010482726673407557 1.6533783748533144e-05
206 -2.0261331572085134e-05 -2.34986405803753e-05 4.888252284008856e-05
200 1.1257179789527583e-05 -3.614722954843091e-05 3.121730106692026e-05
201 2.5257804918241255e-06 -1.7041224280399914e-05 2.867330374897144e-05
2 -0.00013546906328684824 -9.777755187553917e-05 6.062195280452919e-05
343 0.00010343113163132324 0.00022763275356565727 5.341707324686442e-05
340 -4.001807962328812e-06 -1.8441512544435362e-05 5.299775554034999e-05
349 0.00021788894746397266 0.00013628676916446566 0.00010709131910162752
347 0.00016608079902086654 0.00030394503184597634 8.114682284202753e-05
348 0.00024043529756499443 0.00025715124925746873 0.00010998878370946696
344 0.00010458677522186746 0.0001255639790032866 1.1416489688608336e-05
346 0.00020179008345130119 0.00026112569664752116 0.00010102214844270157
345 7.266331798155822e-05 0.00020025838133825455 4.416199565114899e-05
4 -0.00014626691943179628 -9.265848182512681e-05 4.284646190741126e-05
336 0.0001164924570488298 8.879821328464078e-05 2.5832619283618146e-05
337 8.539002042780023e-05 8.337508797498199e-05 -3.782748960891581e-05
341 6.1442157582779e-05 -1.4442138764075956e-05 0.00011999716136232321
339 4.13362190187396e-05 -8.262227658090164e-07 7.189751796840374e-05
10 -8.260757915621842e-05 -5.836134862067744e-05 2.542351574860494e-05
22 -1.40052799336203e-06 -1.341057185853052e-05 6.441368041448922e-05
3 -0.00010038100212526217 -0.00010086105688413878 6.134464579961458e-05
1 -0.00013973526999265453 -0.00010865813848247228 5.950483157824489e-05
12 -5.4690429554529655e-05 -3.7093682664965415e-05 2.830796433510567e-06
9 -8.083044321572063e-05 -5.7434838780891334e-05 2.694495125860979e-05
11 -6.953798367817006e-05 -4.404656009311817e-05 5.0904476294529186e-05
254 -3.7941918636964005e-05 -7.910151751703891e-05 -3.2692266985587513e-06
255 -3.1243889840096246e-05 -0.00013080996818561457 -1.0725706942452416e-05
256 -9.063673727208784e-05 -6.721991906917796e-05 2.8994187873649774e-05
424 -3.256462014242866e-05 -7.743810732754377e-05 -6.138451346327225e-05
271 2.6613157959374043e-05 -4.795809900164303e-05 1.264368902393722e-05
406 -3.7383623044755185e-06 -3.745281965741628e-05 -0.00011704360037339648
268 2.9750371989047395e-06 -2.796036578378267e-06 -1.2043253623793896e-05
422 -9.61769699098847e-06 -3.386478631169185e-05 -2.4125504964712887e-05
436 1.4056430817183118e-05 9.591598974726982e-05 -3.2497927901553815e-05
267 -6.222589687798597e-06 -4.086688934819636e-05 -1.7277821346693408e-05
273 0.00010300155693348781 -7.154653976378304e-05 5.355802394310787e-06
405 -0.0001088810199293009 -1.1658487066458445e-05 -7.480814756367083e-05
269 -4.892975411551033e-05 2.7951298774446803e-05 1.7145840395831084e-06
415 -0.00010950980658522596 -5.7290864373802984e-05 -5.7387562574057154e-05
430 0.00011888908140545683 -4.0620544092404715e-07 3.4402733310443153e-06
414 -0.00010854468720667756 -7.881434287280054e-05 -5.0103243900550924e-05
423 -4.0190602780825044e-05 -2.9014885815345324e-05 -9.919804458124653e-06
425 8.634181680313303e-05 7.585940423910975e-05 -5.053253860250531e-05
417 -9.632626154140878e-05 -9.397952671936805e-05 -3.162219922374021e-05
427 0.00011795619707649096 6.419144636659537e-05 -5.930449658155565e-05
428 9.028008576933918e-05 2.631179963862777e-06 -1.405938404363294e-05
421 -1.889594612131558e-05 -4.211408557433907e-05 -2.9589397703811172e-05
429 6.1183112147136e-05 -2.6130624340954064e-05 -5.052004933911628e-06
420 4.521052316966733e-06 -5.389335988258524e-06 -4.327943687493525e-05
404 -6.664139530504513e-05 -6.461749311087389e-05 -7.609118426916468e-05
264 -2.727760864890057e-05 -6.745894876411746e-05 -6.432227959042897e-06
419 9.796046009394932e-06 -3.733058589523346e-05 -8.201575747866539e-06
263 5.657500930834947e-05 2.7533082698757593e-05 -1.2803285469435169e-05
265 -8.21288755078248e-05 -7.617646325299759e-05 1.4822593034618521e-05
431 6.256946863685539e-05 -1.6304442366574407e-05 -7.594947026586511e-06
412 -7.16146511510499e-05 -5.3686517595287784e-05 -5.115909252268285e-05
418 1.4869485436956235e-05 -2.6684073698762903e-05 -2.4117237102002345e-05
266 4.439395300112521e-06 -0.0001133028690647788 -4.904761499480335e-06
274 -1.9578791540942845e-05 4.9265659562660906e-05 -4.212396979080884e-05
261 1.4774314051630557e-06 2.1428510262521186e-05 -2.7304509022002962e-05
411 -7.364429437022155e-05 -8.338382165990828e-05 -5.544607347501188e-05
270 2.7319654563617935e-05 2.8782336205862436e-05 -5.7382122740975905e-05
262 -1.9015654014465543e-05 5.4312149255994016e-05 -3.792547792300912e-05
407 -3.589925967812662e-05 -0.00013087221686818208 -1.2050425922246682e-05
279 -2.1413051349588227e-05 4.226508151000205e-05 -4.95836930521615e-05
426 8.327990515623587e-05 0.00010280812112443153 -6.537666900782922e-05
247 -4.0052120930491795e-06 1.890596080493237e-05 2.5648865854728504e-05
233 -6.541189752914131e-05 -7.500846690427258e-05 -4.054143307722957e-05
234 -4.2458772774487236e-05 -9.336738506990702e-05 -4.2183340491501116e-05
240 -2.4728106091720645e-05 -6.953267555856151e-05 -1.5650008299989833e-05
241 3.9409517788705604e-05 -4.6450868466130896e-05 1.95181336894966e-05
243 -9.145049469021586e-05 -3.2130585635806985e-05 -4.564908868362346e-05
244 -9.202025858105955e-05 3.8624901516083344e-05 -4.082337604501741e-05
246 -6.670506786144581e-05 -7.68251677841719e-05 -3.534812681298343e-05
385 1.0164006247777452e-05 -6.0310607973742636e-05 4.130136741074587e-05
384 3.0745897701678724e-05 3.1899851529418023e-05 0.00010168054157675886
250 -3.1115502617234226e-05 -3.1714593531958704e-05 -6.255086642698008e-06
251 -4.061148216328406e-05 -2.5259443626714973e-05 -1.7853778926212393e-05
252 -1.1565723819917088e-05 -6.03854879955935e-05 3.080759695639113e-06
253 -6.711456996316839e-05 -3.144780328548281e-05 -2.968662727545404e-05
239 -4.75734934971704e-05 -1.9886659045033362e-05 -3.752837147485352e-05
320 -5.202675675796428e-05 -4.7334382836678894e-05 4.8186310342506375e-05
390 0.00016650082283237757 0.00012976568575293575 2.6865440360987666e-05
387 -0.00013717671552056243 -3.618325254978083e-05 0.0001451477321365613
397 8.438153135943592e-05 6.65062482138075e-05 -0.00010245807576824431
399 6.035939629205645e-05 0.00011322993453983957 -0.00018566994542033334
400 0.00019932568576994057 0.00019804159107694237 1.3489863550597303e-05
402 0.000250232247499785 0.00019235024984393112 9.715497167607323e-05
403 8.06591793149677e-05 0.0004371988508925777 3.4123317444899026e-06
383 2.3458350665233265e-05 -1.3332474983288667e-05 8.714786544854003e-05
395 0.00013410956721136854 5.770660306305584e-05 0.00010564627150803495
410 1.9471060606436543e-05 -6.0805919311780765e-05 -0.00010421722862338435
396 9.634186182670668e-05 4.669955799978585e-06 4.558206619023633e-05
394 0.00012518546122583908 2.0369858773544614e-05 8.113508683023326e-05
393 0.00013922060234479054 5.319357102392261e-05 7.86547767026753e-05
228 -2.1580018071059528e-05 7.739210412035129e-05 -5.471654578620731e-05
226 -2.8214711276192354e-05 7.137388552598859e-05 -5.433869554444299e-05
321 -5.391671685739582e-05 1.5406686757205837e-06 1.534071717267662e-05
227 -4.053099413148079e-05 0.00010156068967511937 -4.542774090059116e-06
249 3.8326392722664114e-05 5.403562713194915e-05 3.906553020596923e-05
260 1.4864339070170484e-05 -2.8615457774703096e-05 -2.0676933230667555e-05
235 -6.932874729685573e-05 -5.891633276602413e-05 -5.921320704164413e-05
248 -4.535395641510249e-05 3.683742004251116e-05 5.208339064169146e-05
236 -6.871481998638864e-05 -4.464201514663883e-05 -1.649645446620407e-06
237 -6.708221969702437e-05 -1.9219942044384466e-05 3.242230861285711e-05
245 -0.00012645161702752779 -4.576878479854375e-05 -6.674399322820026e-05
238 -6.863626340508026e-05 -6.102193306672925e-05 1.5183686508846488e-05
242 -1.8072839350173064e-05 -0.0001249014099603436 -2.386899028712199e-05
318 -5.961976236897793e-05 -4.073975034953867e-05 3.31017055646151e-05
319 -6.186614270707361e-05 -5.423582262266046e-05 1.4235872836999543e-05
309 -7.131641923983949e-05 7.654925479749578e-06 -6.623482237421206e-06
386 -6.345955666104158e-05 -4.313525415199258e-05 0.00014217154850404824
389 -3.949952564625564e-05 4.973316611055567e-06 8.891052003905968e-05
388 -4.344763422833417e-05 -9.657586766276068e-05 0.0001781588950914059
259 2.955942711215747e-05 1.6766937943630094e-05 -6.420258804983364e-06
258 4.271755528231103e-05 -3.581311579451825e-05 -5.915178026891913e-05
257 1.911896052981753e-05 -2.7074420858580033e-05 -2.5489644984156354e-05
391 0.000252491942134626 8.52619063518772e-05 -9.278323859081717e-05
231 -4.0159158582329695e-05 0.00011992779232091425 -0.00016818523793552383
351 0.00019772537721992258 0.0001976443895691154 0.0002444631798588333
229 1.2707091831594324e-05 9.169421890003897e-05 -0.0001197326175460636
352 -3.1162553122759445e-05 0.0001453259895788885 -0.0001157400579709178
329 -3.5112013035729545e-05 -2.0760946428969466e-06 1.754074734413428e-05
350 -3.0369015243093866e-05 0.00020932710760521557 0.00014117378729915694
342 3.05496774222032e-06 -1.794386737669977e-05 4.7694939468180375e-05
333 -4.286601909557204e-05 0.00010262743778865048 -1.7786471794063753e-05
334 -0.00011612610699792196 7.629162847031537e-05 -2.8442560483560737e-05
322 -8.798813997755125e-05 -2.3961768036892754e-05 9.033681778880908e-07
330 -4.279773876005821e-05 -4.184044062603848e-05 -7.378184954669884e-06
324 -4.2400269961698525e-05 -1.0061832544585944e-05 -1.2891249292982896e-05
325 -8.790606576735803e-05 -6.966808542698973e-05 1.9826430960452213e-05
326 -8.663103417484375e-05 -6.108332094852546e-05 1.8845975810919e-06
327 -8.009750061194606e-05 -7.812304676122807e-05 1.7568151396657054e-05
323 -7.41131703889194e-05 -2.200181957522093e-05 -3.9611789600119984e-06
328 -6.355759774204122e-05 -7.532935523641275e-05 5.037963005802073e-05
317 -3.3160846141249786e-05 -3.330377280186245e-05 6.131863614587195e-05
315 -5.1920746905504084e-05 -4.077333428298487e-05 4.682278589772473e-05
308 -5.792758971519116e-05 9.296502077023403e-06 -2.3315412366458122e-05
316 -4.763502213256479e-05 -1.7304353368584047e-05 2.725932656407261e-05
310 -6.903768129136626e-05 1.486131995819282e-05 -4.790077222510083e-05
335 -0.0001382567024996693 9.580387981152048e-06 -6.796374579610014e-06
332 -8.913303389793971e-05 6.085325643191631e-05 -1.252105735161925e-05
355 -1.4068787874576093e-05 0.00016829254263397503 -1.1877410907311083e-05
331 -1.5135172072578096e-05 6.472651674914377e-06 3.3779134829375125e-05
338 0.00010063441389244226 0.0001102826371424841 -8.909343843855238e-06
353 -2.1617430522748883e-05 0.00020763165216871834 4.912229639022382e-05
359 -0.0002457636783439066 0.000264845354141205 0.0006817155342204491
354 -4.624782331004939e-05 0.00013375018430733564 2.3680022018442262e-05
357 -0.0001279811405779309 0.00018228298808928108 0.0008246087845318462
358 -0.00033042503510035445 0.0002470090487886055 0.0007956077731433422
356 1.2132659253229212e-05 0.00028101061195786605 4.993269300685347e-05
401 0.0002368839693725156 0.00010088745962308208 1.678552877714395e-05
68 7.520373635127255e-05 -2.7983130025546512e-05 -1.5843214247972784e-05
140 -7.765052682181174e-05 -8.210465314098113e-05 7.279162639012266e-05
74 2.9714172339281714e-05 -2.7561044438742195e-05 1.597528774209921e-05
75 2.3740335651244113e-05 -2.4888328999840354e-05 1.429952470669265e-05
151 8.365863282581081e-05 7.280097510310493e-05 -1.2945349003114278e-05
144 7.479805917143254e-05 1.752138936165554e-05 -7.59261702407315e-06
145 9.920648591427186e-05 -4.842019688980811e-06 9.491163798666889e-06
146 8.63346797786742e-05 4.668648597111184e-05 -1.8900031805877517e-05
157 4.69031132736288e-05 1.8460951524194922e-05 -1.3579879154623745e-05
148 3.463091957542762e-05 -1.0493419651645913e-05 -2.4598073888068228e-05
212 5.3381390962238e-05 -5.1163387084132974e-05 -1.6969921809397504e-05
214 8.561976131021734e-05 -6.975165060871803e-05 -3.5609617064177625e-05
222 3.4467171618930066e-05 -3.5996141052615686e-05 -3.310269498665287e-07
223 7.598453797409278e-06 -6.199599852911991e-05 2.052910184007174e-05
225 4.691031608986564e-05 -5.826525303947483e-06 -1.3817549842397865e-05
60 6.125503063762627e-05 -2.0509468234721503e-05 4.6235225648936875e-06
61 4.8068395217265694e-05 -1.4292726345319775e-05 2.6968093704386257e-05
213 1.958893060076694e-05 -8.856366837217739e-05 4.165022722743443e-06
78 2.5259875908178955e-05 -8.827598047442227e-06 2.756685663441573e-06
69 3.528488821482207e-05 -1.1922496235736275e-05 6.63051216320936e-07
150 -4.4459184096319375e-05 -4.198824408509981e-05 -3.448719800440233e-05
142 -0.00011643634932759035 -0.0001372733636947397 8.798159493584576e-05
149 1.2262020698986568e-06 1.952114464825708e-05 3.529672841064355e-05
147 1.878990172370018e-05 -2.0020087699067094e-06 -5.568284233465739e-06
155 8.295639088771378e-05 4.3958814615990184e-05 -1.3699686964694008e-05
287 9.803094508044637e-06 6.482127889469926e-06 -8.345292194827611e-06
216 7.007788134111649e-05 3.156475251004801e-05 -1.2893209997502074e-05
312 1.3506765822675473e-05 8.099298321195522e-06 -1.0169625791650942e-05
288 -1.2599504645225722e-05 8.175601681099999e-06 -1.3398771250684215e-05
232 5.821004243795742e-06 4.6071862944504116e-05 -1.0673091930349784e-05
154 8.702542658062967e-05 4.043669698698121e-05 -1.605715698349569e-05
215 4.355706454675941e-05 1.4740631018652083e-05 -1.828024184818389e-05
439 3.905398086871696e-05 1.4545356761862541e-06 -1.3407184692001487e-05
59 5.326487869750784e-05 -1.366737764781212e-05 -7.349661126497615e-06
224 5.524262122422292e-05 -5.4326707286902516e-05 -1.7722811681159802e-05
141 -4.04867619693203e-05 -3.5431889733354985e-05 0.0001443536040759476
139 -9.210322281228048e-05 -8.975123516997868e-05 -0.00012493278866356904
143 -7.73814196286303e-05 -8.027200798404953e-05 5.162158344995356e-05
218 2.8557098162527983e-05 1.9563539018125807e-05 -2.0488667057827013e-05
50 3.86569254471207e-05 1.701497286428899e-05 -2.30518266537659e-05
51 3.630893643824184e-05 2.4387425315732024e-05 -7.490456210693403e-06
137 -5.458502156024654e-05 -4.538245587194372e-05 -6.808775365255173e-05
156 0.00010201845536025006 1.8893011972505588e-05 -1.9893381922046114e-05
220 1.408589973348833e-05 2.082067611544051e-05 3.654807512641387e-05
25 -3.28177621719994e-05 -6.12031241392449e-05 0.00010011794755641906
40 2.4325852134491965e-05 3.0481001023252407e-05 -4.0942735840762e-05
138 -1.914213357687057e-06 2.0332992728885324e-05 -0.00010776715560736025
164 3.091907951258033e-05 3.991646861949587e-06 -3.032874811386072e-05
230 9.016006617762592e-05 8.126475886483862e-05 -0.00015646845983100307
152 0.00012111643126730168 7.11617576777484e-05 3.467239538625489e-06
13 -8.927821739426547e-05 -8.356102604685395e-05 3.22618578630436e-05
18 -3.994659373844022e-05 -5.926834980419397e-05 6.270919252506051e-05
20 3.6756601858673635e-05 7.630940217615993e-06 4.9654027616039436e-05
34 -2.9200836174414206e-05 -2.574382676347296e-05 -1.625086296134146e-06
35 1.956145267962946e-05 -7.959586703401138e-06 1.0757581244305796e-05
39 3.513391809047731e-05 2.8935709045296292e-05 -4.686870340423117e-05
47 4.657016283454879e-05 1.1298974312958794e-05 -4.5804718678841906e-05
14 -8.590023702484452e-05 -6.813014568351548e-05 7.110368302454996e-05
77 2.7421073914478078e-05 -7.350816067118547e-07 -3.8080544556108146e-06
73 2.9737157211095318e-05 -3.0449561306890995e-05 1.5884748192652526e-05
87 3.930205509461458e-06 -2.080323090173345e-05 1.28142056624263e-05
219 1.7708468225728094e-05 1.695535249305383e-05 9.343276708280823e-06
56 7.355354378277516e-05 -3.4086924285665025e-06 -3.2459093784834074e-05
5 -0.00010710225623972547 -8.919350188603986e-05 4.643537250758162e-05
162 3.0040145391643004e-05 4.834864528640864e-05 2.6020293446875713e-06
17 -2.2709330952103696e-05 -3.142932741446225e-05 2.118360082098733e-05
19 1.2339497384391804e-05 -9.415997340772262e-06 4.129306278741661e-05
221 1.4023292713279699e-05 1.9952623651237276e-05 2.6313492637947513e-06
161 4.418223407280444e-05 3.670199179765394e-05 -2.0242264161129826e-05
26 -6.70817188366259e-06 -1.6740108256754475e-05 -8.589724960784065e-06
293 -7.571571614944588e-06 -1.3325024288166258e-05 -2.6982821814201824e-05
289 1.9281277059645053e-05 2.1691799332044147e-05 -1.9387921006362232e-05
295 2.0538191070612185e-05 -2.226325915026253e-05 1.227527718756229e-05
300 3.13515773035501e-05 -1.0410935864427419e-05 1.3471722944413274e-05
302 -2.1945060266614708e-05 1.688248037177563e-05 -3.406779831000505e-05
303 -4.6782391231955385e-06 7.581312629659267e-06 -7.733063274330012e-05
58 5.0320279237453695e-05 -2.4395221611980057e-06 -2.4448427768725702e-05
57 6.328358273740081e-05 -4.276859271662041e-06 -5.4859126820639e-05
55 2.2453601166368608e-05 2.2605869675326e-05 -4.0748328185534965e-05
66 4.8302391126665e-05 -9.236681036384314e-06 -2.762724408347103e-05
217 1.2618713772249676e-05 3.379060748802442e-05 -1.9773095419841626e-05
67 3.9984802156522916e-05 4.709113280310165e-06 -2.175851064954645e-05
311 -3.926230146686716e-06 7.918941676971407e-06 -3.966536356685886e-05
296 -3.530524794757126e-07 8.91040489212867e-06 6.895830117494065e-06
8 -0.00013767621774308673 -8.899763105306347e-05 -1.4304007833201219e-05
314 2.9636978209482706e-06 -7.882553087494233e-07 -9.803117503831793e-05
15 -0.00010742824936266538 -8.019606346770459e-05 -3.560897752876096e-05
7 -0.0001155684163669798 -8.618736101310662e-05 -1.7419044527551463e-05
297 1.4163873504913929e-05 -2.6283792820518836e-05 3.578147826592949e-05
294 1.7822463221401032e-05 -1.4676197839782171e-05 7.618532906193827e-06
301 2.0260046238687578e-06 3.0356443994418137e-06 -6.49035715321023e-05
440 -0.00010772315565316749 -7.068434719345755e-05 -9.023276951542885e-05
313 1.3343810002863574e-05 1.035938147892516e-05 -3.0245697664849932e-05
306 6.452221929413571e-05 -2.648187333483601e-05 -5.941896355312504e-05
304 4.884494913179834e-05 -2.0647627547118953e-05 -4.211792402692022e-05
31 2.6277509843015838e-05 5.9360779264326555e-06 -7.929244723842182e-05
33 5.1757206057528895e-05 2.6966050090875345e-05 -9.70408925539139e-05
307 3.827428644911628e-05 -1.851332670098755e-05 -3.1798985505837014e-05
6 -9.173862232032964e-05 -7.017130591095057e-05 1.3221112580556315e-05
299 2.389590846448937e-05 -2.471905308496497e-05 5.6114568704214125e-05
305 5.874783462781799e-05 -2.46080209020905e-05 -9.449620117856396e-06
298 -1.2062347914850411e-05 -3.781164813667717e-05 3.865504385760416e-05
16 -6.380212463382127e-05 -4.413345281215526e-05 -1.0063524138537197e-05
21 1.8766449691117165e-05 -6.2619781087151e-06 8.134673517282228e-06
23 -4.8725181179684745e-05 -1.8210997410824167e-05 -4.0451866015628176e-05
24 -7.397584805213846e-05 -4.937607244013716e-05 -2.1083338208272248e-05
27 5.4486960374434005e-06 1.2206327470319595e-06 -6.49802930402365e-05
28 -3.8566838418254666e-05 -1.6422097942062456e-06 -9.569504570418333e-05
29 -7.364377704138188e-05 -3.999790631274046e-05 -9.57467849455992e-05
30 4.624210119347629e-05 1.777072875900145e-05 -8.214776685768465e-05
32 6.996049472389636e-05 2.455473741838002e-05 -4.975664154222877e-05
36 -3.168477266624343e-05 2.924760986626756e-05 -0.00011032203094970424
37 1.817933460863803e-05 1.0322077520850149e-05 -6.90609209985821e-05
38 3.8723192760770983e-05 1.214611415467977e-05 -5.8991881482655645e-05
41 4.377257889723323e-05 -1.8690109201659956e-06 -7.64172160983514e-05
42 4.863743518056349e-05 -7.708738057126757e-06 -6.999313096862506e-05
43 4.0779155883320585e-05 -6.821008939458812e-06 -7.134958249170748e-05
44 2.7936087354384825e-05 1.6780863276276657e-06 -6.83211491564905e-05
45 1.8164238287006345e-05 7.32759502050645e-06 -6.655718841445202e-05
46 6.365828637973035e-06 1.2279570236507665e-05 -5.6809229408281804e-05
48 6.1445373981746e-05 3.8007534626865355e-06 -4.871378713599493e-05
49 4.575485164647187e-05 8.862464259790413e-06 -3.455094548695316e-05
52 3.6355310494072564e-05 2.046800555572102e-05 -4.485702660825748e-05
53 2.932998643668307e-05 1.2696685239852265e-05 -3.999727073342969e-05
54 3.4949738179056516e-05 2.3422427620400658e-05 -4.1488891087684035e-05
360 -0.000440977546851577 0.00020171337618666817 0.0008356322382018263
361 -0.0003920487242016677 0.00024085233024887298 0.00038628634016812615
174 1.6452174713026694e-05 -4.383694970997406e-06 -3.562354577835448e-05
167 6.38837368751134e-05 5.250655421007197e-05 -3.533070940582391e-05
175 4.490187311141789e-05 -1.8086330139465834e-05 -8.964217212973929e-05
173 4.9679915902410214e-06 6.907235956986407e-06 -4.9494789831415214e-05
178 4.8121692388762477e-05 1.2598960402658541e-05 -6.0722032864683406e-05
169 1.7171817262086607e-05 -1.7454619936174782e-05 -3.262954062598768e-05
165 5.892507246926189e-05 3.167523093198995e-05 -5.184812353264609e-05
171 3.9134462377290734e-05 2.1265621975569417e-05 -3.0123708646504707e-05
166 6.628111494806784e-05 2.9253024756854664e-05 -6.231815232376883e-05
170 1.483952848637352e-05 1.8254860778290895e-05 2.529967571426902e-06
168 3.0485631685915043e-05 1.0526028019401883e-05 -2.641844171003141e-05
177 2.4279252810724875e-05 -4.30450432916694e-05 -0.00010076952520538076
158 4.7692810961860494e-05 2.8114522358564442e-05 -2.7075279264726182e-05
159 5.012758029376404e-05 2.3078732674640073e-05 -2.4134148480978323e-05
62 6.768435900973013e-05 -1.4243252296347841e-05 -1.0209338656881687e-05
176 7.283598043161654e-05 -2.429175039357869e-05 -8.824787787913198e-05
188 -3.290811042694543e-05 3.58194020944203e-06 -1.1138987015571162e-05
172 1.3330070806419375e-05 -3.91051544868668e-07 -6.792303316700138e-05
185 -8.648340640825517e-06 1.5786497718782242e-05 -9.151431076823447e-05
182 -2.501344132111194e-05 3.3245444549257606e-05 -0.00010078378055976663
160 4.541872087205258e-05 2.693389906851395e-05 -2.4812222918564713e-05
183 -4.0368957272264465e-05 3.624285131264933e-05 -8.018198205603573e-05
184 -2.134664452504362e-05 3.593722718178666e-05 -9.97114911585517e-05
181 -4.390802966016937e-05 3.862826520755986e-05 -9.165501607285757e-05
180 -2.1777692130763203e-05 4.411873579101352e-05 -0.00010329846444567816
179 -2.87562357937007e-05 3.583995573080357e-05 -0.00010395517178097388
191 9.044036492356913e-06 -1.6004951704613203e-05 -5.117426959294255e-05
192 -1.8200963601743295e-05 1.3149093755874054e-05 -8.874881580306002e-05
63 6.331611977792837e-05 -2.1988382102874257e-05 -3.825938181459964e-06
190 -6.685864587740389e-06 -7.691200835728847e-06 -5.992778847633846e-05
189 -8.490754952608554e-06 -5.898442343911071e-06 -6.111285010521076e-05
186 -2.6255623260187172e-05 -3.489132273955791e-08 -2.3760382198843554e-05
65 6.799024633532106e-05 -1.2727933699458104e-05 -1.0120260194685908e-05
199 -1.1789449738082492e-05 -2.1293751194036917e-05 2.625755849227143e-06
187 -3.606508993456754e-05 1.5660637539872805e-05 -2.3679757661759197e-05
198 -7.026994171051115e-06 -1.6876242358680443e-05 4.826518477570193e-05
196 -1.5019925741229218e-05 -8.115786295476064e-06 4.055336107190441e-05
197 -2.295079965050124e-05 1.3114876867288883e-05 4.2274461309222066e-05
163 4.9821024541165496e-05 4.031365210332818e-05 -2.224703084073738e-05
64 5.4525302810891234e-05 -1.713334682162886e-06 -1.3410185423932273e-05
374 -1.1693611160291916e-05 1.8262547551591635e-05 -1.507524509665852e-05
376 -7.941008317812593e-05 7.404100449529088e-06 7.004268812536111e-05
378 -0.00010605905986469588 6.129631887177022e-06 5.3338412435699745e-05
377 -8.236356711327833e-05 -1.3468581096914669e-05 8.416908731229476e-05
381 -5.211987478087308e-05 2.419944833792069e-05 1.674566765554648e-05
80 1.316508777405203e-05 -1.9171175888591706e-05 8.403153155665295e-06
81 -9.571477450726003e-06 -1.3374236208067165e-05 1.0942084923313639e-05
82 0.00012636261319191248 3.5577614398720277e-06 3.877424266168197e-05
84 1.3718484526514293e-06 -2.274640640148825e-05 1.912627912095978e-05
85 -4.0338704637541445e-06 -1.6664882910495875e-05 2.2045671534348375e-05
86 5.509930793781996e-06 -2.168309170740269e-05 2.145948792431587e-05
88 9.344723480243886e-06 -2.233892177481047e-05 8.623670776721516e-06
89 8.973670075856605e-06 -8.999760797366342e-06 1.7122135236470429e-06
90 -3.3996572812793195e-06 -1.935361216432426e-05 7.025681542193307e-06
91 -6.621785118116574e-06 -2.2072994455927624e-05 5.511178878579986e-06
92 -1.2278292241116198e-05 -1.9590284643008346e-05 7.11187137893553e-06
93 -1.1720472810057871e-05 -7.5427294649446424e-06 6.73240977718919e-06
94 -6.330666410827015e-06 -2.1851585866420723e-05 1.8139373258370586e-07
95 -8.222598752605663e-06 -1.8026859595417412e-05 1.852737610333281e-06
96 -2.9842657454067847e-06 -1.979703360030129e-05 -1.5390919190020166e-06
97 -4.852565052383471e-06 -1.893262230102631e-05 -3.648830468540111e-06
98 -4.157908823829847e-06 -1.3127267297662738e-05 5.02502009073297e-06
99 -3.84865141524745e-06 -1.7911808724222035e-05 7.19552051041475e-06
100 -1.3128032516589507e-05 -2.9269165329400663e-05 7.677634211194112e-06
101 -3.4427994940757247e-06 -2.2489074712189934e-05 5.490710670595855e-06
102 -1.294185804528577e-06 -2.2857327688969277e-05 -6.814607493346885e-08
103 3.792418450675751e-06 -2.257086568334966e-05 -7.575806777941363e-06
104 8.822735726707247e-06 -2.550332834064002e-05 -6.156629163269215e-06
105 -7.538186120034673e-06 -1.980572310261788e-05 -2.4103781961895507e-06
106 -4.024169965180262e-06 -1.826525759208527e-05 -5.433827226491617e-06
107 -9.790720749345795e-06 -1.5757122874318774e-05 1.0725617193418035e-06
109 -4.334265906877288e-06 -1.876560775001073e-05 8.064009027543649e-06
110 9.599654488058457e-07 -1.9392981980270407e-05 4.4952817349380915e-06
112 5.5365157298699825e-06 -2.66387849112238e-05 1.428956564646056e-06
113 5.706840760874801e-06 -2.9987802592780846e-05 8.954371704007146e-06
115 -5.0886424261028385e-06 -1.8161565196734044e-05 8.671933966135115e-06
116 -7.19314007359321e-06 -1.2757819606163354e-05 1.4483567622762439e-05
117 -6.213344193309195e-06 -1.2529321253078955e-05 -4.0776332683823465e-07
119 9.65199421170318e-06 -2.3533967834214173e-05 6.657173678374414e-07
120 7.764677969254493e-06 -2.312961754021398e-05 -3.54814564667096e-06
122 1.5660060365647078e-05 -3.7611872601791134e-05 1.3334415063991613e-06
123 2.390566804527525e-05 -3.6795207271849914e-05 -1.3824280262477742e-05
124 2.7231650021672285e-05 -3.83644580180508e-05 -1.7963461992286367e-05
125 2.515927182507908e-05 -4.545585239542173e-05 -1.1727198990389484e-05
126 2.1214149551032345e-05 -2.2255755020242002e-05 -2.0950698880528408e-05
111 6.547749286875589e-06 -1.978785430074689e-05 -1.4360470755564848e-05
128 1.5087603574060492e-05 -1.8284005831392474e-05 -1.4285762699821224e-05
129 1.3218701173290771e-05 -9.834190489539772e-06 -1.8451384143864325e-05
132 2.7566600987832247e-05 -2.8763435878819175e-05 -2.3430980640001112e-05
133 3.543802835085684e-05 -5.0590844118403175e-05 -2.0538571468772364e-05
362 -4.513651573415486e-06 -2.8480841987585192e-05 1.2973107437178941e-05
364 1.1078617973410415e-06 -1.4658053094871748e-05 -1.354750085036548e-06
369 -3.428590049711248e-05 8.113296479673624e-05 -4.739719368187496e-05
370 -5.370681654910971e-05 0.00011383844244306853 -2.8555192231209185e-05
371 -1.0303350959919219e-05 9.294387750813919e-05 -8.522592671471068e-05
375 2.708368661700304e-05 -1.882263758400668e-05 1.0592684698331867e-05
76 2.5002175888007045e-05 -3.189227587535984e-05 1.5833452008485283e-05
292 6.98870857396368e-06 -1.6314642196593437e-06 3.9774247241824735e-06
438 1.797049232356266e-05 -2.9110350086361357e-05 -1.4646352182621336e-05
437 7.730390290235642e-07 -1.4291926723219138e-05 5.649338485715433e-06
71 3.0228540089622828e-05 -2.023147331487731e-05 6.875690940873023e-06
108 -1.0211540239924005e-05 -1.524852882766267e-05 -4.240150862783013e-06
372 -2.457479909152633e-05 1.7449181073514058e-05 -1.828289788182e-05
373 -6.130624661849785e-05 -7.48172947136287e-06 -1.8339078576160788e-05
70 2.7284514263556274e-05 -2.1193886430294203e-05 9.289002156996245e-06
380 -2.2504361501087796e-05 6.169186066525586e-05 4.663101617164922e-05
290 3.9732771210984795e-06 -3.6726088676342022e-06 2.4113636858934467e-06
363 -2.628803441045498e-05 -2.9086979634172294e-05 1.0612497310213418e-06
127 2.4391362151655053e-05 -2.040124705159607e-05 -2.6294036765434416e-05
72 2.7315472888957093e-05 -7.482119910161351e-06 -2.4082276849457366e-08
382 -3.5345055313443693e-05 4.43570945364461e-05 -2.9872895060168013e-05
379 -4.833735000944041e-05 3.9836021002426357e-05 2.859254006967158e-05
131 1.6167456699745953e-05 -4.0431921214147065e-05 3.443050485840176e-06
367 1.1955314530434067e-05 -6.690392887890033e-05 6.456915583766533e-05
366 -3.337490141747362e-05 -5.191106732204335e-05 6.460310168449232e-05
136 3.4705637880199705e-05 -5.163653487895882e-05 -1.7989321107877335e-05
114 8.90353436996755e-06 -3.3487141548968774e-05 2.4595987230930307e-05
118 -6.302685759229039e-06 -1.4574204233577625e-05 9.430505995724237e-06
368 1.6680544127164675e-05 -4.780071305875562e-05 2.8111304549395423e-05
121 6.239840480425961e-06 -3.592417131936804e-05 3.3918537837649135e-05
365 -4.332849739434148e-06 -5.553767888508307e-05 5.086600149096895e-05
130 1.2223417165696921e-05 -3.192090196557285e-05 5.20160266653194e-06
83 -0.00011674693774101373 -3.972074355476784e-05 -2.920831409812321e-05
135 2.7776796275408847e-05 -3.950447473918406e-05 -1.4279587971069647e-05
291 5.101695330848634e-06 -5.308537975814407e-06 4.033879271123657e-06
134 3.670454764228687e-05 -4.781219037800211e-05 -2.4616951053729967e-05
79 2.522095179612626e-05 -2.871870868609733e-05 1.0830137373786801e-05

Bonds

1 12 278 279
2 12 278 280
3 13 278 281
4 12 283 282
5 12 283 284
6 12 283 285
7 13 283 286
8 11 275 278
9 12 275 276
10 12 275 277
11 13 275 286
12 12 433 432
13 12 433 434
14 12 433 435
15 13 433 436
16 11 193 196
17 12 193 194
18 12 193 195
19 13 193 206
20 12 203 204
21 12 203 205
22 13 203 206
23 12 208 207
24 12 208 209
25 12 208 210
26 13 208 211
27 11 200 203
28 12 200 201
29 12 200 202
30 13 200 211
31 11 343 346
32 12 343 344
33 12 343 345
34 13 343 356
35 12 346 347
36 12 346 348
37 13 346 349
38 11 336 339
39 12 336 337
40 12 336 338
41 13 336 349
42 12 339 340
43 12 339 341
44 13 339 342
45 1 1 4
46 1 1 2
47 1 1 3
48 2 1 5
49 6 9 6
50 1 9 12
51 1 9 10
52 1 9 11
53 11 254 257
54 12 254 255
55 12 254 256
56 13 254 267
57 12 271 272
58 12 271 273
59 13 271 274
60 11 268 271
61 12 268 269
62 12 268 270
63 13 268 281
64 12 414 415
65 12 414 416
66 13 414 417
67 11 425 428
68 12 425 426
69 12 425 427
70 13 425 436
71 12 428 429
72 12 428 430
73 13 428 431
74 12 421 422
75 12 421 423
76 13 421 424
77 11 404 407
78 12 404 405
79 12 404 406
80 13 404 417
81 12 264 265
82 12 264 266
83 13 264 267
84 11 418 421
85 12 418 419
86 12 418 420
87 13 418 431
88 11 261 264
89 12 261 262
90 12 261 263
91 13 261 274
92 11 411 414
93 12 411 412
94 12 411 413
95 13 411 424
96 12 407 408
97 12 407 409
98 13 407 410
99 11 247 250
100 12 247 248
101 12 247 249
102 13 247 260
103 11 233 236
104 12 233 234
105 12 233 235
106 13 233 246
107 11 240 243
108 12 240 241
109 12 240 242
110 13 240 253
111 12 243 244
112 12 243 245
113 13 243 246
114 12 250 251
115 12 250 252
116 13 250 253
117 11 390 393
118 12 390 391
119 12 390 392
120 13 390 403
121 11 397 400
122 12 397 398
123 12 397 399
124 13 397 410
125 12 400 401
126 12 400 402
127 13 400 403
128 11 383 386
129 12 383 384
130 12 383 385
131 13 383 396
132 12 393 394
133 12 393 395
134 13 393 396
135 11 226 229
136 12 226 227
137 12 226 228
138 13 226 239
139 12 236 237
140 12 236 238
141 13 236 239
142 12 318 319
143 12 318 320
144 13 318 321
145 12 386 387
146 12 386 388
147 13 386 389
148 12 257 258
149 12 257 259
150 13 257 260
151 12 229 230
152 12 229 231
153 13 229 232
154 11 329 332
155 12 329 330
156 12 329 331
157 13 329 342
158 11 350 353
159 12 350 351
160 12 350 352
161 13 350 361
162 11 322 325
163 12 322 323
164 12 322 324
165 13 322 335
166 12 325 326
167 12 325 327
168 13 325 328
169 11 315 318
170 12 315 316
171 12 315 317
172 13 315 328
173 11 308 311
174 12 308 309
175 12 308 310
176 13 308 321
177 12 332 333
178 12 332 334
179 13 332 335
180 12 353 354
181 12 353 355
182 13 353 356
183 12 358 357
184 12 358 359
185 12 358 360
186 13 358 361
187 12 140 141
188 12 140 142
189 14 140 143
190 11 151 154
191 12 151 152
192 12 151 153
193 13 151 164
194 11 144 147
195 12 144 145
196 12 144 146
197 13 144 157
198 11 212 215
199 12 212 213
200 12 212 214
201 13 212 225
202 12 222 223
203 12 222 224
204 13 222 225
205 7 60 61
206 7 60 68
207 3 78 69
208 4 69 59
209 4 69 70
210 12 147 148
211 12 147 149
212 13 147 150
213 11 287 290
214 12 287 288
215 12 287 289
216 13 287 300
217 12 154 155
218 12 154 156
219 13 154 157
220 12 215 216
221 12 215 217
222 14 215 218
223 5 59 60
224 9 50 51
225 10 50 218
226 11 137 140
227 12 137 138
228 12 137 139
229 13 137 150
230 3 13 5
231 9 18 25
232 10 18 143
233 3 34 26
234 3 35 26
235 7 39 40
236 7 39 47
237 3 14 5
238 3 77 69
239 6 73 70
240 1 73 76
241 1 73 74
242 1 73 75
243 11 219 222
244 12 219 220
245 12 219 221
246 13 219 232
247 3 56 48
248 4 5 6
249 8 17 18
250 6 19 17
251 1 19 22
252 1 19 20
253 1 19 21
254 12 161 162
255 12 161 163
256 13 161 164
257 4 26 17
258 4 26 27
259 4 58 49
260 4 58 59
261 3 57 48
262 3 66 58
263 3 67 58
264 12 311 312
265 12 311 313
266 13 311 314
267 7 7 8
268 7 7 15
269 12 297 298
270 12 297 299
271 13 297 300
272 11 294 297
273 12 294 295
274 12 294 296
275 13 294 307
276 11 301 304
277 12 301 302
278 12 301 303
279 13 301 314
280 12 304 305
281 12 304 306
282 13 304 307
283 5 6 7
284 4 16 6
285 4 16 17
286 3 23 16
287 3 24 16
288 5 27 28
289 7 28 29
290 7 28 36
291 6 30 27
292 1 30 33
293 1 30 31
294 1 30 32
295 4 37 27
296 4 37 38
297 5 38 39
298 6 41 38
299 1 41 44
300 1 41 42
301 1 41 43
302 3 45 37
303 3 46 37
304 4 48 38
305 4 48 49
306 8 49 50
307 6 52 49
308 1 52 55
309 1 52 53
310 1 52 54
311 12 175 176
312 12 175 177
313 13 175 178
314 11 165 168
315 12 165 166
316 12 165 167
317 13 165 178
318 12 168 169
319 12 168 170
320 13 168 171
321 11 158 161
322 12 158 159
323 12 158 160
324 13 158 171
325 6 62 59
326 1 62 65
327 1 62 63
328 1 62 64
329 11 172 175
330 12 172 173
331 12 172 174
332 13 172 185
333 12 182 183
334 12 182 184
335 13 182 185
336 11 179 182
337 12 179 180
338 12 179 181
339 13 179 192
340 12 189 190
341 12 189 191
342 13 189 192
343 11 186 189
344 12 186 187
345 12 186 188
346 13 186 199
347 12 196 197
348 12 196 198
349 13 196 199
350 11 376 379
351 12 376 377
352 12 376 378
353 13 376 389
354 4 80 70
355 4 80 81
356 8 81 82
357 9 82 83
358 10 82 293
359 6 84 81
360 1 84 87
361 1 84 85
362 1 84 86
363 3 88 80
364 3 89 80
365 4 90 81
366 4 90 91
367 5 91 92
368 7 92 93
369 7 92 100
370 6 94 91
371 1 94 97
372 1 94 95
373 1 94 96
374 3 98 90
375 3 99 90
376 4 101 91
377 4 101 102
378 5 102 103
379 7 103 104
380 7 103 111
381 6 105 102
382 1 105 108
383 1 105 106
384 1 105 107
385 3 109 101
386 3 110 101
387 4 112 102
388 4 112 113
389 8 113 114
390 6 115 113
391 1 115 118
392 1 115 116
393 1 115 117
394 3 119 112
395 3 120 112
396 4 122 113
397 4 122 123
398 5 123 124
399 7 124 125
400 7 124 132
401 6 126 123
402 1 126 129
403 1 126 127
404 1 126 128
405 6 133 123
406 1 133 134
407 1 133 135
408 1 133 136
409 11 362 365
410 12 362 363
411 12 362 364
412 13 362 375
413 11 369 372
414 12 369 370
415 12 369 371
416 13 369 382
417 7 71 72
418 7 71 79
419 12 372 373
420 12 372 374
421 13 372 375
422 5 70 71
423 12 290 291
424 12 290 292
425 14 290 293
426 12 379 380
427 12 379 381
428 13 379 382
429 3 131 122
430 9 114 121
431 10 114 368
432 12 365 366
433 12 365 367
434 14 365 368
435 3 130 122

Angles

1 28 268 281 278
2 28 275 286 283
3 21 275 278 279
4 21 275 278 280
5 22 275 278 281
6 23 279 278 280
7 24 279 278 281
8 24 280 278 281
9 23 284 283 285
10 24 284 283 286
11 23 284 283 282
12 24 285 283 286
13 23 285 283 282
14 24 282 283 286
15 21 278 275 276
16 21 278 275 277
17 22 278 275 286
18 23 276 275 277
19 24 276 275 286
20 24 277 275 286
21 23 434 433 435
22 24 434 433 436
23 23 434 433 432
24 24 435 433 436
25 23 435 433 432
26 24 432 433 436
27 28 200 211 208
28 21 196 193 194
29 21 196 193 195
30 22 196 193 206
31 23 194 193 195
32 24 194 193 206
33 24 195 193 206
34 21 200 203 204
35 21 200 203 205
36 22 200 203 206
37 23 204 203 205
38 24 204 203 206
39 24 205 203 206
40 23 209 208 210
41 24 209 208 211
42 23 209 208 207
43 24 210 208 211
44 23 210 208 207
45 24 207 208 211
46 28 193 206 203
47 21 203 200 201
48 21 203 200 202
49 22 203 200 211
50 23 201 200 202
51 24 201 200 211
52 24 202 200 211
53 21 346 343 344
54 21 346 343 345
55 22 346 343 356
56 23 344 343 345
57 24 344 343 356
58 24 345 343 356
59 28 336 349 346
60 21 343 346 347
61 21 343 346 348
62 22 343 346 349
63 23 347 346 348
64 24 347 346 349
65 24 348 346 349
66 21 339 336 337
67 21 339 336 338
68 22 339 336 349
69 23 337 336 338
70 24 337 336 349
71 24 338 336 349
72 21 336 339 340
73 21 336 339 341
74 22 336 339 342
75 23 340 339 341
76 24 340 339 342
77 24 341 339 342
78 1 4 1 2
79 1 4 1 3
80 2 4 1 5
81 1 2 1 3
82 2 2 1 5
83 2 3 1 5
84 13 12 9 6
85 13 10 9 6
86 13 11 9 6
87 1 12 9 10
88 1 12 9 11
89 1 10 9 11
90 21 257 254 255
91 21 257 254 256
92 22 257 254 267
93 23 255 254 256
94 24 255 254 267
95 24 256 254 267
96 28 411 424 421
97 21 268 271 272
98 21 268 271 273
99 22 268 271 274
100 23 272 271 273
101 24 272 271 274
102 24 273 271 274
103 21 271 268 269
104 21 271 268 270
105 22 271 268 281
106 23 269 268 270
107 24 269 268 281
108 24 270 268 281
109 28 425 436 433
110 28 254 267 264
111 21 411 414 415
112 21 411 414 416
113 22 411 414 417
114 23 415 414 416
115 24 415 414 417
116 24 416 414 417
117 21 428 425 426
118 21 428 425 427
119 22 428 425 436
120 23 426 425 427
121 24 426 425 436
122 24 427 425 436
123 28 404 417 414
124 21 425 428 429
125 21 425 428 430
126 22 425 428 431
127 23 429 428 430
128 24 429 428 431
129 24 430 428 431
130 21 418 421 422
131 21 418 421 423
132 22 418 421 424
133 23 422 421 423
134 24 422 421 424
135 24 423 421 424
136 21 407 404 405
137 21 407 404 406
138 22 407 404 417
139 23 405 404 406
140 24 405 404 417
141 24 406 404 417
142 21 261 264 265
143 21 261 264 266
144 22 261 264 267
145 23 265 264 266
146 24 265 264 267
147 24 266 264 267
148 28 418 431 428
149 21 421 418 419
150 21 421 418 420
151 22 421 418 431
152 23 419 418 420
153 24 419 418 431
154 24 420 418 431
155 28 261 274 271
156 21 264 261 262
157 21 264 261 263
158 22 264 261 274
159 23 262 261 263
160 24 262 261 274
161 24 263 261 274
162 21 414 411 412
163 21 414 411 413
164 22 414 411 424
165 23 412 411 413
166 24 412 411 424
167 24 413 411 424
168 21 404 407 408
169 21 404 407 409
170 22 404 407 410
171 23 408 407 409
172 24 408 407 410
173 24 409 407 410
174 21 250 247 248
175 21 250 247 249
176 22 250 247 260
177 23 248 247 249
178 24 248 247 260
179 24 249 247 260
180 21 236 233 234
181 21 236 233 235
182 22 236 233 246
183 23 234 233 235
184 24 234 233 246
185 24 235 233 246
186 21 243 240 241
187 21 243 240 242
188 22 243 240 253
189 23 241 240 242
190 24 241 240 253
191 24 242 240 253
192 21 240 243 244
193 21 240 243 245
194 22 240 243 246
195 23 244 243 245
196 24 244 243 246
197 24 245 243 246
198 28 233 246 243
199 21 247 250 251
200 21 247 250 252
201 22 247 250 253
202 23 251 250 252
203 24 251 250 253
204 24 252 250 253
205 28 240 253 250
206 28 226 239 236
207 21 393 390 391
208 21 393 390 392
209 22 393 390 403
210 23 391 390 392
211 24 391 390 403
212 24 392 390 403
213 21 400 397 398
214 21 400 397 399
215 22 400 397 410
216 23 398 397 399
217 24 398 397 410
218 24 399 397 410
219 21 397 400 401
220 21 397 400 402
221 22 397 400 403
222 23 401 400 402
223 24 401 400 403
224 24 402 400 403
225 28 390 403 400
226 21 386 383 384
227 21 386 383 385
228 22 386 383 396
229 23 384 383 385
230 24 384 383 396
231 24 385 383 396
232 28 397 410 407
233 28 383 396 393
234 21 390 393 394
235 21 390 393 395
236 22 390 393 396
237 23 394 393 395
238 24 394 393 396
239 24 395 393 396
240 21 229 226 227
241 21 229 226 228
242 22 229 226 239
243 23 227 226 228
244 24 227 226 239
245 24 228 226 239
246 28 308 321 318
247 28 247 260 257
248 21 233 236 237
249 21 233 236 238
250 22 233 236 239
251 23 237 236 238
252 24 237 236 239
253 24 238 236 239
254 21 315 318 319
255 21 315 318 320
256 22 315 318 321
257 23 319 318 320
258 24 319 318 321
259 24 320 318 321
260 21 383 386 387
261 21 383 386 388
262 22 383 386 389
263 23 387 386 388
264 24 387 386 389
265 24 388 386 389
266 28 376 389 386
267 21 254 257 258
268 21 254 257 259
269 22 254 257 260
270 23 258 257 259
271 24 258 257 260
272 24 259 257 260
273 21 226 229 230
274 21 226 229 231
275 22 226 229 232
276 23 230 229 231
277 24 230 229 232
278 24 231 229 232
279 21 332 329 330
280 21 332 329 331
281 22 332 329 342
282 23 330 329 331
283 24 330 329 342
284 24 331 329 342
285 21 353 350 351
286 21 353 350 352
287 22 353 350 361
288 23 351 350 352
289 24 351 350 361
290 24 352 350 361
291 28 329 342 339
292 21 325 322 323
293 21 325 322 324
294 22 325 322 335
295 23 323 322 324
296 24 323 322 335
297 24 324 322 335
298 21 322 325 326
299 21 322 325 327
300 22 322 325 328
301 23 326 325 327
302 24 326 325 328
303 24 327 325 328
304 28 315 328 325
305 21 318 315 316
306 21 318 315 317
307 22 318 315 328
308 23 316 315 317
309 24 316 315 328
310 24 317 315 328
311 21 311 308 309
312 21 311 308 310
313 22 311 308 321
314 23 309 308 310
315 24 309 308 321
316 24 310 308 321
317 28 322 335 332
318 21 329 332 333
319 21 329 332 334
320 22 329 332 335
321 23 333 332 334
322 24 333 332 335
323 24 334 332 335
324 21 350 353 354
325 21 350 353 355
326 22 350 353 356
327 23 354 353 355
328 24 354 353 356
329 24 355 353 356
330 23 359 358 360
331 24 359 358 361
332 23 359 358 357
333 24 360 358 361
334 23 360 358 357
335 24 357 358 361
336 28 343 356 353
337 21 137 140 141
338 21 137 140 142
339 25 137 140 143
340 23 141 140 142
341 26 141 140 143
342 26 142 140 143
343 21 154 151 152
344 21 154 151 153
345 22 154 151 164
346 23 152 151 153
347 24 152 151 164
348 24 153 151 164
349 21 147 144 145
350 21 147 144 146
351 22 147 144 157
352 23 145 144 146
353 24 145 144 157
354 24 146 144 157
355 28 144 157 154
356 21 215 212 213
357 21 215 212 214
358 22 215 212 225
359 23 213 212 214
360 24 213 212 225
361 24 214 212 225
362 21 219 222 223
363 21 219 222 224
364 22 219 222 225
365 23 223 222 224
366 24 223 222 225
367 24 224 222 225
368 28 212 225 222
369 11 59 60 61
370 11 59 60 68
371 12 61 60 68
372 3 77 69 59
373 14 59 69 70
374 3 78 69 59
375 3 77 69 70
376 4 77 69 78
377 3 78 69 70
378 28 137 150 147
379 21 144 147 148
380 21 144 147 149
381 22 144 147 150
382 23 148 147 149
383 24 148 147 150
384 24 149 147 150
385 21 290 287 288
386 21 290 287 289
387 22 290 287 300
388 23 288 287 289
389 24 288 287 300
390 24 289 287 300
391 28 219 232 229
392 21 151 154 155
393 21 151 154 156
394 22 151 154 157
395 23 155 154 156
396 24 155 154 157
397 24 156 154 157
398 21 212 215 216
399 21 212 215 217
400 25 212 215 218
401 23 216 215 217
402 26 216 215 218
403 26 217 215 218
404 7 58 59 60
405 8 62 59 58
406 9 58 59 69
407 10 62 59 60
408 7 69 59 60
409 8 62 59 69
410 27 18 143 140
411 27 50 218 215
412 17 49 50 51
413 18 49 50 218
414 19 51 50 218
415 21 140 137 138
416 21 140 137 139
417 22 140 137 150
418 23 138 137 139
419 24 138 137 150
420 24 139 137 150
421 28 151 164 161
422 17 17 18 25
423 18 17 18 143
424 19 25 18 143
425 11 38 39 40
426 11 38 39 47
427 12 40 39 47
428 13 76 73 70
429 13 74 73 70
430 13 75 73 70
431 1 76 73 74
432 1 76 73 75
433 1 74 73 75
434 21 222 219 220
435 21 222 219 221
436 22 222 219 232
437 23 220 219 221
438 24 220 219 232
439 24 221 219 232
440 3 13 5 6
441 4 13 5 14
442 5 1 5 13
443 3 14 5 6
444 6 1 5 6
445 5 1 5 14
446 15 16 17 18
447 8 19 17 16
448 9 16 17 26
449 16 19 17 18
450 15 26 17 18
451 8 19 17 26
452 13 22 19 17
453 13 20 19 17
454 13 21 19 17
455 1 22 19 20
456 1 22 19 21
457 1 20 19 21
458 21 158 161 162
459 21 158 161 163
460 22 158 161 164
461 23 162 161 163
462 24 162 161 164
463 24 163 161 164
464 3 34 26 17
465 14 17 26 27
466 3 35 26 17
467 3 34 26 27
468 4 34 26 35
469 3 35 26 27
470 27 82 293 290
471 28 287 300 297
472 3 66 58 49
473 14 49 58 59
474 3 67 58 49
475 3 66 58 59
476 4 66 58 67
477 3 67 58 59
478 21 308 311 312
479 21 308 311 313
480 22 308 311 314
481 23 312 311 313
482 24 312 311 314
483 24 313 311 314
484 28 301 314 311
485 11 6 7 8
486 11 6 7 15
487 12 8 7 15
488 21 294 297 298
489 21 294 297 299
490 22 294 297 300
491 23 298 297 299
492 24 298 297 300
493 24 299 297 300
494 21 297 294 295
495 21 297 294 296
496 22 297 294 307
497 23 295 294 296
498 24 295 294 307
499 24 296 294 307
500 21 304 301 302
501 21 304 301 303
502 22 304 301 314
503 23 302 301 303
504 24 302 301 314
505 24 303 301 314
506 21 301 304 305
507 21 301 304 306
508 22 301 304 307
509 23 305 304 306
510 24 305 304 307
511 24 306 304 307
512 28 294 307 304
513 7 5 6 7
514 8 9 6 5
515 9 5 6 16
516 10 9 6 7
517 7 16 6 7
518 8 9 6 16
519 3 23 16 6
520 14 6 16 17
521 3 24 16 6
522 3 23 16 17
523 4 23 16 24
524 3 24 16 17
525 7 26 27 28
526 8 30 27 26
527 9 26 27 37
528 10 30 27 28
529 7 37 27 28
530 8 30 27 37
531 11 27 28 29
532 11 27 28 36
533 12 29 28 36
534 13 33 30 27
535 13 31 30 27
536 13 32 30 27
537 1 33 30 31
538 1 33 30 32
539 1 31 30 32
540 3 45 37 27
541 14 27 37 38
542 3 46 37 27
543 3 45 37 38
544 4 45 37 46
545 3 46 37 38
546 7 37 38 39
547 8 41 38 37
548 9 37 38 48
549 10 41 38 39
550 7 48 38 39
551 8 41 38 48
552 13 44 41 38
553 13 42 41 38
554 13 43 41 38
555 1 44 41 42
556 1 44 41 43
557 1 42 41 43
558 3 56 48 38
559 14 38 48 49
560 3 57 48 38
561 3 56 48 49
562 4 56 48 57
563 3 57 48 49
564 15 48 49 50
565 8 52 49 48
566 9 48 49 58
567 16 52 49 50
568 15 58 49 50
569 8 52 49 58
570 13 55 52 49
571 13 53 52 49
572 13 54 52 49
573 1 55 52 53
574 1 55 52 54
575 1 53 52 54
576 28 350 361 358
577 21 172 175 176
578 21 172 175 177
579 22 172 175 178
580 23 176 175 177
581 24 176 175 178
582 24 177 175 178
583 28 165 178 175
584 21 168 165 166
585 21 168 165 167
586 22 168 165 178
587 23 166 165 167
588 24 166 165 178
589 24 167 165 178
590 28 158 171 168
591 21 165 168 169
592 21 165 168 170
593 22 165 168 171
594 23 169 168 170
595 24 169 168 171
596 24 170 168 171
597 21 161 158 159
598 21 161 158 160
599 22 161 158 171
600 23 159 158 160
601 24 159 158 171
602 24 160 158 171
603 13 65 62 59
604 13 63 62 59
605 13 64 62 59
606 1 65 62 63
607 1 65 62 64
608 1 63 62 64
609 21 175 172 173
610 21 175 172 174
611 22 175 172 185
612 23 173 172 174
613 24 173 172 185
614 24 174 172 185
615 28 172 185 182
616 21 179 182 183
617 21 179 182 184
618 22 179 182 185
619 23 183 182 184
620 24 183 182 185
621 24 184 182 185
622 21 182 179 180
623 21 182 179 181
624 22 182 179 192
625 23 180 179 181
626 24 180 179 192
627 24 181 179 192
628 28 179 192 189
629 21 186 189 190
630 21 186 189 191
631 22 186 189 192
632 23 190 189 191
633 24 190 189 192
634 24 191 189 192
635 21 189 186 187
636 21 189 186 188
637 22 189 186 199
638 23 187 186 188
639 24 187 186 199
640 24 188 186 199
641 28 186 199 196
642 21 193 196 197
643 21 193 196 198
644 22 193 196 199
645 23 197 196 198
646 24 197 196 199
647 24 198 196 199
648 21 379 376 377
649 21 379 376 378
650 22 379 376 389
651 23 377 376 378
652 24 377 376 389
653 24 378 376 389
654 3 88 80 70
655 14 70 80 81
656 3 89 80 70
657 3 88 80 81
658 4 88 80 89
659 3 89 80 81
660 15 80 81 82
661 8 84 81 80
662 9 80 81 90
663 16 84 81 82
664 15 90 81 82
665 8 84 81 90
666 17 81 82 83
667 18 81 82 293
668 19 83 82 293
669 13 87 84 81
670 13 85 84 81
671 13 86 84 81
672 1 87 84 85
673 1 87 84 86
674 1 85 84 86
675 3 98 90 81
676 14 81 90 91
677 3 99 90 81
678 3 98 90 91
679 4 98 90 99
680 3 99 90 91
681 7 90 91 92
682 8 94 91 90
683 9 90 91 101
684 10 94 91 92
685 7 101 91 92
686 8 94 91 101
687 11 91 92 93
688 11 91 92 100
689 12 93 92 100
690 13 97 94 91
691 13 95 94 91
692 13 96 94 91
693 1 97 94 95
694 1 97 94 96
695 1 95 94 96
696 3 109 101 91
697 14 91 101 102
698 3 110 101 91
699 3 109 101 102
700 4 109 101 110
701 3 110 101 102
702 7 101 102 103
703 8 105 102 101
704 9 101 102 112
705 10 105 102 103
706 7 112 102 103
707 8 105 102 112
708 11 102 103 104
709 11 102 103 111
710 12 104 103 111
711 13 108 105 102
712 13 106 105 102
713 13 107 105 102
714 1 108 105 106
715 1 108 105 107
716 1 106 105 107
717 3 119 112 102
718 14 102 112 113
719 3 120 112 102
720 3 119 112 113
721 4 119 112 120
722 3 120 112 113
723 15 112 113 114
724 8 115 113 112
725 9 112 113 122
726 16 115 113 114
727 15 122 113 114
728 8 115 113 122
729 13 118 115 113
730 13 116 115 113
731 13 117 115 113
732 1 118 115 116
733 1 118 115 117
734 1 116 115 117
735 3 130 122 113
736 14 113 122 123
737 3 131 122 113
738 3 130 122 123
739 4 130 122 131
740 3 131 122 123
741 7 122 123 124
742 8 126 123 122
743 8 133 123 122
744 10 126 123 124
745 10 133 123 124
746 20 126 123 133
747 11 123 124 125
748 11 123 124 132
749 12 125 124 132
750 13 129 126 123
751 13 127 126 123
752 13 128 126 123
753 1 129 126 127
754 1 129 126 128
755 1 127 126 128
756 13 134 133 123
757 13 135 133 123
758 13 136 133 123
759 1 134 133 135
760 1 134 133 136
761 1 135 133 136
762 21 365 362 363
763 21 365 362 364
764 22 365 362 375
765 23 363 362 364
766 24 363 362 375
767 24 364 362 375
768 21 372 369 370
769 21 372 369 371
770 22 372 369 382
771 23 370 369 371
772 24 370 369 382
773 24 371 369 382
774 28 362 375 372
775 11 70 71 72
776 11 70 71 79
777 12 72 71 79
778 21 369 372 373
779 21 369 372 374
780 22 369 372 375
781 23 373 372 374
782 24 373 372 375
783 24 374 372 375
784 7 69 70 71
785 8 73 70 69
786 9 69 70 80
787 10 73 70 71
788 7 80 70 71
789 8 73 70 80
790 21 287 290 291
791 21 287 290 292
792 25 287 290 293
793 23 291 290 292
794 26 291 290 293
795 26 292 290 293
796 28 369 382 379
797 21 376 379 380
798 21 376 379 381
799 22 376 379 382
800 23 380 379 381
801 24 380 379 382
802 24 381 379 382
803 17 113 114 121
804 18 113 114 368
805 19 121 114 368
806 27 114 368 365
807 21 362 365 366
808 21 362 365 367
809 25 362 365 368
810 23 366 365 367
811 26 366 365 368
812 26 367 365 368
