LAMMPS data file. msi2lmp v3.9.10 / 10 Mar 2023 / CGCMM for output_uniformatom

   4690 atoms
   3012 bonds
   3364 angles
      0 dihedrals
      0 impropers

  10 atom types
   6 bond types
   8 angle types


    -0.750523958    44.308676042 xlo xhi
    -0.216335289    29.483664711 ylo yhi
     6.995305819    62.969305819 zlo zhi

Masses

   1  40.080000 # casl
   2  28.086000 # sc2
   3  15.999400 # oc13
   4  15.999400 # oc12
   5  15.999400 # o*
   6   1.007970 # h*
   7  15.999400 # oc14
   8   1.008000 # hoy
   9  15.999400 # Oh
  10   1.008000 # Ho


Atoms # full

      1      1   1  1.500000     3.067016863     3.790430048    35.968892395   0   0   0 # casl
      2      1   1  1.500000     0.329676647     5.607383869    33.995808858   0   0   0 # casl
      3      1   2  1.000000     3.140237962     3.452849158    32.890322411   0   0   0 # sc2
      4      1   2  1.000000     3.100811088     0.323073683    32.887523664   0   0   0 # sc2
      5      1   3 -0.620000     3.151502591     4.381013869    31.479777505   0   0   0 # oc13
      6      1   4 -0.620000     3.196561780     1.953196556    32.302595471   0   0   0 # oc12
      7      1   3 -0.930000     4.390627950     3.880457653    33.780309063   0   0   0 # oc13
      8      1   3 -0.930000     1.833524156     3.678443208    33.766315327   0   0   0 # oc13
      9      1   5 -0.820000     0.560604573     5.582205810    31.614115294   0   0   0 # o*
     10      1   3 -0.620000     3.190929466     6.939064403    31.490972495   0   0   0 # oc13
     11      1   3 -0.930000     1.737773462     0.199495128    33.771912821   0   0   0 # oc13
     12      1   5 -0.820000     0.588766483     3.833717087    28.070961001   0   0   0 # o*
     13      1   1  1.700000     3.866815964     0.065883821    28.040175301   0   0   0 # casl
     14      1   5 -0.820000     3.044487269     3.834900936    27.987000000   0   0   0 # o*
     15      1   1  1.500000     0.250823234     5.636807498    49.962392395   0   0   0 # casl
     16      1   1  1.500000     3.145870277     3.761006418    47.989308858   0   0   0 # casl
     17      1   2  1.000000     0.324044332     5.299226608    46.883822411   0   0   0 # sc2
     18      1   2  1.000000     0.284617458     2.169451133    46.881023664   0   0   0 # sc2
     19      1   3 -0.620000     0.335308962     6.227391319    45.473277505   0   0   0 # oc13
     20      1   4 -0.620000     0.380368151     3.799574007    46.296095471   0   0   0 # oc12
     21      1   3 -0.930000     1.574434320     5.726835103    47.773809063   0   0   0 # oc13
     22      1   3 -0.930000    44.076530526     5.524820658    47.759815327  -1   0   0 # oc13
     23      1   5 -0.820000     3.376798202     3.735828360    45.607615294   0   0   0 # o*
     24      1   3 -0.620000     0.374735836     1.360441853    45.484472495   0   0   0 # oc13
     25      1   3 -0.930000    43.980779833     2.045872578    47.765412821  -1   0   0 # oc13
     26      1   5 -0.820000     1.450521780     7.404450529    40.413227952   0   0   0 # o*
     27      1   1  1.500000     3.067016863     7.502930047    47.992107605   0   0   0 # casl
     28      1   1  1.500000     0.329676647     1.894883868    49.965191142   0   0   0 # casl
     29      1   2  1.000000     3.140237962     7.165349157    51.070677589   0   0   0 # sc2
     30      1   2  1.000000     3.100811088     4.035573682    51.073476336   0   0   0 # sc2
     31      1   3 -0.620000     3.151502591     0.668513868    52.481222495   0   0   0 # oc13
     32      1   4 -0.620000     3.196561781     5.665696556    51.658404529   0   0   0 # oc12
     33      1   3 -0.930000     1.833524155     7.390943209    50.194684673   0   0   0 # oc13
     34      1   3 -0.620000     3.190929466     3.226564402    52.470027505   0   0   0 # oc13
     35      1   3 -0.930000     1.737773462     3.911995128    50.189087179   0   0   0 # oc13
     36      1   3 -0.930000     4.446973392     3.687596441    50.183489684   0   0   0 # oc13
     37      1   5 -0.820000     4.266715410     1.845573079    29.554272048   0   0   0 # o*
     38      1   1  1.500000     0.250823233     1.924307498    33.998607605   0   0   0 # casl
     39      1   1  1.500000     3.145870277     7.473506418    35.971691142   0   0   0 # casl
     40      1   2  1.000000     0.324044332     1.586726608    37.077177589   0   0   0 # sc2
     41      1   2  1.000000     0.284617458     5.881951132    37.079976336   0   0   0 # sc2
     42      1   3 -0.620000     0.335308962     2.514891319    38.487722495   0   0   0 # oc13
     43      1   4 -0.620000     0.380368151     7.512074007    37.664904529   0   0   0 # oc12
     44      1   3 -0.930000    44.076530526     1.812320659    36.201184673  -1   0   0 # oc13
     45      1   5 -0.820000     3.376798203     7.448328360    38.353384706   0   0   0 # o*
     46      1   3 -0.620000     0.374735836     5.072941853    38.476527505   0   0   0 # oc13
     47      1   3 -0.930000    43.980779832     5.758372578    36.195587179  -1   0   0 # oc13
     48      1   3 -0.930000     1.630779762     5.533973891    36.189989684   0   0   0 # oc13
     49      1   5 -0.820000     1.450521780     3.691950530    43.547772048   0   0   0 # o*
     50      1   5 -0.820000     4.328650025     1.938611388    42.064461001   0   0   0 # o*
     51      1   5 -0.820000     3.404960112     5.699839637    41.896538999   0   0   0 # o*
     52      1   1  1.700000     1.050622335     5.624761272    41.927324699   0   0   0 # casl
     53      1   5 -0.820000     0.228293638     1.968778386    41.980500000   0   0   0 # o*
     54      1   6  0.410000     4.573547827     1.710600388    30.485299190   0   0   0 # h*
     55      1   6  0.410000     3.743426762     2.667070694    29.699690205   0   0   0 # h*
     56      1   6  0.410000     0.916872849     6.393231589    31.184921326   0   0   0 # h*
     57      1   6  0.410000     1.282310188     4.950500267    31.373507348   0   0   0 # h*
     58      1   6  0.410000     1.075428987     4.530331695    28.563324689   0   0   0 # h*
     59      1   6  0.410000     1.403765989     3.384572219    27.738451405   0   0   0 # h*
     60      1   6  0.410000     3.612625865     3.131760414    27.574660375   0   0   0 # h*
     61      1   6  0.410000     3.656151694     4.430991258    28.494734712   0   0   0 # h*
     62      1   6  0.410000     2.932396853     7.454692146    39.227697981   0   0   0 # h*
     63      1   6  0.410000     4.289869549     7.182930692    38.615428401   0   0   0 # h*
     64      1   6  0.410000     1.020318043     8.249469415    40.691850912   0   0   0 # h*
     65      1   6  0.410000     1.068293224     7.347345940    39.497968959   0   0   0 # h*
     66      1   6  0.410000     3.865062602     5.713603070    41.029448887   0   0   0 # h*
     67      1   6  0.410000     4.235284732     5.642759124    42.428054179   0   0   0 # h*
     68      1   6  0.410000     3.704222495     1.192805367    41.934312897   0   0   0 # h*
     69      1   6  0.410000     3.699357709     2.648424903    42.321808815   0   0   0 # h*
     70      1   6  0.410000     0.826150897     2.938884248    43.636539152   0   0   0 # h*
     71      1   6  0.410000     1.720045715     3.769139513    44.494602957   0   0   0 # h*
     72      1   6  0.410000     0.816959553     1.357194081    42.502919081   0   0   0 # h*
     73      1   6  0.410000     0.827842309     2.661992304    41.590581679   0   0   0 # h*
     74      1   6  0.410000     3.789624343     4.534065679    45.206969855   0   0   0 # h*
     75      1   6  0.410000     4.058040234     3.068576163    45.347758008   0   0   0 # h*
     76      2   1  1.500000    14.331816863     3.790430048    35.968892395   0   0   0 # casl
     77      2   1  1.500000    11.594476647     5.607383869    33.995808858   0   0   0 # casl
     78      2   2  1.000000    14.405037962     3.452849158    32.890322411   0   0   0 # sc2
     79      2   2  1.000000    14.365611088     0.323073683    32.887523664   0   0   0 # sc2
     80      2   3 -0.620000    14.416302591     4.381013869    31.479777505   0   0   0 # oc13
     81      2   4 -0.620000    14.461361780     1.953196556    32.302595471   0   0   0 # oc12
     82      2   3 -0.930000    15.655427950     3.880457653    33.780309063   0   0   0 # oc13
     83      2   3 -0.930000    13.098324156     3.678443208    33.766315327   0   0   0 # oc13
     84      2   5 -0.820000    11.825404573     5.582205810    31.614115294   0   0   0 # o*
     85      2   3 -0.620000    14.455729466     6.939064403    31.490972495   0   0   0 # oc13
     86      2   3 -0.930000    13.002573462     0.199495128    33.771912821   0   0   0 # oc13
     87      2   5 -0.820000    11.853566483     3.833717087    28.070961001   0   0   0 # o*
     88      2   1  1.700000    15.131615964     0.065883821    28.040175301   0   0   0 # casl
     89      2   5 -0.820000    14.309287269     3.834900936    27.987000000   0   0   0 # o*
     90      2   1  1.500000    11.515623234     5.636807498    49.962392395   0   0   0 # casl
     91      2   1  1.500000    14.410670277     3.761006418    47.989308858   0   0   0 # casl
     92      2   2  1.000000    11.588844332     5.299226608    46.883822411   0   0   0 # sc2
     93      2   2  1.000000    11.549417458     2.169451133    46.881023664   0   0   0 # sc2
     94      2   3 -0.620000    11.600108962     6.227391319    45.473277505   0   0   0 # oc13
     95      2   4 -0.620000    11.645168151     3.799574007    46.296095471   0   0   0 # oc12
     96      2   3 -0.930000    12.839234320     5.726835103    47.773809063   0   0   0 # oc13
     97      2   3 -0.930000    10.282130526     5.524820658    47.759815327   0   0   0 # oc13
     98      2   5 -0.820000    14.641598202     3.735828360    45.607615294   0   0   0 # o*
     99      2   3 -0.620000    11.639535836     1.360441853    45.484472495   0   0   0 # oc13
    100      2   3 -0.930000    10.186379833     2.045872578    47.765412821   0   0   0 # oc13
    101      2   5 -0.820000    12.715321780     7.404450529    40.413227952   0   0   0 # o*
    102      2   1  1.500000    14.331816863     7.502930047    47.992107605   0   0   0 # casl
    103      2   1  1.500000    11.594476647     1.894883868    49.965191142   0   0   0 # casl
    104      2   2  1.000000    14.405037962     7.165349157    51.070677589   0   0   0 # sc2
    105      2   2  1.000000    14.365611088     4.035573682    51.073476336   0   0   0 # sc2
    106      2   3 -0.620000    14.416302591     0.668513868    52.481222495   0   0   0 # oc13
    107      2   4 -0.620000    14.461361781     5.665696556    51.658404529   0   0   0 # oc12
    108      2   3 -0.930000    13.098324155     7.390943209    50.194684673   0   0   0 # oc13
    109      2   3 -0.620000    14.455729466     3.226564402    52.470027505   0   0   0 # oc13
    110      2   3 -0.930000    13.002573462     3.911995128    50.189087179   0   0   0 # oc13
    111      2   3 -0.930000    15.711773392     3.687596441    50.183489684   0   0   0 # oc13
    112      2   5 -0.820000    15.531515410     1.845573079    29.554272048   0   0   0 # o*
    113      2   1  1.500000    11.515623233     1.924307498    33.998607605   0   0   0 # casl
    114      2   1  1.500000    14.410670277     7.473506418    35.971691142   0   0   0 # casl
    115      2   2  1.000000    11.588844332     1.586726608    37.077177589   0   0   0 # sc2
    116      2   2  1.000000    11.549417458     5.881951132    37.079976336   0   0   0 # sc2
    117      2   3 -0.620000    11.600108962     2.514891319    38.487722495   0   0   0 # oc13
    118      2   4 -0.620000    11.645168151     7.512074007    37.664904529   0   0   0 # oc12
    119      2   3 -0.930000    10.282130526     1.812320659    36.201184673   0   0   0 # oc13
    120      2   5 -0.820000    14.641598203     7.448328360    38.353384706   0   0   0 # o*
    121      2   3 -0.620000    11.639535836     5.072941853    38.476527505   0   0   0 # oc13
    122      2   3 -0.930000    10.186379832     5.758372578    36.195587179   0   0   0 # oc13
    123      2   3 -0.930000    12.895579762     5.533973891    36.189989684   0   0   0 # oc13
    124      2   5 -0.820000    12.715321780     3.691950530    43.547772048   0   0   0 # o*
    125      2   5 -0.820000    15.593450025     1.938611388    42.064461001   0   0   0 # o*
    126      2   5 -0.820000    14.669760112     5.699839637    41.896538999   0   0   0 # o*
    127      2   1  1.700000    12.315422335     5.624761272    41.927324699   0   0   0 # casl
    128      2   5 -0.820000    11.493093638     1.968778386    41.980500000   0   0   0 # o*
    129      2   6  0.410000    15.838347827     1.710600388    30.485299190   0   0   0 # h*
    130      2   6  0.410000    15.008226762     2.667070694    29.699690205   0   0   0 # h*
    131      2   6  0.410000    12.181672849     6.393231589    31.184921326   0   0   0 # h*
    132      2   6  0.410000    12.547110188     4.950500267    31.373507348   0   0   0 # h*
    133      2   6  0.410000    12.340228987     4.530331695    28.563324689   0   0   0 # h*
    134      2   6  0.410000    12.668565989     3.384572219    27.738451405   0   0   0 # h*
    135      2   6  0.410000    14.877425865     3.131760414    27.574660375   0   0   0 # h*
    136      2   6  0.410000    14.920951694     4.430991258    28.494734712   0   0   0 # h*
    137      2   6  0.410000    14.197196853     7.454692146    39.227697981   0   0   0 # h*
    138      2   6  0.410000    15.554669549     7.182930692    38.615428401   0   0   0 # h*
    139      2   6  0.410000    12.285118043     8.249469415    40.691850912   0   0   0 # h*
    140      2   6  0.410000    12.333093224     7.347345940    39.497968959   0   0   0 # h*
    141      2   6  0.410000    15.129862602     5.713603070    41.029448887   0   0   0 # h*
    142      2   6  0.410000    15.500084732     5.642759124    42.428054179   0   0   0 # h*
    143      2   6  0.410000    14.969022495     1.192805367    41.934312897   0   0   0 # h*
    144      2   6  0.410000    14.964157709     2.648424903    42.321808815   0   0   0 # h*
    145      2   6  0.410000    12.090950897     2.938884248    43.636539152   0   0   0 # h*
    146      2   6  0.410000    12.984845715     3.769139513    44.494602957   0   0   0 # h*
    147      2   6  0.410000    12.081759553     1.357194081    42.502919081   0   0   0 # h*
    148      2   6  0.410000    12.092642309     2.661992304    41.590581679   0   0   0 # h*
    149      2   6  0.410000    15.054424343     4.534065679    45.206969855   0   0   0 # h*
    150      2   6  0.410000    15.322840234     3.068576163    45.347758008   0   0   0 # h*
    151      3   1  1.500000    25.596616863     3.790430048    35.968892395   0   0   0 # casl
    152      3   1  1.500000    22.859276647     5.607383869    33.995808858   0   0   0 # casl
    153      3   2  1.000000    25.669837962     3.452849158    32.890322411   0   0   0 # sc2
    154      3   2  1.000000    25.630411088     0.323073683    32.887523664   0   0   0 # sc2
    155      3   3 -0.620000    25.681102591     4.381013869    31.479777505   0   0   0 # oc13
    156      3   4 -0.620000    25.726161780     1.953196556    32.302595471   0   0   0 # oc12
    157      3   3 -0.930000    26.920227950     3.880457653    33.780309063   0   0   0 # oc13
    158      3   3 -0.930000    24.363124156     3.678443208    33.766315327   0   0   0 # oc13
    159      3   5 -0.820000    23.090204573     5.582205810    31.614115294   0   0   0 # o*
    160      3   3 -0.620000    25.720529466     6.939064403    31.490972495   0   0   0 # oc13
    161      3   3 -0.930000    24.267373462     0.199495128    33.771912821   0   0   0 # oc13
    162      3   5 -0.820000    23.118366483     3.833717087    28.070961001   0   0   0 # o*
    163      3   1  1.700000    26.396415964     0.065883821    28.040175301   0   0   0 # casl
    164      3   5 -0.820000    25.574087269     3.834900936    27.987000000   0   0   0 # o*
    165      3   1  1.500000    22.780423234     5.636807498    49.962392395   0   0   0 # casl
    166      3   1  1.500000    25.675470277     3.761006418    47.989308858   0   0   0 # casl
    167      3   2  1.000000    22.853644332     5.299226608    46.883822411   0   0   0 # sc2
    168      3   2  1.000000    22.814217458     2.169451133    46.881023664   0   0   0 # sc2
    169      3   3 -0.620000    22.864908962     6.227391319    45.473277505   0   0   0 # oc13
    170      3   4 -0.620000    22.909968151     3.799574007    46.296095471   0   0   0 # oc12
    171      3   3 -0.930000    24.104034320     5.726835103    47.773809063   0   0   0 # oc13
    172      3   3 -0.930000    21.546930526     5.524820658    47.759815327   0   0   0 # oc13
    173      3   5 -0.820000    25.906398202     3.735828360    45.607615294   0   0   0 # o*
    174      3   4 -0.620000    22.904335836     1.360441853    45.484472495   0   0   0 # oc12
    175      3   3 -0.930000    21.451179833     2.045872578    47.765412821   0   0   0 # oc13
    176      3   5 -0.820000    23.980121780     7.404450529    40.413227952   0   0   0 # o*
    177      3   1  1.500000    25.596616863     7.502930047    47.992107605   0   0   0 # casl
    178      3   1  1.500000    22.859276647     1.894883868    49.965191142   0   0   0 # casl
    179      3   2  1.000000    25.669837962     7.165349157    51.070677589   0   0   0 # sc2
    180      3   2  1.000000    25.630411088     4.035573682    51.073476336   0   0   0 # sc2
    181      3   3 -0.620000    25.681102591     0.668513868    52.481222495   0   0   0 # oc13
    182      3   4 -0.620000    25.726161781     5.665696556    51.658404529   0   0   0 # oc12
    183      3   3 -0.930000    24.363124155     7.390943209    50.194684673   0   0   0 # oc13
    184      3   3 -0.620000    25.720529466     3.226564402    52.470027505   0   0   0 # oc13
    185      3   3 -0.930000    24.267373462     3.911995128    50.189087179   0   0   0 # oc13
    186      3   3 -0.930000    26.976573392     3.687596441    50.183489684   0   0   0 # oc13
    187      3   5 -0.820000    26.796315410     1.845573079    29.554272048   0   0   0 # o*
    188      3   1  1.500000    22.780423233     1.924307498    33.998607605   0   0   0 # casl
    189      3   1  1.500000    25.675470277     7.473506418    35.971691142   0   0   0 # casl
    190      3   2  1.000000    22.853644332     1.586726608    37.077177589   0   0   0 # sc2
    191      3   2  1.000000    22.814217458     5.881951132    37.079976336   0   0   0 # sc2
    192      3   3 -0.620000    22.864908962     2.514891319    38.487722495   0   0   0 # oc13
    193      3   4 -0.620000    22.909968151     7.512074007    37.664904529   0   0   0 # oc12
    194      3   3 -0.930000    21.546930526     1.812320659    36.201184673   0   0   0 # oc13
    195      3   5 -0.820000    25.906398203     7.448328360    38.353384706   0   0   0 # o*
    196      3   3 -0.620000    22.904335836     5.072941853    38.476527505   0   0   0 # oc13
    197      3   3 -0.930000    21.451179832     5.758372578    36.195587179   0   0   0 # oc13
    198      3   3 -0.930000    24.160379762     5.533973891    36.189989684   0   0   0 # oc13
    199      3   5 -0.820000    23.980121780     3.691950530    43.547772048   0   0   0 # o*
    200      3   5 -0.820000    26.858250025     1.938611388    42.064461001   0   0   0 # o*
    201      3   5 -0.820000    25.934560112     5.699839637    41.896538999   0   0   0 # o*
    202      3   1  1.700000    23.580222335     5.624761272    41.927324699   0   0   0 # casl
    203      3   5 -0.820000    22.757893638     1.968778386    41.980500000   0   0   0 # o*
    204      3   6  0.410000    27.103147827     1.710600388    30.485299190   0   0   0 # h*
    205      3   6  0.410000    26.273026762     2.667070694    29.699690205   0   0   0 # h*
    206      3   6  0.410000    23.446472849     6.393231589    31.184921326   0   0   0 # h*
    207      3   6  0.410000    23.811910188     4.950500267    31.373507348   0   0   0 # h*
    208      3   6  0.410000    23.605028987     4.530331695    28.563324689   0   0   0 # h*
    209      3   6  0.410000    23.933365989     3.384572219    27.738451405   0   0   0 # h*
    210      3   6  0.410000    26.142225865     3.131760414    27.574660375   0   0   0 # h*
    211      3   6  0.410000    26.185751694     4.430991258    28.494734712   0   0   0 # h*
    212      3   6  0.410000    25.461996853     7.454692146    39.227697981   0   0   0 # h*
    213      3   6  0.410000    26.819469549     7.182930692    38.615428401   0   0   0 # h*
    214      3   6  0.410000    23.549918043     8.249469415    40.691850912   0   0   0 # h*
    215      3   6  0.410000    23.597893224     7.347345940    39.497968959   0   0   0 # h*
    216      3   6  0.410000    26.394662602     5.713603070    41.029448887   0   0   0 # h*
    217      3   6  0.410000    26.764884732     5.642759124    42.428054179   0   0   0 # h*
    218      3   6  0.410000    26.233822495     1.192805367    41.934312897   0   0   0 # h*
    219      3   6  0.410000    26.228957709     2.648424903    42.321808815   0   0   0 # h*
    220      3   6  0.410000    23.355750897     2.938884248    43.636539152   0   0   0 # h*
    221      3   6  0.410000    24.249645715     3.769139513    44.494602957   0   0   0 # h*
    222      3   6  0.410000    23.346559553     1.357194081    42.502919081   0   0   0 # h*
    223      3   6  0.410000    23.357442309     2.661992304    41.590581679   0   0   0 # h*
    224      3   6  0.410000    26.319224343     4.534065679    45.206969855   0   0   0 # h*
    225      3   6  0.410000    26.587640234     3.068576163    45.347758008   0   0   0 # h*
    226      4   1  1.500000    36.861416863     3.790430048    35.968892395   0   0   0 # casl
    227      4   1  1.500000    34.124076647     5.607383869    33.995808858   0   0   0 # casl
    228      4   2  1.000000    36.934637962     3.452849158    32.890322411   0   0   0 # sc2
    229      4   2  1.000000    36.895211088     0.323073683    32.887523664   0   0   0 # sc2
    230      4   3 -0.620000    36.945902591     4.381013869    31.479777505   0   0   0 # oc13
    231      4   4 -0.620000    36.990961780     1.953196556    32.302595471   0   0   0 # oc12
    232      4   3 -0.930000    38.185027950     3.880457653    33.780309063   0   0   0 # oc13
    233      4   3 -0.930000    35.627924156     3.678443208    33.766315327   0   0   0 # oc13
    234      4   5 -0.820000    34.355004573     5.582205810    31.614115294   0   0   0 # o*
    235      4   3 -0.620000    36.985329466     6.939064403    31.490972495   0   0   0 # oc13
    236      4   3 -0.930000    35.532173462     0.199495128    33.771912821   0   0   0 # oc13
    237      4   5 -0.820000    34.383166483     3.833717087    28.070961001   0   0   0 # o*
    238      4   1  1.700000    37.661215964     0.065883821    28.040175301   0   0   0 # casl
    239      4   5 -0.820000    36.838887269     3.834900936    27.987000000   0   0   0 # o*
    240      4   1  1.500000    34.045223234     5.636807498    49.962392395   0   0   0 # casl
    241      4   1  1.500000    36.940270277     3.761006418    47.989308858   0   0   0 # casl
    242      4   2  1.000000    34.118444332     5.299226608    46.883822411   0   0   0 # sc2
    243      4   2  1.000000    34.079017458     2.169451133    46.881023664   0   0   0 # sc2
    244      4   3 -0.620000    34.129708962     6.227391319    45.473277505   0   0   0 # oc13
    245      4   4 -0.620000    34.174768151     3.799574007    46.296095471   0   0   0 # oc12
    246      4   3 -0.930000    35.368834320     5.726835103    47.773809063   0   0   0 # oc13
    247      4   3 -0.930000    32.811730526     5.524820658    47.759815327   0   0   0 # oc13
    248      4   5 -0.820000    37.171198202     3.735828360    45.607615294   0   0   0 # o*
    249      4   3 -0.620000    34.169135836     1.360441853    45.484472495   0   0   0 # oc13
    250      4   3 -0.930000    32.715979833     2.045872578    47.765412821   0   0   0 # oc13
    251      4   5 -0.820000    35.244921780     7.404450529    40.413227952   0   0   0 # o*
    252      4   1  1.500000    36.861416863     7.502930047    47.992107605   0   0   0 # casl
    253      4   1  1.500000    34.124076647     1.894883868    49.965191142   0   0   0 # casl
    254      4   2  1.000000    36.934637962     7.165349157    51.070677589   0   0   0 # sc2
    255      4   2  1.000000    36.895211088     4.035573682    51.073476336   0   0   0 # sc2
    256      4   3 -0.620000    36.945902591     0.668513868    52.481222495   0   0   0 # oc13
    257      4   4 -0.620000    36.990961781     5.665696556    51.658404529   0   0   0 # oc12
    258      4   3 -0.930000    35.627924155     7.390943209    50.194684673   0   0   0 # oc13
    259      4   3 -0.620000    36.985329466     3.226564402    52.470027505   0   0   0 # oc13
    260      4   3 -0.930000    35.532173462     3.911995128    50.189087179   0   0   0 # oc13
    261      4   3 -0.930000    38.241373392     3.687596441    50.183489684   0   0   0 # oc13
    262      4   5 -0.820000    38.061115410     1.845573079    29.554272048   0   0   0 # o*
    263      4   1  1.500000    34.045223233     1.924307498    33.998607605   0   0   0 # casl
    264      4   1  1.500000    36.940270277     7.473506418    35.971691142   0   0   0 # casl
    265      4   2  1.000000    34.118444332     1.586726608    37.077177589   0   0   0 # sc2
    266      4   2  1.000000    34.079017458     5.881951132    37.079976336   0   0   0 # sc2
    267      4   3 -0.620000    34.129708962     2.514891319    38.487722495   0   0   0 # oc13
    268      4   4 -0.620000    34.174768151     7.512074007    37.664904529   0   0   0 # oc12
    269      4   3 -0.930000    32.811730526     1.812320659    36.201184673   0   0   0 # oc13
    270      4   5 -0.820000    37.171198203     7.448328360    38.353384706   0   0   0 # o*
    271      4   3 -0.620000    34.169135836     5.072941853    38.476527505   0   0   0 # oc13
    272      4   3 -0.930000    32.715979832     5.758372578    36.195587179   0   0   0 # oc13
    273      4   3 -0.930000    35.425179762     5.533973891    36.189989684   0   0   0 # oc13
    274      4   5 -0.820000    35.244921780     3.691950530    43.547772048   0   0   0 # o*
    275      4   5 -0.820000    38.123050025     1.938611388    42.064461001   0   0   0 # o*
    276      4   5 -0.820000    37.199360112     5.699839637    41.896538999   0   0   0 # o*
    277      4   1  1.700000    34.845022335     5.624761272    41.927324699   0   0   0 # casl
    278      4   5 -0.820000    34.022693638     1.968778386    41.980500000   0   0   0 # o*
    279      4   6  0.410000    38.367947827     1.710600388    30.485299190   0   0   0 # h*
    280      4   6  0.410000    37.537826762     2.667070694    29.699690205   0   0   0 # h*
    281      4   6  0.410000    34.711272849     6.393231589    31.184921326   0   0   0 # h*
    282      4   6  0.410000    35.076710188     4.950500267    31.373507348   0   0   0 # h*
    283      4   6  0.410000    34.869828987     4.530331695    28.563324689   0   0   0 # h*
    284      4   6  0.410000    35.198165989     3.384572219    27.738451405   0   0   0 # h*
    285      4   6  0.410000    37.407025865     3.131760414    27.574660375   0   0   0 # h*
    286      4   6  0.410000    37.450551694     4.430991258    28.494734712   0   0   0 # h*
    287      4   6  0.410000    36.726796853     7.454692146    39.227697981   0   0   0 # h*
    288      4   6  0.410000    38.084269549     7.182930692    38.615428401   0   0   0 # h*
    289      4   6  0.410000    34.814718043     8.249469415    40.691850912   0   0   0 # h*
    290      4   6  0.410000    34.862693224     7.347345940    39.497968959   0   0   0 # h*
    291      4   6  0.410000    37.659462602     5.713603070    41.029448887   0   0   0 # h*
    292      4   6  0.410000    38.029684732     5.642759124    42.428054179   0   0   0 # h*
    293      4   6  0.410000    37.498622495     1.192805367    41.934312897   0   0   0 # h*
    294      4   6  0.410000    37.493757709     2.648424903    42.321808815   0   0   0 # h*
    295      4   6  0.410000    34.620550897     2.938884248    43.636539152   0   0   0 # h*
    296      4   6  0.410000    35.514445715     3.769139513    44.494602957   0   0   0 # h*
    297      4   6  0.410000    34.611359553     1.357194081    42.502919081   0   0   0 # h*
    298      4   6  0.410000    34.622242309     2.661992304    41.590581679   0   0   0 # h*
    299      4   6  0.410000    37.584024343     4.534065679    45.206969855   0   0   0 # h*
    300      4   6  0.410000    37.852440234     3.068576163    45.347758008   0   0   0 # h*
    301      5   1  1.500000     3.067016863    11.215430048    35.968892395   0   0   0 # casl
    302      5   1  1.500000     0.329676647    13.032383869    33.995808858   0   0   0 # casl
    303      5   2  1.000000     3.140237962    10.877849158    32.890322411   0   0   0 # sc2
    304      5   2  1.000000     3.100811088     7.748073683    32.887523664   0   0   0 # sc2
    305      5   3 -0.620000     3.151502591    11.806013869    31.479777505   0   0   0 # oc13
    306      5   4 -0.620000     3.196561780     9.378196556    32.302595471   0   0   0 # oc12
    307      5   3 -0.930000     4.390627950    11.305457653    33.780309063   0   0   0 # oc13
    308      5   3 -0.930000     1.833524156    11.103443208    33.766315327   0   0   0 # oc13
    309      5   5 -0.820000     0.560604573    13.007205810    31.614115294   0   0   0 # o*
    310      5   3 -0.620000     3.190929466    14.364064403    31.490972495   0   0   0 # oc13
    311      5   3 -0.930000     1.737773462     7.624495128    33.771912821   0   0   0 # oc13
    312      5   5 -0.820000     0.588766483    11.258717087    28.070961001   0   0   0 # o*
    313      5   1  1.700000     3.866815964     7.490883821    28.040175301   0   0   0 # casl
    314      5   5 -0.820000     3.044487269    11.259900936    27.987000000   0   0   0 # o*
    315      5   1  1.500000     0.250823234    13.061807498    49.962392395   0   0   0 # casl
    316      5   1  1.500000     3.145870277    11.186006418    47.989308858   0   0   0 # casl
    317      5   2  1.000000     0.324044332    12.724226608    46.883822411   0   0   0 # sc2
    318      5   2  1.000000     0.284617458     9.594451133    46.881023664   0   0   0 # sc2
    319      5   3 -0.620000     0.335308962    13.652391319    45.473277505   0   0   0 # oc13
    320      5   4 -0.620000     0.380368151    11.224574007    46.296095471   0   0   0 # oc12
    321      5   3 -0.930000     1.574434320    13.151835103    47.773809063   0   0   0 # oc13
    322      5   3 -0.930000    44.076530526    12.949820658    47.759815327  -1   0   0 # oc13
    323      5   5 -0.820000     3.376798202    11.160828360    45.607615294   0   0   0 # o*
    324      5   3 -0.620000     0.374735836     8.785441853    45.484472495   0   0   0 # oc13
    325      5   3 -0.930000    43.980779833     9.470872578    47.765412821  -1   0   0 # oc13
    326      5   5 -0.820000     1.450521780    14.829450529    40.413227952   0   0   0 # o*
    327      5   1  1.500000     3.067016863    14.927930047    47.992107605   0   0   0 # casl
    328      5   1  1.500000     0.329676647     9.319883868    49.965191142   0   0   0 # casl
    329      5   2  1.000000     3.140237962    14.590349157    51.070677589   0   0   0 # sc2
    330      5   2  1.000000     3.100811088    11.460573682    51.073476336   0   0   0 # sc2
    331      5   3 -0.620000     3.151502591     8.093513868    52.481222495   0   0   0 # oc13
    332      5   4 -0.620000     3.196561781    13.090696556    51.658404529   0   0   0 # oc12
    333      5   3 -0.930000     1.833524155    14.815943209    50.194684673   0   0   0 # oc13
    334      5   3 -0.620000     3.190929466    10.651564402    52.470027505   0   0   0 # oc13
    335      5   3 -0.930000     1.737773462    11.336995128    50.189087179   0   0   0 # oc13
    336      5   3 -0.930000     4.446973392    11.112596441    50.183489684   0   0   0 # oc13
    337      5   5 -0.820000     4.266715410     9.270573079    29.554272048   0   0   0 # o*
    338      5   1  1.500000     0.250823233     9.349307498    33.998607605   0   0   0 # casl
    339      5   1  1.500000     3.145870277    14.898506418    35.971691142   0   0   0 # casl
    340      5   2  1.000000     0.324044332     9.011726608    37.077177589   0   0   0 # sc2
    341      5   2  1.000000     0.284617458    13.306951132    37.079976336   0   0   0 # sc2
    342      5   3 -0.620000     0.335308962     9.939891319    38.487722495   0   0   0 # oc13
    343      5   4 -0.620000     0.380368151    14.937074007    37.664904529   0   0   0 # oc12
    344      5   3 -0.930000    44.076530526     9.237320659    36.201184673  -1   0   0 # oc13
    345      5   5 -0.820000     3.376798203    14.873328360    38.353384706   0   0   0 # o*
    346      5   3 -0.620000     0.374735836    12.497941853    38.476527505   0   0   0 # oc13
    347      5   3 -0.930000    43.980779832    13.183372578    36.195587179  -1   0   0 # oc13
    348      5   3 -0.930000     1.630779762    12.958973891    36.189989684   0   0   0 # oc13
    349      5   5 -0.820000     1.450521780    11.116950530    43.547772048   0   0   0 # o*
    350      5   5 -0.820000     4.328650025     9.363611388    42.064461001   0   0   0 # o*
    351      5   5 -0.820000     3.404960112    13.124839637    41.896538999   0   0   0 # o*
    352      5   1  1.700000     1.050622335    13.049761272    41.927324699   0   0   0 # casl
    353      5   5 -0.820000     0.228293638     9.393778386    41.980500000   0   0   0 # o*
    354      5   6  0.410000     4.573547827     9.135600388    30.485299190   0   0   0 # h*
    355      5   6  0.410000     3.743426762    10.092070694    29.699690205   0   0   0 # h*
    356      5   6  0.410000     0.916872849    13.818231589    31.184921326   0   0   0 # h*
    357      5   6  0.410000     1.282310188    12.375500267    31.373507348   0   0   0 # h*
    358      5   6  0.410000     1.075428987    11.955331695    28.563324689   0   0   0 # h*
    359      5   6  0.410000     1.403765989    10.809572219    27.738451405   0   0   0 # h*
    360      5   6  0.410000     3.612625865    10.556760414    27.574660375   0   0   0 # h*
    361      5   6  0.410000     3.656151694    11.855991258    28.494734712   0   0   0 # h*
    362      5   6  0.410000     2.932396853    14.879692146    39.227697981   0   0   0 # h*
    363      5   6  0.410000     4.289869549    14.607930692    38.615428401   0   0   0 # h*
    364      5   6  0.410000     1.020318043    15.674469415    40.691850912   0   0   0 # h*
    365      5   6  0.410000     1.068293224    14.772345940    39.497968959   0   0   0 # h*
    366      5   6  0.410000     3.865062602    13.138603070    41.029448887   0   0   0 # h*
    367      5   6  0.410000     4.235284732    13.067759124    42.428054179   0   0   0 # h*
    368      5   6  0.410000     3.704222495     8.617805367    41.934312897   0   0   0 # h*
    369      5   6  0.410000     3.699357709    10.073424903    42.321808815   0   0   0 # h*
    370      5   6  0.410000     0.826150897    10.363884248    43.636539152   0   0   0 # h*
    371      5   6  0.410000     1.720045715    11.194139513    44.494602957   0   0   0 # h*
    372      5   6  0.410000     0.816959553     8.782194081    42.502919081   0   0   0 # h*
    373      5   6  0.410000     0.827842309    10.086992304    41.590581679   0   0   0 # h*
    374      5   6  0.410000     3.789624343    11.959065679    45.206969855   0   0   0 # h*
    375      5   6  0.410000     4.058040234    10.493576163    45.347758008   0   0   0 # h*
    376      6   1  1.500000    14.331816863    11.215430048    35.968892395   0   0   0 # casl
    377      6   1  1.500000    11.594476647    13.032383869    33.995808858   0   0   0 # casl
    378      6   2  1.000000    14.405037962    10.877849158    32.890322411   0   0   0 # sc2
    379      6   2  1.000000    14.365611088     7.748073683    32.887523664   0   0   0 # sc2
    380      6   3 -0.620000    14.416302591    11.806013869    31.479777505   0   0   0 # oc13
    381      6   4 -0.620000    14.461361780     9.378196556    32.302595471   0   0   0 # oc12
    382      6   3 -0.930000    15.655427950    11.305457653    33.780309063   0   0   0 # oc13
    383      6   3 -0.930000    13.098324156    11.103443208    33.766315327   0   0   0 # oc13
    384      6   5 -0.820000    11.825404573    13.007205810    31.614115294   0   0   0 # o*
    385      6   3 -0.620000    14.455729466    14.364064403    31.490972495   0   0   0 # oc13
    386      6   3 -0.930000    13.002573462     7.624495128    33.771912821   0   0   0 # oc13
    387      6   5 -0.820000    11.853566483    11.258717087    28.070961001   0   0   0 # o*
    388      6   1  1.700000    15.131615964     7.490883821    28.040175301   0   0   0 # casl
    389      6   5 -0.820000    14.309287269    11.259900936    27.987000000   0   0   0 # o*
    390      6   1  1.500000    11.515623234    13.061807498    49.962392395   0   0   0 # casl
    391      6   1  1.500000    14.410670277    11.186006418    47.989308858   0   0   0 # casl
    392      6   2  1.000000    11.588844332    12.724226608    46.883822411   0   0   0 # sc2
    393      6   2  1.000000    11.549417458     9.594451133    46.881023664   0   0   0 # sc2
    394      6   3 -0.620000    11.600108962    13.652391319    45.473277505   0   0   0 # oc13
    395      6   4 -0.620000    11.645168151    11.224574007    46.296095471   0   0   0 # oc12
    396      6   3 -0.930000    12.839234320    13.151835103    47.773809063   0   0   0 # oc13
    397      6   3 -0.930000    10.282130526    12.949820658    47.759815327   0   0   0 # oc13
    398      6   5 -0.820000    14.641598202    11.160828360    45.607615294   0   0   0 # o*
    399      6   3 -0.620000    11.639535836     8.785441853    45.484472495   0   0   0 # oc13
    400      6   3 -0.930000    10.186379833     9.470872578    47.765412821   0   0   0 # oc13
    401      6   5 -0.820000    12.715321780    14.829450529    40.413227952   0   0   0 # o*
    402      6   1  1.500000    14.331816863    14.927930047    47.992107605   0   0   0 # casl
    403      6   1  1.500000    11.594476647     9.319883868    49.965191142   0   0   0 # casl
    404      6   2  1.000000    14.405037962    14.590349157    51.070677589   0   0   0 # sc2
    405      6   2  1.000000    14.365611088    11.460573682    51.073476336   0   0   0 # sc2
    406      6   3 -0.620000    14.416302591     8.093513868    52.481222495   0   0   0 # oc13
    407      6   4 -0.620000    14.461361781    13.090696556    51.658404529   0   0   0 # oc12
    408      6   3 -0.930000    13.098324155    14.815943209    50.194684673   0   0   0 # oc13
    409      6   3 -0.620000    14.455729466    10.651564402    52.470027505   0   0   0 # oc13
    410      6   3 -0.930000    13.002573462    11.336995128    50.189087179   0   0   0 # oc13
    411      6   3 -0.930000    15.711773392    11.112596441    50.183489684   0   0   0 # oc13
    412      6   5 -0.820000    15.531515410     9.270573079    29.554272048   0   0   0 # o*
    413      6   1  1.500000    11.515623233     9.349307498    33.998607605   0   0   0 # casl
    414      6   1  1.500000    14.410670277    14.898506418    35.971691142   0   0   0 # casl
    415      6   2  1.000000    11.588844332     9.011726608    37.077177589   0   0   0 # sc2
    416      6   2  1.000000    11.549417458    13.306951132    37.079976336   0   0   0 # sc2
    417      6   3 -0.620000    11.600108962     9.939891319    38.487722495   0   0   0 # oc13
    418      6   4 -0.620000    11.645168151    14.937074007    37.664904529   0   0   0 # oc12
    419      6   3 -0.930000    10.282130526     9.237320659    36.201184673   0   0   0 # oc13
    420      6   5 -0.820000    14.641598203    14.873328360    38.353384706   0   0   0 # o*
    421      6   3 -0.620000    11.639535836    12.497941853    38.476527505   0   0   0 # oc13
    422      6   3 -0.930000    10.186379832    13.183372578    36.195587179   0   0   0 # oc13
    423      6   3 -0.930000    12.895579762    12.958973891    36.189989684   0   0   0 # oc13
    424      6   5 -0.820000    12.715321780    11.116950530    43.547772048   0   0   0 # o*
    425      6   5 -0.820000    15.593450025     9.363611388    42.064461001   0   0   0 # o*
    426      6   5 -0.820000    14.669760112    13.124839637    41.896538999   0   0   0 # o*
    427      6   1  1.700000    12.315422335    13.049761272    41.927324699   0   0   0 # casl
    428      6   5 -0.820000    11.493093638     9.393778386    41.980500000   0   0   0 # o*
    429      6   6  0.410000    15.838347827     9.135600388    30.485299190   0   0   0 # h*
    430      6   6  0.410000    15.008226762    10.092070694    29.699690205   0   0   0 # h*
    431      6   6  0.410000    12.181672849    13.818231589    31.184921326   0   0   0 # h*
    432      6   6  0.410000    12.547110188    12.375500267    31.373507348   0   0   0 # h*
    433      6   6  0.410000    12.340228987    11.955331695    28.563324689   0   0   0 # h*
    434      6   6  0.410000    12.668565989    10.809572219    27.738451405   0   0   0 # h*
    435      6   6  0.410000    14.877425865    10.556760414    27.574660375   0   0   0 # h*
    436      6   6  0.410000    14.920951694    11.855991258    28.494734712   0   0   0 # h*
    437      6   6  0.410000    14.197196853    14.879692146    39.227697981   0   0   0 # h*
    438      6   6  0.410000    15.554669549    14.607930692    38.615428401   0   0   0 # h*
    439      6   6  0.410000    12.285118043    15.674469415    40.691850912   0   0   0 # h*
    440      6   6  0.410000    12.333093224    14.772345940    39.497968959   0   0   0 # h*
    441      6   6  0.410000    15.129862602    13.138603070    41.029448887   0   0   0 # h*
    442      6   6  0.410000    15.500084732    13.067759124    42.428054179   0   0   0 # h*
    443      6   6  0.410000    14.969022495     8.617805367    41.934312897   0   0   0 # h*
    444      6   6  0.410000    14.964157709    10.073424903    42.321808815   0   0   0 # h*
    445      6   6  0.410000    12.090950897    10.363884248    43.636539152   0   0   0 # h*
    446      6   6  0.410000    12.984845715    11.194139513    44.494602957   0   0   0 # h*
    447      6   6  0.410000    12.081759553     8.782194081    42.502919081   0   0   0 # h*
    448      6   6  0.410000    12.092642309    10.086992304    41.590581679   0   0   0 # h*
    449      6   6  0.410000    15.054424343    11.959065679    45.206969855   0   0   0 # h*
    450      6   6  0.410000    15.322840234    10.493576163    45.347758008   0   0   0 # h*
    451      7   1  1.500000    25.596616863    11.215430048    35.968892395   0   0   0 # casl
    452      7   1  1.500000    22.859276647    13.032383869    33.995808858   0   0   0 # casl
    453      7   2  1.000000    25.669837962    10.877849158    32.890322411   0   0   0 # sc2
    454      7   2  1.000000    26.486534007    13.045099712    30.900446599   0   0   0 # sc2
    455      7   2  1.000000    25.630411088     7.748073683    32.887523664   0   0   0 # sc2
    456      7   4 -0.620000    25.681102591    11.806013869    31.479777505   0   0   0 # oc12
    457      7   4 -0.620000    25.726161780     9.378196556    32.302595471   0   0   0 # oc12
    458      7   3 -0.930000    26.920227950    11.305457653    33.780309063   0   0   0 # oc13
    459      7   3 -0.930000    24.363124156    11.103443208    33.766315327   0   0   0 # oc13
    460      7   3 -1.000000    26.441496777     9.362133043    54.625026598   0   0   0 # oc13
    461      7   7 -0.690000    28.103041978    13.009933985    31.275472492   0   0   0 # oc14
    462      7   5 -0.820000    23.090204573    13.007205810    31.614115294   0   0   0 # o*
    463      7   4 -0.620000    25.720529466    14.364064403    31.490972495   0   0   0 # oc12
    464      7   3 -0.930000    24.267373462     7.624495128    33.771912821   0   0   0 # oc13
    465      7   5 -0.820000    23.118366483    11.258717087    28.070961001   0   0   0 # o*
    466      7   1  1.700000    26.396415964     7.490883821    28.040175301   0   0   0 # casl
    467      7   5 -0.820000    25.574087269    11.259900936    27.987000000   0   0   0 # o*
    468      7   1  1.500000    22.780423234    13.061807498    49.962392395   0   0   0 # casl
    469      7   1  1.500000    25.675470277    11.186006418    47.989308858   0   0   0 # casl
    470      7   2  1.000000    22.853644332    12.724226608    46.883822411   0   0   0 # sc2
    471      7   2  1.000000    23.670340378    14.891477163    44.893946599   0   0   0 # sc2
    472      7   2  1.000000    22.814217458     9.594451133    46.881023664   0   0   0 # sc2
    473      7   4 -0.620000    22.864908962    13.652391319    45.473277505   0   0   0 # oc12
    474      7   4 -0.620000    22.909968151    11.224574007    46.296095471   0   0   0 # oc12
    475      7   3 -0.930000    24.104034320    13.151835103    47.773809063   0   0   0 # oc13
    476      7   3 -0.930000    21.546930526    12.949820658    47.759815327   0   0   0 # oc13
    477      7   3 -1.000000    23.625303147    11.208510494    40.631526598   0   0   0 # oc13
    478      7   7 -0.690000    25.286848348    14.856311435    45.268972492   0   0   0 # oc14
    479      7   5 -0.820000    25.906398202    11.160828360    45.607615294   0   0   0 # o*
    480      7   3 -0.620000    22.904335836     8.785441853    45.484472495   0   0   0 # oc13
    481      7   3 -0.930000    21.451179833     9.470872578    47.765412821   0   0   0 # oc13
    482      7   5 -0.820000    23.980121780    14.829450529    40.413227952   0   0   0 # o*
    483      7   1  1.500000    25.596616863    14.927930047    47.992107605   0   0   0 # casl
    484      7   1  1.500000    22.859276647     9.319883868    49.965191142   0   0   0 # casl
    485      7   2  1.000000    25.669837962    14.590349157    51.070677589   0   0   0 # sc2
    486      7   2  1.000000    26.486534007     9.332599713    53.060553401   0   0   0 # sc2
    487      7   2  1.000000    25.630411088    11.460573682    51.073476336   0   0   0 # sc2
    488      7   4 -0.620000    25.681102591     8.093513868    52.481222495   0   0   0 # oc12
    489      7   4 -0.620000    25.726161781    13.090696556    51.658404529   0   0   0 # oc12
    490      7   3 -0.930000    24.363124155    14.815943209    50.194684673   0   0   0 # oc13
    491      7   3 -1.000000    26.441475153    13.074641591    29.335973402   0   0   0 # oc13
    492      7   3 -0.690000    28.103041977     9.297433985    52.685527508   0   0   0 # oc13
    493      7   4 -0.620000    25.720529466    10.651564402    52.470027505   0   0   0 # oc12
    494      7   3 -0.930000    24.267373462    11.336995128    50.189087179   0   0   0 # oc13
    495      7   3 -0.930000    26.976573392    11.112596441    50.183489684   0   0   0 # oc13
    496      7   5 -0.820000    26.796315410     9.270573079    29.554272048   0   0   0 # o*
    497      7   1  1.500000    22.780423233     9.349307498    33.998607605   0   0   0 # casl
    498      7   1  1.500000    25.675470277    14.898506418    35.971691142   0   0   0 # casl
    499      7   2  1.000000    22.853644332     9.011726608    37.077177589   0   0   0 # sc2
    500      7   2  1.000000    23.670340377    11.178977163    39.067053401   0   0   0 # sc2
    501      7   2  1.000000    22.814217458    13.306951132    37.079976336   0   0   0 # sc2
    502      7   4 -0.620000    22.864908962     9.939891319    38.487722495   0   0   0 # oc12
    503      7   4 -0.620000    22.909968151    14.937074007    37.664904529   0   0   0 # oc12
    504      7   3 -0.930000    21.546930526     9.237320659    36.201184673   0   0   0 # oc13
    505      7   3 -1.000000    23.625281524    14.921019042    43.329473402   0   0   0 # oc13
    506      7   7 -0.690000    25.286848348    11.143811435    38.692027508   0   0   0 # oc14
    507      7   5 -0.820000    25.906398203    14.873328360    38.353384706   0   0   0 # o*
    508      7   4 -0.620000    22.904335836    12.497941853    38.476527505   0   0   0 # oc12
    509      7   3 -0.930000    21.451179832    13.183372578    36.195587179   0   0   0 # oc13
    510      7   3 -0.930000    24.160379762    12.958973891    36.189989684   0   0   0 # oc13
    511      7   5 -0.820000    23.980121780    11.116950530    43.547772048   0   0   0 # o*
    512      7   5 -0.820000    26.858250025     9.363611388    42.064461001   0   0   0 # o*
    513      7   5 -0.820000    25.934560112    13.124839637    41.896538999   0   0   0 # o*
    514      7   1  1.700000    23.580222335    13.049761272    41.927324699   0   0   0 # casl
    515      7   5 -0.820000    22.757893638     9.393778386    41.980500000   0   0   0 # o*
    516      7   8  0.420000    25.879167651    14.934707637    44.543567616   0   0   0 # hoy
    517      7   8  0.420000    25.860762360    10.751299589    39.323226581   0   0   0 # hoy
    518      7   8  0.420000    28.688143087    13.013902590    30.537392443   0   0   0 # hoy
    519      7   6  0.410000    27.103147827     9.135600388    30.485299190   0   0   0 # h*
    520      7   6  0.410000    26.273026762    10.092070694    29.699690205   0   0   0 # h*
    521      7   6  0.410000    23.446472849    13.818231589    31.184921326   0   0   0 # h*
    522      7   6  0.410000    23.811910188    12.375500267    31.373507348   0   0   0 # h*
    523      7   6  0.410000    23.605028987    11.955331695    28.563324689   0   0   0 # h*
    524      7   6  0.410000    23.933365989    10.809572219    27.738451405   0   0   0 # h*
    525      7   6  0.410000    26.142225865    10.556760414    27.574660375   0   0   0 # h*
    526      7   6  0.410000    26.185751694    11.855991258    28.494734712   0   0   0 # h*
    527      7   6  0.410000    25.461996853    14.879692146    39.227697981   0   0   0 # h*
    528      7   6  0.410000    26.819469549    14.607930692    38.615428401   0   0   0 # h*
    529      7   6  0.410000    23.549918043    15.674469415    40.691850912   0   0   0 # h*
    530      7   6  0.410000    23.597893224    14.772345940    39.497968959   0   0   0 # h*
    531      7   6  0.410000    26.394662602    13.138603070    41.029448887   0   0   0 # h*
    532      7   6  0.410000    26.764884732    13.067759124    42.428054179   0   0   0 # h*
    533      7   6  0.410000    26.233822495     8.617805367    41.934312897   0   0   0 # h*
    534      7   6  0.410000    26.228957709    10.073424903    42.321808815   0   0   0 # h*
    535      7   6  0.410000    23.355750897    10.363884248    43.636539152   0   0   0 # h*
    536      7   6  0.410000    24.249645715    11.194139513    44.494602957   0   0   0 # h*
    537      7   6  0.410000    23.346559553     8.782194081    42.502919081   0   0   0 # h*
    538      7   6  0.410000    23.357442309    10.086992304    41.590581679   0   0   0 # h*
    539      7   6  0.410000    26.319224343    11.959065679    45.206969855   0   0   0 # h*
    540      7   6  0.410000    26.587640234    10.493576163    45.347758008   0   0   0 # h*
    541      8   1  1.500000    36.861416863    11.215430048    35.968892395   0   0   0 # casl
    542      8   1  1.500000    34.124076647    13.032383869    33.995808858   0   0   0 # casl
    543      8   2  1.000000    36.934637962    10.877849158    32.890322411   0   0   0 # sc2
    544      8   2  1.000000    37.751334007    13.045099712    30.900446599   0   0   0 # sc2
    545      8   2  1.000000    36.895211088     7.748073683    32.887523664   0   0   0 # sc2
    546      8   4 -0.620000    36.945902591    11.806013869    31.479777505   0   0   0 # oc12
    547      8   4 -0.620000    36.990961780     9.378196556    32.302595471   0   0   0 # oc12
    548      8   3 -0.930000    38.185027950    11.305457653    33.780309063   0   0   0 # oc13
    549      8   3 -0.930000    35.627924156    11.103443208    33.766315327   0   0   0 # oc13
    550      8   3 -1.000000    37.706296777     9.362133043    54.625026598   0   0   0 # oc13
    551      8   7 -0.690000    39.367841978    13.009933985    31.275472492   0   0   0 # oc14
    552      8   5 -0.820000    34.355004573    13.007205810    31.614115294   0   0   0 # o*
    553      8   4 -0.620000    36.985329466    14.364064403    31.490972495   0   0   0 # oc12
    554      8   3 -0.930000    35.532173462     7.624495128    33.771912821   0   0   0 # oc13
    555      8   5 -0.820000    34.383166483    11.258717087    28.070961001   0   0   0 # o*
    556      8   1  1.700000    37.661215964     7.490883821    28.040175301   0   0   0 # casl
    557      8   5 -0.820000    36.838887269    11.259900936    27.987000000   0   0   0 # o*
    558      8   1  1.500000    34.045223234    13.061807498    49.962392395   0   0   0 # casl
    559      8   1  1.500000    36.940270277    11.186006418    47.989308858   0   0   0 # casl
    560      8   2  1.000000    34.118444332    12.724226608    46.883822411   0   0   0 # sc2
    561      8   2  1.000000    34.935140378    14.891477163    44.893946599   0   0   0 # sc2
    562      8   2  1.000000    34.079017458     9.594451133    46.881023664   0   0   0 # sc2
    563      8   4 -0.620000    34.129708962    13.652391319    45.473277505   0   0   0 # oc12
    564      8   4 -0.620000    34.174768151    11.224574007    46.296095471   0   0   0 # oc12
    565      8   3 -0.930000    35.368834320    13.151835103    47.773809063   0   0   0 # oc13
    566      8   3 -0.930000    32.811730526    12.949820658    47.759815327   0   0   0 # oc13
    567      8   3 -1.000000    34.890103147    11.208510494    40.631526598   0   0   0 # oc13
    568      8   7 -0.690000    36.551648348    14.856311435    45.268972492   0   0   0 # oc14
    569      8   5 -0.820000    37.171198202    11.160828360    45.607615294   0   0   0 # o*
    570      8   3 -0.620000    34.169135836     8.785441853    45.484472495   0   0   0 # oc13
    571      8   3 -0.930000    32.715979833     9.470872578    47.765412821   0   0   0 # oc13
    572      8   5 -0.820000    35.244921780    14.829450529    40.413227952   0   0   0 # o*
    573      8   1  1.500000    36.861416863    14.927930047    47.992107605   0   0   0 # casl
    574      8   1  1.500000    34.124076647     9.319883868    49.965191142   0   0   0 # casl
    575      8   2  1.000000    36.934637962    14.590349157    51.070677589   0   0   0 # sc2
    576      8   2  1.000000    37.751334007     9.332599713    53.060553401   0   0   0 # sc2
    577      8   2  1.000000    36.895211088    11.460573682    51.073476336   0   0   0 # sc2
    578      8   4 -0.620000    36.945902591     8.093513868    52.481222495   0   0   0 # oc12
    579      8   4 -0.620000    36.990961781    13.090696556    51.658404529   0   0   0 # oc12
    580      8   3 -0.930000    35.627924155    14.815943209    50.194684673   0   0   0 # oc13
    581      8   3 -1.000000    37.706275153    13.074641591    29.335973402   0   0   0 # oc13
    582      8   3 -0.690000    39.367841977     9.297433985    52.685527508   0   0   0 # oc13
    583      8   4 -0.620000    36.985329466    10.651564402    52.470027505   0   0   0 # oc12
    584      8   3 -0.930000    35.532173462    11.336995128    50.189087179   0   0   0 # oc13
    585      8   3 -0.930000    38.241373392    11.112596441    50.183489684   0   0   0 # oc13
    586      8   5 -0.820000    38.061115410     9.270573079    29.554272048   0   0   0 # o*
    587      8   1  1.500000    34.045223233     9.349307498    33.998607605   0   0   0 # casl
    588      8   1  1.500000    36.940270277    14.898506418    35.971691142   0   0   0 # casl
    589      8   2  1.000000    34.118444332     9.011726608    37.077177589   0   0   0 # sc2
    590      8   2  1.000000    34.935140377    11.178977163    39.067053401   0   0   0 # sc2
    591      8   2  1.000000    34.079017458    13.306951132    37.079976336   0   0   0 # sc2
    592      8   4 -0.620000    34.129708962     9.939891319    38.487722495   0   0   0 # oc12
    593      8   4 -0.620000    34.174768151    14.937074007    37.664904529   0   0   0 # oc12
    594      8   3 -0.930000    32.811730526     9.237320659    36.201184673   0   0   0 # oc13
    595      8   3 -1.000000    34.890081524    14.921019042    43.329473402   0   0   0 # oc13
    596      8   7 -0.690000    36.551648348    11.143811435    38.692027508   0   0   0 # oc14
    597      8   5 -0.820000    37.171198203    14.873328360    38.353384706   0   0   0 # o*
    598      8   4 -0.620000    34.169135836    12.497941853    38.476527505   0   0   0 # oc12
    599      8   3 -0.930000    32.715979832    13.183372578    36.195587179   0   0   0 # oc13
    600      8   3 -0.930000    35.425179762    12.958973891    36.189989684   0   0   0 # oc13
    601      8   5 -0.820000    35.244921780    11.116950530    43.547772048   0   0   0 # o*
    602      8   5 -0.820000    38.123050025     9.363611388    42.064461001   0   0   0 # o*
    603      8   5 -0.820000    37.199360112    13.124839637    41.896538999   0   0   0 # o*
    604      8   1  1.700000    34.845022335    13.049761272    41.927324699   0   0   0 # casl
    605      8   5 -0.820000    34.022693638     9.393778386    41.980500000   0   0   0 # o*
    606      8   8  0.420000    37.143967651    14.934707637    44.543567616   0   0   0 # hoy
    607      8   8  0.420000    37.125562360    10.751299589    39.323226581   0   0   0 # hoy
    608      8   8  0.420000    39.952943087    13.013902590    30.537392443   0   0   0 # hoy
    609      8   6  0.410000    38.367947827     9.135600388    30.485299190   0   0   0 # h*
    610      8   6  0.410000    37.537826762    10.092070694    29.699690205   0   0   0 # h*
    611      8   6  0.410000    34.711272849    13.818231589    31.184921326   0   0   0 # h*
    612      8   6  0.410000    35.076710188    12.375500267    31.373507348   0   0   0 # h*
    613      8   6  0.410000    34.869828987    11.955331695    28.563324689   0   0   0 # h*
    614      8   6  0.410000    35.198165989    10.809572219    27.738451405   0   0   0 # h*
    615      8   6  0.410000    37.407025865    10.556760414    27.574660375   0   0   0 # h*
    616      8   6  0.410000    37.450551694    11.855991258    28.494734712   0   0   0 # h*
    617      8   6  0.410000    36.726796853    14.879692146    39.227697981   0   0   0 # h*
    618      8   6  0.410000    38.084269549    14.607930692    38.615428401   0   0   0 # h*
    619      8   6  0.410000    34.814718043    15.674469415    40.691850912   0   0   0 # h*
    620      8   6  0.410000    34.862693224    14.772345940    39.497968959   0   0   0 # h*
    621      8   6  0.410000    37.659462602    13.138603070    41.029448887   0   0   0 # h*
    622      8   6  0.410000    38.029684732    13.067759124    42.428054179   0   0   0 # h*
    623      8   6  0.410000    37.498622495     8.617805367    41.934312897   0   0   0 # h*
    624      8   6  0.410000    37.493757709    10.073424903    42.321808815   0   0   0 # h*
    625      8   6  0.410000    34.620550897    10.363884248    43.636539152   0   0   0 # h*
    626      8   6  0.410000    35.514445715    11.194139513    44.494602957   0   0   0 # h*
    627      8   6  0.410000    34.611359553     8.782194081    42.502919081   0   0   0 # h*
    628      8   6  0.410000    34.622242309    10.086992304    41.590581679   0   0   0 # h*
    629      8   6  0.410000    37.584024343    11.959065679    45.206969855   0   0   0 # h*
    630      8   6  0.410000    37.852440234    10.493576163    45.347758008   0   0   0 # h*
    631      9   1  1.500000     3.067016863    18.640430048    35.968892395   0   0   0 # casl
    632      9   1  1.500000     0.329676647    20.457383869    33.995808858   0   0   0 # casl
    633      9   2  1.000000     3.140237962    18.302849158    32.890322411   0   0   0 # sc2
    634      9   2  1.000000     3.100811088    15.173073683    32.887523664   0   0   0 # sc2
    635      9   3 -0.620000     3.151502591    19.231013869    31.479777505   0   0   0 # oc13
    636      9   4 -0.620000     3.196561780    16.803196556    32.302595471   0   0   0 # oc12
    637      9   3 -0.930000     4.390627950    18.730457653    33.780309063   0   0   0 # oc13
    638      9   3 -0.930000     1.833524156    18.528443208    33.766315327   0   0   0 # oc13
    639      9   5 -0.820000     0.560604573    20.432205810    31.614115294   0   0   0 # o*
    640      9   3 -0.620000     3.190929466    21.789064403    31.490972495   0   0   0 # oc13
    641      9   3 -0.930000     1.737773462    15.049495128    33.771912821   0   0   0 # oc13
    642      9   5 -0.820000     0.588766483    18.683717087    28.070961001   0   0   0 # o*
    643      9   1  1.700000     3.866815964    14.915883821    28.040175301   0   0   0 # casl
    644      9   5 -0.820000     3.044487269    18.684900936    27.987000000   0   0   0 # o*
    645      9   1  1.500000     0.250823234    20.486807498    49.962392395   0   0   0 # casl
    646      9   1  1.500000     3.145870277    18.611006418    47.989308858   0   0   0 # casl
    647      9   2  1.000000     0.324044332    20.149226608    46.883822411   0   0   0 # sc2
    648      9   2  1.000000     0.284617458    17.019451133    46.881023664   0   0   0 # sc2
    649      9   3 -0.620000     0.335308962    21.077391319    45.473277505   0   0   0 # oc13
    650      9   4 -0.620000     0.380368151    18.649574007    46.296095471   0   0   0 # oc12
    651      9   3 -0.930000     1.574434320    20.576835103    47.773809063   0   0   0 # oc13
    652      9   3 -0.930000    44.076530526    20.374820658    47.759815327  -1   0   0 # oc13
    653      9   5 -0.820000     3.376798202    18.585828360    45.607615294   0   0   0 # o*
    654      9   3 -0.620000     0.374735836    16.210441853    45.484472495   0   0   0 # oc13
    655      9   3 -0.930000    43.980779833    16.895872578    47.765412821  -1   0   0 # oc13
    656      9   5 -0.820000     1.450521780    22.254450529    40.413227952   0   0   0 # o*
    657      9   1  1.500000     3.067016863    22.352930047    47.992107605   0   0   0 # casl
    658      9   1  1.500000     0.329676647    16.744883868    49.965191142   0   0   0 # casl
    659      9   2  1.000000     3.140237962    22.015349157    51.070677589   0   0   0 # sc2
    660      9   2  1.000000     3.100811088    18.885573682    51.073476336   0   0   0 # sc2
    661      9   3 -0.620000     3.151502591    15.518513868    52.481222495   0   0   0 # oc13
    662      9   4 -0.620000     3.196561781    20.515696556    51.658404529   0   0   0 # oc12
    663      9   3 -0.930000     1.833524155    22.240943209    50.194684673   0   0   0 # oc13
    664      9   3 -0.620000     3.190929466    18.076564402    52.470027505   0   0   0 # oc13
    665      9   3 -0.930000     1.737773462    18.761995128    50.189087179   0   0   0 # oc13
    666      9   3 -0.930000     4.446973392    18.537596441    50.183489684   0   0   0 # oc13
    667      9   5 -0.820000     4.266715410    16.695573079    29.554272048   0   0   0 # o*
    668      9   1  1.500000     0.250823233    16.774307498    33.998607605   0   0   0 # casl
    669      9   1  1.500000     3.145870277    22.323506418    35.971691142   0   0   0 # casl
    670      9   2  1.000000     0.324044332    16.436726608    37.077177589   0   0   0 # sc2
    671      9   2  1.000000     0.284617458    20.731951132    37.079976336   0   0   0 # sc2
    672      9   3 -0.620000     0.335308962    17.364891319    38.487722495   0   0   0 # oc13
    673      9   4 -0.620000     0.380368151    22.362074007    37.664904529   0   0   0 # oc12
    674      9   3 -0.930000    44.076530526    16.662320659    36.201184673  -1   0   0 # oc13
    675      9   5 -0.820000     3.376798203    22.298328360    38.353384706   0   0   0 # o*
    676      9   3 -0.620000     0.374735836    19.922941853    38.476527505   0   0   0 # oc13
    677      9   3 -0.930000    43.980779832    20.608372578    36.195587179  -1   0   0 # oc13
    678      9   3 -0.930000     1.630779762    20.383973891    36.189989684   0   0   0 # oc13
    679      9   5 -0.820000     1.450521780    18.541950530    43.547772048   0   0   0 # o*
    680      9   5 -0.820000     4.328650025    16.788611388    42.064461001   0   0   0 # o*
    681      9   5 -0.820000     3.404960112    20.549839637    41.896538999   0   0   0 # o*
    682      9   1  1.700000     1.050622335    20.474761272    41.927324699   0   0   0 # casl
    683      9   5 -0.820000     0.228293638    16.818778386    41.980500000   0   0   0 # o*
    684      9   6  0.410000     4.573547827    16.560600388    30.485299190   0   0   0 # h*
    685      9   6  0.410000     3.743426762    17.517070694    29.699690205   0   0   0 # h*
    686      9   6  0.410000     0.916872849    21.243231589    31.184921326   0   0   0 # h*
    687      9   6  0.410000     1.282310188    19.800500267    31.373507348   0   0   0 # h*
    688      9   6  0.410000     1.075428987    19.380331695    28.563324689   0   0   0 # h*
    689      9   6  0.410000     1.403765989    18.234572219    27.738451405   0   0   0 # h*
    690      9   6  0.410000     3.612625865    17.981760414    27.574660375   0   0   0 # h*
    691      9   6  0.410000     3.656151694    19.280991258    28.494734712   0   0   0 # h*
    692      9   6  0.410000     2.932396853    22.304692146    39.227697981   0   0   0 # h*
    693      9   6  0.410000     4.289869549    22.032930692    38.615428401   0   0   0 # h*
    694      9   6  0.410000     1.020318043    23.099469415    40.691850912   0   0   0 # h*
    695      9   6  0.410000     1.068293224    22.197345940    39.497968959   0   0   0 # h*
    696      9   6  0.410000     3.865062602    20.563603070    41.029448887   0   0   0 # h*
    697      9   6  0.410000     4.235284732    20.492759124    42.428054179   0   0   0 # h*
    698      9   6  0.410000     3.704222495    16.042805367    41.934312897   0   0   0 # h*
    699      9   6  0.410000     3.699357709    17.498424903    42.321808815   0   0   0 # h*
    700      9   6  0.410000     0.826150897    17.788884248    43.636539152   0   0   0 # h*
    701      9   6  0.410000     1.720045715    18.619139513    44.494602957   0   0   0 # h*
    702      9   6  0.410000     0.816959553    16.207194081    42.502919081   0   0   0 # h*
    703      9   6  0.410000     0.827842309    17.511992304    41.590581679   0   0   0 # h*
    704      9   6  0.410000     3.789624343    19.384065679    45.206969855   0   0   0 # h*
    705      9   6  0.410000     4.058040234    17.918576163    45.347758008   0   0   0 # h*
    706     10   1  1.500000    14.331816863    18.640430048    35.968892395   0   0   0 # casl
    707     10   1  1.500000    11.594476647    20.457383869    33.995808858   0   0   0 # casl
    708     10   2  1.000000    14.405037962    18.302849158    32.890322411   0   0   0 # sc2
    709     10   2  1.000000    14.365611088    15.173073683    32.887523664   0   0   0 # sc2
    710     10   3 -0.620000    14.416302591    19.231013869    31.479777505   0   0   0 # oc13
    711     10   4 -0.620000    14.461361780    16.803196556    32.302595471   0   0   0 # oc12
    712     10   3 -0.930000    15.655427950    18.730457653    33.780309063   0   0   0 # oc13
    713     10   3 -0.930000    13.098324156    18.528443208    33.766315327   0   0   0 # oc13
    714     10   5 -0.820000    11.825404573    20.432205810    31.614115294   0   0   0 # o*
    715     10   3 -0.620000    14.455729466    21.789064403    31.490972495   0   0   0 # oc13
    716     10   3 -0.930000    13.002573462    15.049495128    33.771912821   0   0   0 # oc13
    717     10   5 -0.820000    11.853566483    18.683717087    28.070961001   0   0   0 # o*
    718     10   1  1.700000    15.131615964    14.915883821    28.040175301   0   0   0 # casl
    719     10   5 -0.820000    14.309287269    18.684900936    27.987000000   0   0   0 # o*
    720     10   1  1.500000    11.515623234    20.486807498    49.962392395   0   0   0 # casl
    721     10   1  1.500000    14.410670277    18.611006418    47.989308858   0   0   0 # casl
    722     10   2  1.000000    11.588844332    20.149226608    46.883822411   0   0   0 # sc2
    723     10   2  1.000000    11.549417458    17.019451133    46.881023664   0   0   0 # sc2
    724     10   3 -0.620000    11.600108962    21.077391319    45.473277505   0   0   0 # oc13
    725     10   4 -0.620000    11.645168151    18.649574007    46.296095471   0   0   0 # oc12
    726     10   3 -0.930000    12.839234320    20.576835103    47.773809063   0   0   0 # oc13
    727     10   3 -0.930000    10.282130526    20.374820658    47.759815327   0   0   0 # oc13
    728     10   5 -0.820000    14.641598202    18.585828360    45.607615294   0   0   0 # o*
    729     10   3 -0.620000    11.639535836    16.210441853    45.484472495   0   0   0 # oc13
    730     10   3 -0.930000    10.186379833    16.895872578    47.765412821   0   0   0 # oc13
    731     10   5 -0.820000    12.715321780    22.254450529    40.413227952   0   0   0 # o*
    732     10   1  1.500000    14.331816863    22.352930047    47.992107605   0   0   0 # casl
    733     10   1  1.500000    11.594476647    16.744883868    49.965191142   0   0   0 # casl
    734     10   2  1.000000    14.405037962    22.015349157    51.070677589   0   0   0 # sc2
    735     10   2  1.000000    14.365611088    18.885573682    51.073476336   0   0   0 # sc2
    736     10   3 -0.620000    14.416302591    15.518513868    52.481222495   0   0   0 # oc13
    737     10   4 -0.620000    14.461361781    20.515696556    51.658404529   0   0   0 # oc12
    738     10   3 -0.930000    13.098324155    22.240943209    50.194684673   0   0   0 # oc13
    739     10   3 -0.620000    14.455729466    18.076564402    52.470027505   0   0   0 # oc13
    740     10   3 -0.930000    13.002573462    18.761995128    50.189087179   0   0   0 # oc13
    741     10   3 -0.930000    15.711773392    18.537596441    50.183489684   0   0   0 # oc13
    742     10   5 -0.820000    15.531515410    16.695573079    29.554272048   0   0   0 # o*
    743     10   1  1.500000    11.515623233    16.774307498    33.998607605   0   0   0 # casl
    744     10   1  1.500000    14.410670277    22.323506418    35.971691142   0   0   0 # casl
    745     10   2  1.000000    11.588844332    16.436726608    37.077177589   0   0   0 # sc2
    746     10   2  1.000000    11.549417458    20.731951132    37.079976336   0   0   0 # sc2
    747     10   3 -0.620000    11.600108962    17.364891319    38.487722495   0   0   0 # oc13
    748     10   4 -0.620000    11.645168151    22.362074007    37.664904529   0   0   0 # oc12
    749     10   3 -0.930000    10.282130526    16.662320659    36.201184673   0   0   0 # oc13
    750     10   5 -0.820000    14.641598203    22.298328360    38.353384706   0   0   0 # o*
    751     10   3 -0.620000    11.639535836    19.922941853    38.476527505   0   0   0 # oc13
    752     10   3 -0.930000    10.186379832    20.608372578    36.195587179   0   0   0 # oc13
    753     10   3 -0.930000    12.895579762    20.383973891    36.189989684   0   0   0 # oc13
    754     10   5 -0.820000    12.715321780    18.541950530    43.547772048   0   0   0 # o*
    755     10   5 -0.820000    15.593450025    16.788611388    42.064461001   0   0   0 # o*
    756     10   5 -0.820000    14.669760112    20.549839637    41.896538999   0   0   0 # o*
    757     10   1  1.700000    12.315422335    20.474761272    41.927324699   0   0   0 # casl
    758     10   5 -0.820000    11.493093638    16.818778386    41.980500000   0   0   0 # o*
    759     10   6  0.410000    15.838347827    16.560600388    30.485299190   0   0   0 # h*
    760     10   6  0.410000    15.008226762    17.517070694    29.699690205   0   0   0 # h*
    761     10   6  0.410000    12.181672849    21.243231589    31.184921326   0   0   0 # h*
    762     10   6  0.410000    12.547110188    19.800500267    31.373507348   0   0   0 # h*
    763     10   6  0.410000    12.340228987    19.380331695    28.563324689   0   0   0 # h*
    764     10   6  0.410000    12.668565989    18.234572219    27.738451405   0   0   0 # h*
    765     10   6  0.410000    14.877425865    17.981760414    27.574660375   0   0   0 # h*
    766     10   6  0.410000    14.920951694    19.280991258    28.494734712   0   0   0 # h*
    767     10   6  0.410000    14.197196853    22.304692146    39.227697981   0   0   0 # h*
    768     10   6  0.410000    15.554669549    22.032930692    38.615428401   0   0   0 # h*
    769     10   6  0.410000    12.285118043    23.099469415    40.691850912   0   0   0 # h*
    770     10   6  0.410000    12.333093224    22.197345940    39.497968959   0   0   0 # h*
    771     10   6  0.410000    15.129862602    20.563603070    41.029448887   0   0   0 # h*
    772     10   6  0.410000    15.500084732    20.492759124    42.428054179   0   0   0 # h*
    773     10   6  0.410000    14.969022495    16.042805367    41.934312897   0   0   0 # h*
    774     10   6  0.410000    14.964157709    17.498424903    42.321808815   0   0   0 # h*
    775     10   6  0.410000    12.090950897    17.788884248    43.636539152   0   0   0 # h*
    776     10   6  0.410000    12.984845715    18.619139513    44.494602957   0   0   0 # h*
    777     10   6  0.410000    12.081759553    16.207194081    42.502919081   0   0   0 # h*
    778     10   6  0.410000    12.092642309    17.511992304    41.590581679   0   0   0 # h*
    779     10   6  0.410000    15.054424343    19.384065679    45.206969855   0   0   0 # h*
    780     10   6  0.410000    15.322840234    17.918576163    45.347758008   0   0   0 # h*
    781     11   1  1.500000    25.596616863    18.640430048    35.968892395   0   0   0 # casl
    782     11   1  1.500000    22.859276647    20.457383869    33.995808858   0   0   0 # casl
    783     11   2  1.000000    25.669837962    18.302849158    32.890322411   0   0   0 # sc2
    784     11   2  1.000000    26.486534007    20.470099712    30.900446599   0   0   0 # sc2
    785     11   2  1.000000    25.630411088    15.173073683    32.887523664   0   0   0 # sc2
    786     11   4 -0.620000    25.681102591    19.231013869    31.479777505   0   0   0 # oc12
    787     11   4 -0.620000    25.726161780    16.803196556    32.302595471   0   0   0 # oc12
    788     11   3 -0.930000    26.920227950    18.730457653    33.780309063   0   0   0 # oc13
    789     11   3 -0.930000    24.363124156    18.528443208    33.766315327   0   0   0 # oc13
    790     11   3 -1.000000    26.441496777    16.787133043    54.625026598   0   0   0 # oc13
    791     11   7 -0.690000    28.103041978    20.434933985    31.275472492   0   0   0 # oc14
    792     11   5 -0.820000    23.090204573    20.432205810    31.614115294   0   0   0 # o*
    793     11   4 -0.620000    25.720529466    21.789064403    31.490972495   0   0   0 # oc12
    794     11   3 -0.930000    24.267373462    15.049495128    33.771912821   0   0   0 # oc13
    795     11   5 -0.820000    23.118366483    18.683717087    28.070961001   0   0   0 # o*
    796     11   1  1.700000    26.396415964    14.915883821    28.040175301   0   0   0 # casl
    797     11   5 -0.820000    25.574087269    18.684900936    27.987000000   0   0   0 # o*
    798     11   1  1.500000    22.780423234    20.486807498    49.962392395   0   0   0 # casl
    799     11   1  1.500000    25.675470277    18.611006418    47.989308858   0   0   0 # casl
    800     11   2  1.000000    22.853644332    20.149226608    46.883822411   0   0   0 # sc2
    801     11   2  1.000000    23.670340378    22.316477163    44.893946599   0   0   0 # sc2
    802     11   2  1.000000    22.814217458    17.019451133    46.881023664   0   0   0 # sc2
    803     11   4 -0.620000    22.864908962    21.077391319    45.473277505   0   0   0 # oc12
    804     11   4 -0.620000    22.909968151    18.649574007    46.296095471   0   0   0 # oc12
    805     11   3 -0.930000    24.104034320    20.576835103    47.773809063   0   0   0 # oc13
    806     11   3 -0.930000    21.546930526    20.374820658    47.759815327   0   0   0 # oc13
    807     11   3 -1.000000    23.625303147    18.633510494    40.631526598   0   0   0 # oc13
    808     11   7 -0.690000    25.286848348    22.281311435    45.268972492   0   0   0 # oc14
    809     11   5 -0.820000    25.906398202    18.585828360    45.607615294   0   0   0 # o*
    810     11   4 -0.620000    22.904335836    16.210441853    45.484472495   0   0   0 # oc12
    811     11   3 -0.930000    21.451179833    16.895872578    47.765412821   0   0   0 # oc13
    812     11   5 -0.820000    23.980121780    22.254450529    40.413227952   0   0   0 # o*
    813     11   1  1.500000    25.596616863    22.352930047    47.992107605   0   0   0 # casl
    814     11   1  1.500000    22.859276647    16.744883868    49.965191142   0   0   0 # casl
    815     11   2  1.000000    25.669837962    22.015349157    51.070677589   0   0   0 # sc2
    816     11   2  1.000000    26.486534007    16.757599713    53.060553401   0   0   0 # sc2
    817     11   2  1.000000    25.630411088    18.885573682    51.073476336   0   0   0 # sc2
    818     11   4 -0.620000    25.681102591    15.518513868    52.481222495   0   0   0 # oc12
    819     11   4 -0.620000    25.726161781    20.515696556    51.658404529   0   0   0 # oc12
    820     11   3 -0.930000    24.363124155    22.240943209    50.194684673   0   0   0 # oc13
    821     11   3 -1.000000    26.441475153    20.499641591    29.335973402   0   0   0 # oc13
    822     11   3 -0.690000    28.103041977    16.722433985    52.685527508   0   0   0 # oc13
    823     11   4 -0.620000    25.720529466    18.076564402    52.470027505   0   0   0 # oc12
    824     11   3 -0.930000    24.267373462    18.761995128    50.189087179   0   0   0 # oc13
    825     11   3 -0.930000    26.976573392    18.537596441    50.183489684   0   0   0 # oc13
    826     11   5 -0.820000    26.796315410    16.695573079    29.554272048   0   0   0 # o*
    827     11   1  1.500000    22.780423233    16.774307498    33.998607605   0   0   0 # casl
    828     11   1  1.500000    25.675470277    22.323506418    35.971691142   0   0   0 # casl
    829     11   2  1.000000    22.853644332    16.436726608    37.077177589   0   0   0 # sc2
    830     11   2  1.000000    23.670340377    18.603977163    39.067053401   0   0   0 # sc2
    831     11   2  1.000000    22.814217458    20.731951132    37.079976336   0   0   0 # sc2
    832     11   4 -0.620000    22.864908962    17.364891319    38.487722495   0   0   0 # oc12
    833     11   4 -0.620000    22.909968151    22.362074007    37.664904529   0   0   0 # oc12
    834     11   3 -0.930000    21.546930526    16.662320659    36.201184673   0   0   0 # oc13
    835     11   3 -1.000000    23.625281524    22.346019042    43.329473402   0   0   0 # oc13
    836     11   7 -0.690000    25.286848348    18.568811435    38.692027508   0   0   0 # oc14
    837     11   5 -0.820000    25.906398203    22.298328360    38.353384706   0   0   0 # o*
    838     11   4 -0.620000    22.904335836    19.922941853    38.476527505   0   0   0 # oc12
    839     11   3 -0.930000    21.451179832    20.608372578    36.195587179   0   0   0 # oc13
    840     11   3 -0.930000    24.160379762    20.383973891    36.189989684   0   0   0 # oc13
    841     11   5 -0.820000    23.980121780    18.541950530    43.547772048   0   0   0 # o*
    842     11   5 -0.820000    26.858250025    16.788611388    42.064461001   0   0   0 # o*
    843     11   5 -0.820000    25.934560112    20.549839637    41.896538999   0   0   0 # o*
    844     11   1  1.700000    23.580222335    20.474761272    41.927324699   0   0   0 # casl
    845     11   5 -0.820000    22.757893638    16.818778386    41.980500000   0   0   0 # o*
    846     11   8  0.420000    25.879167651    22.359707637    44.543567616   0   0   0 # hoy
    847     11   8  0.420000    25.860762360    18.176299589    39.323226581   0   0   0 # hoy
    848     11   8  0.420000    28.688143087    20.438902590    30.537392443   0   0   0 # hoy
    849     11   6  0.410000    27.103147827    16.560600388    30.485299190   0   0   0 # h*
    850     11   6  0.410000    26.273026762    17.517070694    29.699690205   0   0   0 # h*
    851     11   6  0.410000    23.446472849    21.243231589    31.184921326   0   0   0 # h*
    852     11   6  0.410000    23.811910188    19.800500267    31.373507348   0   0   0 # h*
    853     11   6  0.410000    23.605028987    19.380331695    28.563324689   0   0   0 # h*
    854     11   6  0.410000    23.933365989    18.234572219    27.738451405   0   0   0 # h*
    855     11   6  0.410000    26.142225865    17.981760414    27.574660375   0   0   0 # h*
    856     11   6  0.410000    26.185751694    19.280991258    28.494734712   0   0   0 # h*
    857     11   6  0.410000    25.461996853    22.304692146    39.227697981   0   0   0 # h*
    858     11   6  0.410000    26.819469549    22.032930692    38.615428401   0   0   0 # h*
    859     11   6  0.410000    23.549918043    23.099469415    40.691850912   0   0   0 # h*
    860     11   6  0.410000    23.597893224    22.197345940    39.497968959   0   0   0 # h*
    861     11   6  0.410000    26.394662602    20.563603070    41.029448887   0   0   0 # h*
    862     11   6  0.410000    26.764884732    20.492759124    42.428054179   0   0   0 # h*
    863     11   6  0.410000    26.233822495    16.042805367    41.934312897   0   0   0 # h*
    864     11   6  0.410000    26.228957709    17.498424903    42.321808815   0   0   0 # h*
    865     11   6  0.410000    23.355750897    17.788884248    43.636539152   0   0   0 # h*
    866     11   6  0.410000    24.249645715    18.619139513    44.494602957   0   0   0 # h*
    867     11   6  0.410000    23.346559553    16.207194081    42.502919081   0   0   0 # h*
    868     11   6  0.410000    23.357442309    17.511992304    41.590581679   0   0   0 # h*
    869     11   6  0.410000    26.319224343    19.384065679    45.206969855   0   0   0 # h*
    870     11   6  0.410000    26.587640234    17.918576163    45.347758008   0   0   0 # h*
    871     12   1  1.500000    36.861416863    18.640430048    35.968892395   0   0   0 # casl
    872     12   1  1.500000    34.124076647    20.457383869    33.995808858   0   0   0 # casl
    873     12   2  1.000000    36.934637962    18.302849158    32.890322411   0   0   0 # sc2
    874     12   2  1.000000    36.895211088    15.173073683    32.887523664   0   0   0 # sc2
    875     12   3 -0.620000    36.945902591    19.231013869    31.479777505   0   0   0 # oc13
    876     12   4 -0.620000    36.990961780    16.803196556    32.302595471   0   0   0 # oc12
    877     12   3 -0.930000    38.185027950    18.730457653    33.780309063   0   0   0 # oc13
    878     12   3 -0.930000    35.627924156    18.528443208    33.766315327   0   0   0 # oc13
    879     12   5 -0.820000    34.355004573    20.432205810    31.614115294   0   0   0 # o*
    880     12   3 -0.620000    36.985329466    21.789064403    31.490972495   0   0   0 # oc13
    881     12   3 -0.930000    35.532173462    15.049495128    33.771912821   0   0   0 # oc13
    882     12   5 -0.820000    34.383166483    18.683717087    28.070961001   0   0   0 # o*
    883     12   1  1.700000    37.661215964    14.915883821    28.040175301   0   0   0 # casl
    884     12   5 -0.820000    36.838887269    18.684900936    27.987000000   0   0   0 # o*
    885     12   1  1.500000    34.045223234    20.486807498    49.962392395   0   0   0 # casl
    886     12   1  1.500000    36.940270277    18.611006418    47.989308858   0   0   0 # casl
    887     12   2  1.000000    34.118444332    20.149226608    46.883822411   0   0   0 # sc2
    888     12   2  1.000000    34.079017458    17.019451133    46.881023664   0   0   0 # sc2
    889     12   3 -0.620000    34.129708962    21.077391319    45.473277505   0   0   0 # oc13
    890     12   4 -0.620000    34.174768151    18.649574007    46.296095471   0   0   0 # oc12
    891     12   3 -0.930000    35.368834320    20.576835103    47.773809063   0   0   0 # oc13
    892     12   3 -0.930000    32.811730526    20.374820658    47.759815327   0   0   0 # oc13
    893     12   5 -0.820000    37.171198202    18.585828360    45.607615294   0   0   0 # o*
    894     12   4 -0.620000    34.169135836    16.210441853    45.484472495   0   0   0 # oc12
    895     12   3 -0.930000    32.715979833    16.895872578    47.765412821   0   0   0 # oc13
    896     12   5 -0.820000    35.244921780    22.254450529    40.413227952   0   0   0 # o*
    897     12   1  1.500000    36.861416863    22.352930047    47.992107605   0   0   0 # casl
    898     12   1  1.500000    34.124076647    16.744883868    49.965191142   0   0   0 # casl
    899     12   2  1.000000    36.934637962    22.015349157    51.070677589   0   0   0 # sc2
    900     12   2  1.000000    36.895211088    18.885573682    51.073476336   0   0   0 # sc2
    901     12   3 -0.620000    36.945902591    15.518513868    52.481222495   0   0   0 # oc13
    902     12   4 -0.620000    36.990961781    20.515696556    51.658404529   0   0   0 # oc12
    903     12   3 -0.930000    35.627924155    22.240943209    50.194684673   0   0   0 # oc13
    904     12   3 -0.620000    36.985329466    18.076564402    52.470027505   0   0   0 # oc13
    905     12   3 -0.930000    35.532173462    18.761995128    50.189087179   0   0   0 # oc13
    906     12   3 -0.930000    38.241373392    18.537596441    50.183489684   0   0   0 # oc13
    907     12   5 -0.820000    38.061115410    16.695573079    29.554272048   0   0   0 # o*
    908     12   1  1.500000    34.045223233    16.774307498    33.998607605   0   0   0 # casl
    909     12   1  1.500000    36.940270277    22.323506418    35.971691142   0   0   0 # casl
    910     12   2  1.000000    34.118444332    16.436726608    37.077177589   0   0   0 # sc2
    911     12   2  1.000000    34.079017458    20.731951132    37.079976336   0   0   0 # sc2
    912     12   3 -0.620000    34.129708962    17.364891319    38.487722495   0   0   0 # oc13
    913     12   4 -0.620000    34.174768151    22.362074007    37.664904529   0   0   0 # oc12
    914     12   3 -0.930000    32.811730526    16.662320659    36.201184673   0   0   0 # oc13
    915     12   5 -0.820000    37.171198203    22.298328360    38.353384706   0   0   0 # o*
    916     12   3 -0.620000    34.169135836    19.922941853    38.476527505   0   0   0 # oc13
    917     12   3 -0.930000    32.715979832    20.608372578    36.195587179   0   0   0 # oc13
    918     12   3 -0.930000    35.425179762    20.383973891    36.189989684   0   0   0 # oc13
    919     12   5 -0.820000    35.244921780    18.541950530    43.547772048   0   0   0 # o*
    920     12   5 -0.820000    38.123050025    16.788611388    42.064461001   0   0   0 # o*
    921     12   5 -0.820000    37.199360112    20.549839637    41.896538999   0   0   0 # o*
    922     12   1  1.700000    34.845022335    20.474761272    41.927324699   0   0   0 # casl
    923     12   5 -0.820000    34.022693638    16.818778386    41.980500000   0   0   0 # o*
    924     12   6  0.410000    38.367947827    16.560600388    30.485299190   0   0   0 # h*
    925     12   6  0.410000    37.537826762    17.517070694    29.699690205   0   0   0 # h*
    926     12   6  0.410000    34.711272849    21.243231589    31.184921326   0   0   0 # h*
    927     12   6  0.410000    35.076710188    19.800500267    31.373507348   0   0   0 # h*
    928     12   6  0.410000    34.869828987    19.380331695    28.563324689   0   0   0 # h*
    929     12   6  0.410000    35.198165989    18.234572219    27.738451405   0   0   0 # h*
    930     12   6  0.410000    37.407025865    17.981760414    27.574660375   0   0   0 # h*
    931     12   6  0.410000    37.450551694    19.280991258    28.494734712   0   0   0 # h*
    932     12   6  0.410000    36.726796853    22.304692146    39.227697981   0   0   0 # h*
    933     12   6  0.410000    38.084269549    22.032930692    38.615428401   0   0   0 # h*
    934     12   6  0.410000    34.814718043    23.099469415    40.691850912   0   0   0 # h*
    935     12   6  0.410000    34.862693224    22.197345940    39.497968959   0   0   0 # h*
    936     12   6  0.410000    37.659462602    20.563603070    41.029448887   0   0   0 # h*
    937     12   6  0.410000    38.029684732    20.492759124    42.428054179   0   0   0 # h*
    938     12   6  0.410000    37.498622495    16.042805367    41.934312897   0   0   0 # h*
    939     12   6  0.410000    37.493757709    17.498424903    42.321808815   0   0   0 # h*
    940     12   6  0.410000    34.620550897    17.788884248    43.636539152   0   0   0 # h*
    941     12   6  0.410000    35.514445715    18.619139513    44.494602957   0   0   0 # h*
    942     12   6  0.410000    34.611359553    16.207194081    42.502919081   0   0   0 # h*
    943     12   6  0.410000    34.622242309    17.511992304    41.590581679   0   0   0 # h*
    944     12   6  0.410000    37.584024343    19.384065679    45.206969855   0   0   0 # h*
    945     12   6  0.410000    37.852440234    17.918576163    45.347758008   0   0   0 # h*
    946     13   1  1.500000     3.067016863    26.065430048    35.968892395   0   0   0 # casl
    947     13   1  1.500000     0.329676647    27.882383869    33.995808858   0   0   0 # casl
    948     13   2  1.000000     3.140237962    25.727849158    32.890322411   0   0   0 # sc2
    949     13   2  1.000000     3.100811088    22.598073683    32.887523664   0   0   0 # sc2
    950     13   3 -0.620000     3.151502591    26.656013869    31.479777505   0   0   0 # oc13
    951     13   4 -0.620000     3.196561780    24.228196556    32.302595471   0   0   0 # oc12
    952     13   3 -0.930000     4.390627950    26.155457653    33.780309063   0   0   0 # oc13
    953     13   3 -0.930000     1.833524156    25.953443208    33.766315327   0   0   0 # oc13
    954     13   5 -0.820000     0.560604573    27.857205810    31.614115294   0   0   0 # o*
    955     13   3 -0.620000     3.190929466    29.214064403    31.490972495   0   0   0 # oc13
    956     13   3 -0.930000     1.737773462    22.474495128    33.771912821   0   0   0 # oc13
    957     13   5 -0.820000     0.588766483    26.108717087    28.070961001   0   0   0 # o*
    958     13   1  1.700000     3.866815964    22.340883821    28.040175301   0   0   0 # casl
    959     13   5 -0.820000     3.044487269    26.109900936    27.987000000   0   0   0 # o*
    960     13   1  1.500000     0.250823234    27.911807498    49.962392395   0   0   0 # casl
    961     13   1  1.500000     3.145870277    26.036006418    47.989308858   0   0   0 # casl
    962     13   2  1.000000     0.324044332    27.574226608    46.883822411   0   0   0 # sc2
    963     13   2  1.000000     0.284617458    24.444451133    46.881023664   0   0   0 # sc2
    964     13   3 -0.620000     0.335308962    28.502391319    45.473277505   0   0   0 # oc13
    965     13   4 -0.620000     0.380368151    26.074574007    46.296095471   0   0   0 # oc12
    966     13   3 -0.930000     1.574434320    28.001835103    47.773809063   0   0   0 # oc13
    967     13   3 -0.930000    44.076530526    27.799820658    47.759815327  -1   0   0 # oc13
    968     13   5 -0.820000     3.376798202    26.010828360    45.607615294   0   0   0 # o*
    969     13   3 -0.620000     0.374735836    23.635441853    45.484472495   0   0   0 # oc13
    970     13   3 -0.930000    43.980779833    24.320872578    47.765412821  -1   0   0 # oc13
    971     13   1  1.500000     0.329676647    24.169883868    49.965191142   0   0   0 # casl
    972     13   2  1.000000     3.140237962    29.440349157    51.070677589   0   0   0 # sc2
    973     13   2  1.000000     3.100811088    26.310573682    51.073476336   0   0   0 # sc2
    974     13   3 -0.620000     3.151502591    22.943513868    52.481222495   0   0   0 # oc13
    975     13   4 -0.620000     3.196561781    27.940696556    51.658404529   0   0   0 # oc12
    976     13   3 -0.930000     1.833524155    -0.034056791    50.194684673   0   1   0 # oc13
    977     13   3 -0.620000     3.190929466    25.501564402    52.470027505   0   0   0 # oc13
    978     13   3 -0.930000     1.737773462    26.186995128    50.189087179   0   0   0 # oc13
    979     13   3 -0.930000     4.446973392    25.962596441    50.183489684   0   0   0 # oc13
    980     13   5 -0.820000     4.266715410    24.120573079    29.554272048   0   0   0 # o*
    981     13   1  1.500000     0.250823233    24.199307498    33.998607605   0   0   0 # casl
    982     13   2  1.000000     0.324044332    23.861726608    37.077177589   0   0   0 # sc2
    983     13   2  1.000000     0.284617458    28.156951132    37.079976336   0   0   0 # sc2
    984     13   3 -0.620000     0.335308962    24.789891319    38.487722495   0   0   0 # oc13
    985     13   3 -0.930000    44.076530526    24.087320659    36.201184673  -1   0   0 # oc13
    986     13   5 -0.820000     3.376798203     0.023328360    38.353384706   0   1   0 # o*
    987     13   3 -0.620000     0.374735836    27.347941853    38.476527505   0   0   0 # oc13
    988     13   3 -0.930000    43.980779832    28.033372578    36.195587179  -1   0   0 # oc13
    989     13   3 -0.930000     1.630779762    27.808973891    36.189989684   0   0   0 # oc13
    990     13   5 -0.820000     1.450521780    25.966950530    43.547772048   0   0   0 # o*
    991     13   5 -0.820000     4.328650025    24.213611388    42.064461001   0   0   0 # o*
    992     13   5 -0.820000     3.404960112    27.974839637    41.896538999   0   0   0 # o*
    993     13   1  1.700000     1.050622335    27.899761272    41.927324699   0   0   0 # casl
    994     13   5 -0.820000     0.228293638    24.243778386    41.980500000   0   0   0 # o*
    995     13   6  0.410000     4.573547827    23.985600388    30.485299190   0   0   0 # h*
    996     13   6  0.410000     3.743426762    24.942070694    29.699690205   0   0   0 # h*
    997     13   6  0.410000     0.916872849    28.668231589    31.184921326   0   0   0 # h*
    998     13   6  0.410000     1.282310188    27.225500267    31.373507348   0   0   0 # h*
    999     13   6  0.410000     1.075428987    26.805331695    28.563324689   0   0   0 # h*
   1000     13   6  0.410000     1.403765989    25.659572219    27.738451405   0   0   0 # h*
   1001     13   6  0.410000     3.612625865    25.406760414    27.574660375   0   0   0 # h*
   1002     13   6  0.410000     3.656151694    26.705991258    28.494734712   0   0   0 # h*
   1003     13   6  0.410000     2.932396853     0.029692146    39.227697981   0   1   0 # h*
   1004     13   6  0.410000     4.289869549    29.457930692    38.615428401   0   0   0 # h*
   1005     13   6  0.410000     3.865062602    27.988603070    41.029448887   0   0   0 # h*
   1006     13   6  0.410000     4.235284732    27.917759124    42.428054179   0   0   0 # h*
   1007     13   6  0.410000     3.704222495    23.467805367    41.934312897   0   0   0 # h*
   1008     13   6  0.410000     3.699357709    24.923424903    42.321808815   0   0   0 # h*
   1009     13   6  0.410000     0.826150897    25.213884248    43.636539152   0   0   0 # h*
   1010     13   6  0.410000     1.720045715    26.044139513    44.494602957   0   0   0 # h*
   1011     13   6  0.410000     0.816959553    23.632194081    42.502919081   0   0   0 # h*
   1012     13   6  0.410000     0.827842309    24.936992304    41.590581679   0   0   0 # h*
   1013     13   6  0.410000     3.789624343    26.809065679    45.206969855   0   0   0 # h*
   1014     13   6  0.410000     4.058040234    25.343576163    45.347758008   0   0   0 # h*
   1015     14   1  1.500000    14.331816863    26.065430048    35.968892395   0   0   0 # casl
   1016     14   1  1.500000    11.594476647    27.882383869    33.995808858   0   0   0 # casl
   1017     14   2  1.000000    14.405037962    25.727849158    32.890322411   0   0   0 # sc2
   1018     14   2  1.000000    14.365611088    22.598073683    32.887523664   0   0   0 # sc2
   1019     14   3 -0.620000    14.416302591    26.656013869    31.479777505   0   0   0 # oc13
   1020     14   4 -0.620000    14.461361780    24.228196556    32.302595471   0   0   0 # oc12
   1021     14   3 -0.930000    15.655427950    26.155457653    33.780309063   0   0   0 # oc13
   1022     14   3 -0.930000    13.098324156    25.953443208    33.766315327   0   0   0 # oc13
   1023     14   5 -0.820000    11.825404573    27.857205810    31.614115294   0   0   0 # o*
   1024     14   3 -0.620000    14.455729466    29.214064403    31.490972495   0   0   0 # oc13
   1025     14   3 -0.930000    13.002573462    22.474495128    33.771912821   0   0   0 # oc13
   1026     14   5 -0.820000    11.853566483    26.108717087    28.070961001   0   0   0 # o*
   1027     14   1  1.700000    15.131615964    22.340883821    28.040175301   0   0   0 # casl
   1028     14   5 -0.820000    14.309287269    26.109900936    27.987000000   0   0   0 # o*
   1029     14   1  1.500000    11.515623234    27.911807498    49.962392395   0   0   0 # casl
   1030     14   1  1.500000    14.410670277    26.036006418    47.989308858   0   0   0 # casl
   1031     14   2  1.000000    11.588844332    27.574226608    46.883822411   0   0   0 # sc2
   1032     14   2  1.000000    11.549417458    24.444451133    46.881023664   0   0   0 # sc2
   1033     14   3 -0.620000    11.600108962    28.502391319    45.473277505   0   0   0 # oc13
   1034     14   4 -0.620000    11.645168151    26.074574007    46.296095471   0   0   0 # oc12
   1035     14   3 -0.930000    12.839234320    28.001835103    47.773809063   0   0   0 # oc13
   1036     14   3 -0.930000    10.282130526    27.799820658    47.759815327   0   0   0 # oc13
   1037     14   5 -0.820000    14.641598202    26.010828360    45.607615294   0   0   0 # o*
   1038     14   3 -0.620000    11.639535836    23.635441853    45.484472495   0   0   0 # oc13
   1039     14   3 -0.930000    10.186379833    24.320872578    47.765412821   0   0   0 # oc13
   1040     14   1  1.500000    11.594476647    24.169883868    49.965191142   0   0   0 # casl
   1041     14   2  1.000000    14.405037962    29.440349157    51.070677589   0   0   0 # sc2
   1042     14   2  1.000000    14.365611088    26.310573682    51.073476336   0   0   0 # sc2
   1043     14   3 -0.620000    14.416302591    22.943513868    52.481222495   0   0   0 # oc13
   1044     14   4 -0.620000    14.461361781    27.940696556    51.658404529   0   0   0 # oc12
   1045     14   3 -0.930000    13.098324155    -0.034056791    50.194684673   0   1   0 # oc13
   1046     14   3 -0.620000    14.455729466    25.501564402    52.470027505   0   0   0 # oc13
   1047     14   3 -0.930000    13.002573462    26.186995128    50.189087179   0   0   0 # oc13
   1048     14   3 -0.930000    15.711773392    25.962596441    50.183489684   0   0   0 # oc13
   1049     14   5 -0.820000    15.531515410    24.120573079    29.554272048   0   0   0 # o*
   1050     14   1  1.500000    11.515623233    24.199307498    33.998607605   0   0   0 # casl
   1051     14   2  1.000000    11.588844332    23.861726608    37.077177589   0   0   0 # sc2
   1052     14   2  1.000000    11.549417458    28.156951132    37.079976336   0   0   0 # sc2
   1053     14   3 -0.620000    11.600108962    24.789891319    38.487722495   0   0   0 # oc13
   1054     14   3 -0.930000    10.282130526    24.087320659    36.201184673   0   0   0 # oc13
   1055     14   5 -0.820000    14.641598203     0.023328360    38.353384706   0   1   0 # o*
   1056     14   3 -0.620000    11.639535836    27.347941853    38.476527505   0   0   0 # oc13
   1057     14   3 -0.930000    10.186379832    28.033372578    36.195587179   0   0   0 # oc13
   1058     14   3 -0.930000    12.895579762    27.808973891    36.189989684   0   0   0 # oc13
   1059     14   5 -0.820000    12.715321780    25.966950530    43.547772048   0   0   0 # o*
   1060     14   5 -0.820000    15.593450025    24.213611388    42.064461001   0   0   0 # o*
   1061     14   5 -0.820000    14.669760112    27.974839637    41.896538999   0   0   0 # o*
   1062     14   1  1.700000    12.315422335    27.899761272    41.927324699   0   0   0 # casl
   1063     14   5 -0.820000    11.493093638    24.243778386    41.980500000   0   0   0 # o*
   1064     14   6  0.410000    15.838347827    23.985600388    30.485299190   0   0   0 # h*
   1065     14   6  0.410000    15.008226762    24.942070694    29.699690205   0   0   0 # h*
   1066     14   6  0.410000    12.181672849    28.668231589    31.184921326   0   0   0 # h*
   1067     14   6  0.410000    12.547110188    27.225500267    31.373507348   0   0   0 # h*
   1068     14   6  0.410000    12.340228987    26.805331695    28.563324689   0   0   0 # h*
   1069     14   6  0.410000    12.668565989    25.659572219    27.738451405   0   0   0 # h*
   1070     14   6  0.410000    14.877425865    25.406760414    27.574660375   0   0   0 # h*
   1071     14   6  0.410000    14.920951694    26.705991258    28.494734712   0   0   0 # h*
   1072     14   6  0.410000    14.197196853     0.029692146    39.227697981   0   1   0 # h*
   1073     14   6  0.410000    15.554669549    29.457930692    38.615428401   0   0   0 # h*
   1074     14   6  0.410000    15.129862602    27.988603070    41.029448887   0   0   0 # h*
   1075     14   6  0.410000    15.500084732    27.917759124    42.428054179   0   0   0 # h*
   1076     14   6  0.410000    14.969022495    23.467805367    41.934312897   0   0   0 # h*
   1077     14   6  0.410000    14.964157709    24.923424903    42.321808815   0   0   0 # h*
   1078     14   6  0.410000    12.090950897    25.213884248    43.636539152   0   0   0 # h*
   1079     14   6  0.410000    12.984845715    26.044139513    44.494602957   0   0   0 # h*
   1080     14   6  0.410000    12.081759553    23.632194081    42.502919081   0   0   0 # h*
   1081     14   6  0.410000    12.092642309    24.936992304    41.590581679   0   0   0 # h*
   1082     14   6  0.410000    15.054424343    26.809065679    45.206969855   0   0   0 # h*
   1083     14   6  0.410000    15.322840234    25.343576163    45.347758008   0   0   0 # h*
   1084     15   1  1.500000    25.596616863    26.065430048    35.968892395   0   0   0 # casl
   1085     15   1  1.500000    22.859276647    27.882383869    33.995808858   0   0   0 # casl
   1086     15   2  1.000000    25.669837962    25.727849158    32.890322411   0   0   0 # sc2
   1087     15   2  1.000000    26.486534007    27.895099712    30.900446599   0   0   0 # sc2
   1088     15   2  1.000000    25.630411088    22.598073683    32.887523664   0   0   0 # sc2
   1089     15   4 -0.620000    25.681102591    26.656013869    31.479777505   0   0   0 # oc12
   1090     15   4 -0.620000    25.726161780    24.228196556    32.302595471   0   0   0 # oc12
   1091     15   3 -0.930000    26.920227950    26.155457653    33.780309063   0   0   0 # oc13
   1092     15   3 -0.930000    24.363124156    25.953443208    33.766315327   0   0   0 # oc13
   1093     15   3 -1.000000    26.441496777    24.212133043    54.625026598   0   0   0 # oc13
   1094     15   7 -0.690000    28.103041978    27.859933985    31.275472492   0   0   0 # oc14
   1095     15   5 -0.820000    23.090204573    27.857205810    31.614115294   0   0   0 # o*
   1096     15   4 -0.620000    25.720529466    29.214064403    31.490972495   0   0   0 # oc12
   1097     15   3 -0.930000    24.267373462    22.474495128    33.771912821   0   0   0 # oc13
   1098     15   5 -0.820000    23.118366483    26.108717087    28.070961001   0   0   0 # o*
   1099     15   1  1.700000    26.396415964    22.340883821    28.040175301   0   0   0 # casl
   1100     15   5 -0.820000    25.574087269    26.109900936    27.987000000   0   0   0 # o*
   1101     15   1  1.500000    22.780423234    27.911807498    49.962392395   0   0   0 # casl
   1102     15   1  1.500000    25.675470277    26.036006418    47.989308858   0   0   0 # casl
   1103     15   2  1.000000    22.853644332    27.574226608    46.883822411   0   0   0 # sc2
   1104     15   2  1.000000    22.814217458    24.444451133    46.881023664   0   0   0 # sc2
   1105     15   4 -0.620000    22.864908962    28.502391319    45.473277505   0   0   0 # oc12
   1106     15   4 -0.620000    22.909968151    26.074574007    46.296095471   0   0   0 # oc12
   1107     15   3 -0.930000    24.104034320    28.001835103    47.773809063   0   0   0 # oc13
   1108     15   3 -0.930000    21.546930526    27.799820658    47.759815327   0   0   0 # oc13
   1109     15   3 -1.000000    23.625303147    26.058510494    40.631526598   0   0   0 # oc13
   1110     15   5 -0.820000    25.906398202    26.010828360    45.607615294   0   0   0 # o*
   1111     15   4 -0.620000    22.904335836    23.635441853    45.484472495   0   0   0 # oc12
   1112     15   3 -0.930000    21.451179833    24.320872578    47.765412821   0   0   0 # oc13
   1113     15   1  1.500000    22.859276647    24.169883868    49.965191142   0   0   0 # casl
   1114     15   2  1.000000    25.669837962    29.440349157    51.070677589   0   0   0 # sc2
   1115     15   2  1.000000    26.486534007    24.182599713    53.060553401   0   0   0 # sc2
   1116     15   2  1.000000    25.630411088    26.310573682    51.073476336   0   0   0 # sc2
   1117     15   4 -0.620000    25.681102591    22.943513868    52.481222495   0   0   0 # oc12
   1118     15   4 -0.620000    25.726161781    27.940696556    51.658404529   0   0   0 # oc12
   1119     15   3 -0.930000    24.363124155    -0.034056791    50.194684673   0   1   0 # oc13
   1120     15   3 -1.000000    26.441475153    27.924641591    29.335973402   0   0   0 # oc13
   1121     15   7 -0.690000    28.103041977    24.147433985    52.685527508   0   0   0 # oc14
   1122     15   4 -0.620000    25.720529466    25.501564402    52.470027505   0   0   0 # oc12
   1123     15   3 -0.930000    24.267373462    26.186995128    50.189087179   0   0   0 # oc13
   1124     15   3 -0.930000    26.976573392    25.962596441    50.183489684   0   0   0 # oc13
   1125     15   5 -0.820000    26.796315410    24.120573079    29.554272048   0   0   0 # o*
   1126     15   1  1.500000    22.780423233    24.199307498    33.998607605   0   0   0 # casl
   1127     15   2  1.000000    22.853644332    23.861726608    37.077177589   0   0   0 # sc2
   1128     15   2  1.000000    23.670340377    26.028977163    39.067053401   0   0   0 # sc2
   1129     15   2  1.000000    22.814217458    28.156951132    37.079976336   0   0   0 # sc2
   1130     15   4 -0.620000    22.864908962    24.789891319    38.487722495   0   0   0 # oc12
   1131     15   3 -0.930000    21.546930526    24.087320659    36.201184673   0   0   0 # oc13
   1132     15   7 -0.690000    25.286848348    25.993811435    38.692027508   0   0   0 # oc14
   1133     15   5 -0.820000    25.906398203     0.023328360    38.353384706   0   1   0 # o*
   1134     15   4 -0.620000    22.904335836    27.347941853    38.476527505   0   0   0 # oc12
   1135     15   3 -0.930000    21.451179832    28.033372578    36.195587179   0   0   0 # oc13
   1136     15   3 -0.930000    24.160379762    27.808973891    36.189989684   0   0   0 # oc13
   1137     15   5 -0.820000    23.980121780    25.966950530    43.547772048   0   0   0 # o*
   1138     15   5 -0.820000    26.858250025    24.213611388    42.064461001   0   0   0 # o*
   1139     15   5 -0.820000    25.934560112    27.974839637    41.896538999   0   0   0 # o*
   1140     15   1  1.700000    23.580222335    27.899761272    41.927324699   0   0   0 # casl
   1141     15   5 -0.820000    22.757893638    24.243778386    41.980500000   0   0   0 # o*
   1142     15   8  0.420000    28.698908951    24.213259743    53.410346563   0   0   0 # hoy
   1143     15   8  0.420000    25.860762360    25.601299589    39.323226581   0   0   0 # hoy
   1144     15   8  0.420000    28.688143087    27.863902590    30.537392443   0   0   0 # hoy
   1145     15   6  0.410000    27.103147827    23.985600388    30.485299190   0   0   0 # h*
   1146     15   6  0.410000    26.273026762    24.942070694    29.699690205   0   0   0 # h*
   1147     15   6  0.410000    23.446472849    28.668231589    31.184921326   0   0   0 # h*
   1148     15   6  0.410000    23.811910188    27.225500267    31.373507348   0   0   0 # h*
   1149     15   6  0.410000    23.605028987    26.805331695    28.563324689   0   0   0 # h*
   1150     15   6  0.410000    23.933365989    25.659572219    27.738451405   0   0   0 # h*
   1151     15   6  0.410000    26.142225865    25.406760414    27.574660375   0   0   0 # h*
   1152     15   6  0.410000    26.185751694    26.705991258    28.494734712   0   0   0 # h*
   1153     15   6  0.410000    25.461996853     0.029692146    39.227697981   0   1   0 # h*
   1154     15   6  0.410000    26.819469549    29.457930692    38.615428401   0   0   0 # h*
   1155     15   6  0.410000    26.394662602    27.988603070    41.029448887   0   0   0 # h*
   1156     15   6  0.410000    26.764884732    27.917759124    42.428054179   0   0   0 # h*
   1157     15   6  0.410000    26.233822495    23.467805367    41.934312897   0   0   0 # h*
   1158     15   6  0.410000    26.228957709    24.923424903    42.321808815   0   0   0 # h*
   1159     15   6  0.410000    23.355750897    25.213884248    43.636539152   0   0   0 # h*
   1160     15   6  0.410000    24.249645715    26.044139513    44.494602957   0   0   0 # h*
   1161     15   6  0.410000    23.346559553    23.632194081    42.502919081   0   0   0 # h*
   1162     15   6  0.410000    23.357442309    24.936992304    41.590581679   0   0   0 # h*
   1163     15   6  0.410000    26.319224343    26.809065679    45.206969855   0   0   0 # h*
   1164     15   6  0.410000    26.587640234    25.343576163    45.347758008   0   0   0 # h*
   1165     16   1  1.500000    36.861416863    26.065430048    35.968892395   0   0   0 # casl
   1166     16   1  1.500000    34.124076647    27.882383869    33.995808858   0   0   0 # casl
   1167     16   2  1.000000    36.934637962    25.727849158    32.890322411   0   0   0 # sc2
   1168     16   2  1.000000    36.895211088    22.598073683    32.887523664   0   0   0 # sc2
   1169     16   3 -0.620000    36.945902591    26.656013869    31.479777505   0   0   0 # oc13
   1170     16   4 -0.620000    36.990961780    24.228196556    32.302595471   0   0   0 # oc12
   1171     16   3 -0.930000    38.185027950    26.155457653    33.780309063   0   0   0 # oc13
   1172     16   3 -0.930000    35.627924156    25.953443208    33.766315327   0   0   0 # oc13
   1173     16   5 -0.820000    34.355004573    27.857205810    31.614115294   0   0   0 # o*
   1174     16   3 -0.620000    36.985329466    29.214064403    31.490972495   0   0   0 # oc13
   1175     16   3 -0.930000    35.532173462    22.474495128    33.771912821   0   0   0 # oc13
   1176     16   5 -0.820000    34.383166483    26.108717087    28.070961001   0   0   0 # o*
   1177     16   1  1.700000    37.661215964    22.340883821    28.040175301   0   0   0 # casl
   1178     16   5 -0.820000    36.838887269    26.109900936    27.987000000   0   0   0 # o*
   1179     16   1  1.500000    34.045223234    27.911807498    49.962392395   0   0   0 # casl
   1180     16   1  1.500000    36.940270277    26.036006418    47.989308858   0   0   0 # casl
   1181     16   2  1.000000    34.118444332    27.574226608    46.883822411   0   0   0 # sc2
   1182     16   2  1.000000    34.079017458    24.444451133    46.881023664   0   0   0 # sc2
   1183     16   3 -0.620000    34.129708962    28.502391319    45.473277505   0   0   0 # oc13
   1184     16   4 -0.620000    34.174768151    26.074574007    46.296095471   0   0   0 # oc12
   1185     16   3 -0.930000    35.368834320    28.001835103    47.773809063   0   0   0 # oc13
   1186     16   3 -0.930000    32.811730526    27.799820658    47.759815327   0   0   0 # oc13
   1187     16   5 -0.820000    37.171198202    26.010828360    45.607615294   0   0   0 # o*
   1188     16   3 -0.620000    34.169135836    23.635441853    45.484472495   0   0   0 # oc13
   1189     16   3 -0.930000    32.715979833    24.320872578    47.765412821   0   0   0 # oc13
   1190     16   1  1.500000    34.124076647    24.169883868    49.965191142   0   0   0 # casl
   1191     16   2  1.000000    36.934637962    29.440349157    51.070677589   0   0   0 # sc2
   1192     16   2  1.000000    36.895211088    26.310573682    51.073476336   0   0   0 # sc2
   1193     16   3 -0.620000    36.945902591    22.943513868    52.481222495   0   0   0 # oc13
   1194     16   4 -0.620000    36.990961781    27.940696556    51.658404529   0   0   0 # oc12
   1195     16   3 -0.930000    35.627924155    -0.034056791    50.194684673   0   1   0 # oc13
   1196     16   3 -0.620000    36.985329466    25.501564402    52.470027505   0   0   0 # oc13
   1197     16   3 -0.930000    35.532173462    26.186995128    50.189087179   0   0   0 # oc13
   1198     16   3 -0.930000    38.241373392    25.962596441    50.183489684   0   0   0 # oc13
   1199     16   5 -0.820000    38.061115410    24.120573079    29.554272048   0   0   0 # o*
   1200     16   1  1.500000    34.045223233    24.199307498    33.998607605   0   0   0 # casl
   1201     16   2  1.000000    34.118444332    23.861726608    37.077177589   0   0   0 # sc2
   1202     16   2  1.000000    34.079017458    28.156951132    37.079976336   0   0   0 # sc2
   1203     16   3 -0.620000    34.129708962    24.789891319    38.487722495   0   0   0 # oc13
   1204     16   3 -0.930000    32.811730526    24.087320659    36.201184673   0   0   0 # oc13
   1205     16   5 -0.820000    37.171198203     0.023328360    38.353384706   0   1   0 # o*
   1206     16   3 -0.620000    34.169135836    27.347941853    38.476527505   0   0   0 # oc13
   1207     16   3 -0.930000    32.715979832    28.033372578    36.195587179   0   0   0 # oc13
   1208     16   3 -0.930000    35.425179762    27.808973891    36.189989684   0   0   0 # oc13
   1209     16   5 -0.820000    35.244921780    25.966950530    43.547772048   0   0   0 # o*
   1210     16   5 -0.820000    38.123050025    24.213611388    42.064461001   0   0   0 # o*
   1211     16   5 -0.820000    37.199360112    27.974839637    41.896538999   0   0   0 # o*
   1212     16   1  1.700000    34.845022335    27.899761272    41.927324699   0   0   0 # casl
   1213     16   5 -0.820000    34.022693638    24.243778386    41.980500000   0   0   0 # o*
   1214     16   6  0.410000    38.367947827    23.985600388    30.485299190   0   0   0 # h*
   1215     16   6  0.410000    37.537826762    24.942070694    29.699690205   0   0   0 # h*
   1216     16   6  0.410000    34.711272849    28.668231589    31.184921326   0   0   0 # h*
   1217     16   6  0.410000    35.076710188    27.225500267    31.373507348   0   0   0 # h*
   1218     16   6  0.410000    34.869828987    26.805331695    28.563324689   0   0   0 # h*
   1219     16   6  0.410000    35.198165989    25.659572219    27.738451405   0   0   0 # h*
   1220     16   6  0.410000    37.407025865    25.406760414    27.574660375   0   0   0 # h*
   1221     16   6  0.410000    37.450551694    26.705991258    28.494734712   0   0   0 # h*
   1222     16   6  0.410000    36.726796853     0.029692146    39.227697981   0   1   0 # h*
   1223     16   6  0.410000    38.084269549    29.457930692    38.615428401   0   0   0 # h*
   1224     16   6  0.410000    37.659462602    27.988603070    41.029448887   0   0   0 # h*
   1225     16   6  0.410000    38.029684732    27.917759124    42.428054179   0   0   0 # h*
   1226     16   6  0.410000    37.498622495    23.467805367    41.934312897   0   0   0 # h*
   1227     16   6  0.410000    37.493757709    24.923424903    42.321808815   0   0   0 # h*
   1228     16   6  0.410000    34.620550897    25.213884248    43.636539152   0   0   0 # h*
   1229     16   6  0.410000    35.514445715    26.044139513    44.494602957   0   0   0 # h*
   1230     16   6  0.410000    34.611359553    23.632194081    42.502919081   0   0   0 # h*
   1231     16   6  0.410000    34.622242309    24.936992304    41.590581679   0   0   0 # h*
   1232     16   6  0.410000    37.584024343    26.809065679    45.206969855   0   0   0 # h*
   1233     16   6  0.410000    37.852440234    25.343576163    45.347758008   0   0   0 # h*
   1234     17   5 -0.820000     4.266715410     5.558073079    26.419727952   0   0   0 # o*
   1235     17   1  1.500000     0.250823234     5.636807498    21.975392395   0   0   0 # casl
   1236     17   1  1.500000     3.145870277     3.761006418    20.002308858   0   0   0 # casl
   1237     17   2  1.000000     0.324044332     5.299226608    18.896822411   0   0   0 # sc2
   1238     17   2  1.000000     0.284617458     2.169451133    18.894023664   0   0   0 # sc2
   1239     17   3 -0.620000     0.335308962     6.227391319    17.486277505   0   0   0 # oc13
   1240     17   4 -0.620000     0.380368151     3.799574007    18.309095471   0   0   0 # oc12
   1241     17   3 -0.930000     1.574434320     5.726835103    19.786809063   0   0   0 # oc13
   1242     17   3 -0.930000    44.076530526     5.524820658    19.772815327  -1   0   0 # oc13
   1243     17   3 -0.620000     0.374735836     1.360441853    17.497472495   0   0   0 # oc13
   1244     17   3 -0.930000    43.980779833     2.045872578    19.778412821  -1   0   0 # oc13
   1245     17   1  1.500000     3.067016863     7.502930047    20.005107605   0   0   0 # casl
   1246     17   1  1.500000     0.329676647     1.894883868    21.978191142   0   0   0 # casl
   1247     17   2  1.000000     3.140237962     7.165349157    23.083677589   0   0   0 # sc2
   1248     17   2  1.000000     3.100811088     4.035573682    23.086476336   0   0   0 # sc2
   1249     17   3 -0.620000     3.151502591     0.668513868    24.494222495   0   0   0 # oc13
   1250     17   4 -0.620000     3.196561781     5.665696556    23.671404529   0   0   0 # oc12
   1251     17   3 -0.930000     1.833524155     7.390943209    22.207684673   0   0   0 # oc13
   1252     17   5 -0.820000     0.560604573     1.869705810    24.359884706   0   0   0 # o*
   1253     17   3 -0.620000     3.190929466     3.226564402    24.483027505   0   0   0 # oc13
   1254     17   3 -0.930000     1.737773462     3.911995128    22.202087179   0   0   0 # oc13
   1255     17   3 -0.930000     4.446973392     3.687596441    22.196489684   0   0   0 # oc13
   1256     17   5 -0.820000     0.588766482     7.546217088    27.903038999   0   0   0 # o*
   1257     17   6  0.410000     0.905817796     2.665259016    24.823259273   0   0   0 # h*
   1258     17   6  0.410000     1.239829011     1.216075447    24.654904704   0   0   0 # h*
   1259     17   6  0.410000    -0.039390835     6.814559718    27.728846518   0   0   0 # h*
   1260     17   6  0.410000     0.030946601     8.319963065    27.666951214   0   0   0 # h*
   1261     17   6  0.410000     3.628887509     4.807082073    26.448947827   0   0   0 # h*
   1262     17   6  0.410000     4.440281346     5.570545761    25.446882538   0   0   0 # h*
   1263     18   5 -0.820000    15.531515410     5.558073079    26.419727952   0   0   0 # o*
   1264     18   1  1.500000    11.515623234     5.636807498    21.975392395   0   0   0 # casl
   1265     18   1  1.500000    14.410670277     3.761006418    20.002308858   0   0   0 # casl
   1266     18   2  1.000000    11.588844332     5.299226608    18.896822411   0   0   0 # sc2
   1267     18   2  1.000000    11.549417458     2.169451133    18.894023664   0   0   0 # sc2
   1268     18   3 -0.620000    11.600108962     6.227391319    17.486277505   0   0   0 # oc13
   1269     18   4 -0.620000    11.645168151     3.799574007    18.309095471   0   0   0 # oc12
   1270     18   3 -0.930000    12.839234320     5.726835103    19.786809063   0   0   0 # oc13
   1271     18   3 -0.930000    10.282130526     5.524820658    19.772815327   0   0   0 # oc13
   1272     18   3 -0.620000    11.639535836     1.360441853    17.497472495   0   0   0 # oc13
   1273     18   3 -0.930000    10.186379833     2.045872578    19.778412821   0   0   0 # oc13
   1274     18   1  1.500000    14.331816863     7.502930047    20.005107605   0   0   0 # casl
   1275     18   1  1.500000    11.594476647     1.894883868    21.978191142   0   0   0 # casl
   1276     18   2  1.000000    14.405037962     7.165349157    23.083677589   0   0   0 # sc2
   1277     18   2  1.000000    14.365611088     4.035573682    23.086476336   0   0   0 # sc2
   1278     18   3 -0.620000    14.416302591     0.668513868    24.494222495   0   0   0 # oc13
   1279     18   4 -0.620000    14.461361781     5.665696556    23.671404529   0   0   0 # oc12
   1280     18   3 -0.930000    13.098324155     7.390943209    22.207684673   0   0   0 # oc13
   1281     18   5 -0.820000    11.825404573     1.869705810    24.359884706   0   0   0 # o*
   1282     18   3 -0.620000    14.455729466     3.226564402    24.483027505   0   0   0 # oc13
   1283     18   3 -0.930000    13.002573462     3.911995128    22.202087179   0   0   0 # oc13
   1284     18   3 -0.930000    15.711773392     3.687596441    22.196489684   0   0   0 # oc13
   1285     18   5 -0.820000    11.853566482     7.546217088    27.903038999   0   0   0 # o*
   1286     18   6  0.410000    12.170617796     2.665259016    24.823259273   0   0   0 # h*
   1287     18   6  0.410000    12.504629011     1.216075447    24.654904704   0   0   0 # h*
   1288     18   6  0.410000    11.225409165     6.814559718    27.728846518   0   0   0 # h*
   1289     18   6  0.410000    11.295746601     8.319963065    27.666951214   0   0   0 # h*
   1290     18   6  0.410000    14.893687509     4.807082073    26.448947827   0   0   0 # h*
   1291     18   6  0.410000    15.705081346     5.570545761    25.446882538   0   0   0 # h*
   1292     19   5 -0.820000    26.796315410     5.558073079    26.419727952   0   0   0 # o*
   1293     19   1  1.500000    22.780423234     5.636807498    21.975392395   0   0   0 # casl
   1294     19   1  1.500000    25.675470277     3.761006418    20.002308858   0   0   0 # casl
   1295     19   2  1.000000    22.853644332     5.299226608    18.896822411   0   0   0 # sc2
   1296     19   2  1.000000    22.814217458     2.169451133    18.894023664   0   0   0 # sc2
   1297     19   3 -0.620000    22.864908962     6.227391319    17.486277505   0   0   0 # oc13
   1298     19   4 -0.620000    22.909968151     3.799574007    18.309095471   0   0   0 # oc12
   1299     19   3 -0.930000    24.104034320     5.726835103    19.786809063   0   0   0 # oc13
   1300     19   3 -0.930000    21.546930526     5.524820658    19.772815327   0   0   0 # oc13
   1301     19   4 -0.620000    22.904335836     1.360441853    17.497472495   0   0   0 # oc12
   1302     19   3 -0.930000    21.451179833     2.045872578    19.778412821   0   0   0 # oc13
   1303     19   1  1.500000    25.596616863     7.502930047    20.005107605   0   0   0 # casl
   1304     19   1  1.500000    22.859276647     1.894883868    21.978191142   0   0   0 # casl
   1305     19   2  1.000000    25.669837962     7.165349157    23.083677589   0   0   0 # sc2
   1306     19   2  1.000000    25.630411088     4.035573682    23.086476336   0   0   0 # sc2
   1307     19   3 -0.620000    25.681102591     0.668513868    24.494222495   0   0   0 # oc13
   1308     19   4 -0.620000    25.726161781     5.665696556    23.671404529   0   0   0 # oc12
   1309     19   3 -0.930000    24.363124155     7.390943209    22.207684673   0   0   0 # oc13
   1310     19   5 -0.820000    23.090204573     1.869705810    24.359884706   0   0   0 # o*
   1311     19   3 -0.620000    25.720529466     3.226564402    24.483027505   0   0   0 # oc13
   1312     19   3 -0.930000    24.267373462     3.911995128    22.202087179   0   0   0 # oc13
   1313     19   3 -0.930000    26.976573392     3.687596441    22.196489684   0   0   0 # oc13
   1314     19   5 -0.820000    23.118366482     7.546217088    27.903038999   0   0   0 # o*
   1315     19   6  0.410000    23.435417796     2.665259016    24.823259273   0   0   0 # h*
   1316     19   6  0.410000    23.769429011     1.216075447    24.654904704   0   0   0 # h*
   1317     19   6  0.410000    22.490209165     6.814559718    27.728846518   0   0   0 # h*
   1318     19   6  0.410000    22.560546601     8.319963065    27.666951214   0   0   0 # h*
   1319     19   6  0.410000    26.158487509     4.807082073    26.448947827   0   0   0 # h*
   1320     19   6  0.410000    26.969881346     5.570545761    25.446882538   0   0   0 # h*
   1321     20   5 -0.820000    38.061115410     5.558073079    26.419727952   0   0   0 # o*
   1322     20   1  1.500000    34.045223234     5.636807498    21.975392395   0   0   0 # casl
   1323     20   1  1.500000    36.940270277     3.761006418    20.002308858   0   0   0 # casl
   1324     20   2  1.000000    34.118444332     5.299226608    18.896822411   0   0   0 # sc2
   1325     20   2  1.000000    34.079017458     2.169451133    18.894023664   0   0   0 # sc2
   1326     20   3 -0.620000    34.129708962     6.227391319    17.486277505   0   0   0 # oc13
   1327     20   4 -0.620000    34.174768151     3.799574007    18.309095471   0   0   0 # oc12
   1328     20   3 -0.930000    35.368834320     5.726835103    19.786809063   0   0   0 # oc13
   1329     20   3 -0.930000    32.811730526     5.524820658    19.772815327   0   0   0 # oc13
   1330     20   3 -0.620000    34.169135836     1.360441853    17.497472495   0   0   0 # oc13
   1331     20   3 -0.930000    32.715979833     2.045872578    19.778412821   0   0   0 # oc13
   1332     20   1  1.500000    36.861416863     7.502930047    20.005107605   0   0   0 # casl
   1333     20   1  1.500000    34.124076647     1.894883868    21.978191142   0   0   0 # casl
   1334     20   2  1.000000    36.934637962     7.165349157    23.083677589   0   0   0 # sc2
   1335     20   2  1.000000    36.895211088     4.035573682    23.086476336   0   0   0 # sc2
   1336     20   3 -0.620000    36.945902591     0.668513868    24.494222495   0   0   0 # oc13
   1337     20   4 -0.620000    36.990961781     5.665696556    23.671404529   0   0   0 # oc12
   1338     20   3 -0.930000    35.627924155     7.390943209    22.207684673   0   0   0 # oc13
   1339     20   5 -0.820000    34.355004573     1.869705810    24.359884706   0   0   0 # o*
   1340     20   3 -0.620000    36.985329466     3.226564402    24.483027505   0   0   0 # oc13
   1341     20   3 -0.930000    35.532173462     3.911995128    22.202087179   0   0   0 # oc13
   1342     20   3 -0.930000    38.241373392     3.687596441    22.196489684   0   0   0 # oc13
   1343     20   5 -0.820000    34.383166482     7.546217088    27.903038999   0   0   0 # o*
   1344     20   6  0.410000    34.700217796     2.665259016    24.823259273   0   0   0 # h*
   1345     20   6  0.410000    35.034229011     1.216075447    24.654904704   0   0   0 # h*
   1346     20   6  0.410000    33.755009165     6.814559718    27.728846518   0   0   0 # h*
   1347     20   6  0.410000    33.825346601     8.319963065    27.666951214   0   0   0 # h*
   1348     20   6  0.410000    37.423287509     4.807082073    26.448947827   0   0   0 # h*
   1349     20   6  0.410000    38.234681346     5.570545761    25.446882538   0   0   0 # h*
   1350     21   5 -0.820000     4.266715410    12.983073079    26.419727952   0   0   0 # o*
   1351     21   1  1.500000     0.250823234    13.061807498    21.975392395   0   0   0 # casl
   1352     21   1  1.500000     3.145870277    11.186006418    20.002308858   0   0   0 # casl
   1353     21   2  1.000000     0.324044332    12.724226608    18.896822411   0   0   0 # sc2
   1354     21   2  1.000000     0.284617458     9.594451133    18.894023664   0   0   0 # sc2
   1355     21   3 -0.620000     0.335308962    13.652391319    17.486277505   0   0   0 # oc13
   1356     21   4 -0.620000     0.380368151    11.224574007    18.309095471   0   0   0 # oc12
   1357     21   3 -0.930000     1.574434320    13.151835103    19.786809063   0   0   0 # oc13
   1358     21   3 -0.930000    44.076530526    12.949820658    19.772815327  -1   0   0 # oc13
   1359     21   3 -0.620000     0.374735836     8.785441853    17.497472495   0   0   0 # oc13
   1360     21   3 -0.930000    43.980779833     9.470872578    19.778412821  -1   0   0 # oc13
   1361     21   1  1.500000     3.067016863    14.927930047    20.005107605   0   0   0 # casl
   1362     21   1  1.500000     0.329676647     9.319883868    21.978191142   0   0   0 # casl
   1363     21   2  1.000000     3.140237962    14.590349157    23.083677589   0   0   0 # sc2
   1364     21   2  1.000000     3.100811088    11.460573682    23.086476336   0   0   0 # sc2
   1365     21   3 -0.620000     3.151502591     8.093513868    24.494222495   0   0   0 # oc13
   1366     21   4 -0.620000     3.196561781    13.090696556    23.671404529   0   0   0 # oc12
   1367     21   3 -0.930000     1.833524155    14.815943209    22.207684673   0   0   0 # oc13
   1368     21   5 -0.820000     0.560604573     9.294705810    24.359884706   0   0   0 # o*
   1369     21   3 -0.620000     3.190929466    10.651564402    24.483027505   0   0   0 # oc13
   1370     21   3 -0.930000     1.737773462    11.336995128    22.202087179   0   0   0 # oc13
   1371     21   3 -0.930000     4.446973392    11.112596441    22.196489684   0   0   0 # oc13
   1372     21   5 -0.820000     0.588766482    14.971217088    27.903038999   0   0   0 # o*
   1373     21   6  0.410000     0.905817796    10.090259016    24.823259273   0   0   0 # h*
   1374     21   6  0.410000     1.239829011     8.641075447    24.654904704   0   0   0 # h*
   1375     21   6  0.410000    -0.039390835    14.239559718    27.728846518   0   0   0 # h*
   1376     21   6  0.410000     0.030946601    15.744963065    27.666951214   0   0   0 # h*
   1377     21   6  0.410000     3.628887509    12.232082073    26.448947827   0   0   0 # h*
   1378     21   6  0.410000     4.440281346    12.995545761    25.446882538   0   0   0 # h*
   1379     22   5 -0.820000    15.531515410    12.983073079    26.419727952   0   0   0 # o*
   1380     22   1  1.500000    11.515623234    13.061807498    21.975392395   0   0   0 # casl
   1381     22   1  1.500000    14.410670277    11.186006418    20.002308858   0   0   0 # casl
   1382     22   2  1.000000    11.588844332    12.724226608    18.896822411   0   0   0 # sc2
   1383     22   2  1.000000    11.549417458     9.594451133    18.894023664   0   0   0 # sc2
   1384     22   3 -0.620000    11.600108962    13.652391319    17.486277505   0   0   0 # oc13
   1385     22   4 -0.620000    11.645168151    11.224574007    18.309095471   0   0   0 # oc12
   1386     22   3 -0.930000    12.839234320    13.151835103    19.786809063   0   0   0 # oc13
   1387     22   3 -0.930000    10.282130526    12.949820658    19.772815327   0   0   0 # oc13
   1388     22   3 -0.620000    11.639535836     8.785441853    17.497472495   0   0   0 # oc13
   1389     22   3 -0.930000    10.186379833     9.470872578    19.778412821   0   0   0 # oc13
   1390     22   1  1.500000    14.331816863    14.927930047    20.005107605   0   0   0 # casl
   1391     22   1  1.500000    11.594476647     9.319883868    21.978191142   0   0   0 # casl
   1392     22   2  1.000000    14.405037962    14.590349157    23.083677589   0   0   0 # sc2
   1393     22   2  1.000000    14.365611088    11.460573682    23.086476336   0   0   0 # sc2
   1394     22   3 -0.620000    14.416302591     8.093513868    24.494222495   0   0   0 # oc13
   1395     22   4 -0.620000    14.461361781    13.090696556    23.671404529   0   0   0 # oc12
   1396     22   3 -0.930000    13.098324155    14.815943209    22.207684673   0   0   0 # oc13
   1397     22   5 -0.820000    11.825404573     9.294705810    24.359884706   0   0   0 # o*
   1398     22   3 -0.620000    14.455729466    10.651564402    24.483027505   0   0   0 # oc13
   1399     22   3 -0.930000    13.002573462    11.336995128    22.202087179   0   0   0 # oc13
   1400     22   3 -0.930000    15.711773392    11.112596441    22.196489684   0   0   0 # oc13
   1401     22   5 -0.820000    11.853566482    14.971217088    27.903038999   0   0   0 # o*
   1402     22   6  0.410000    12.170617796    10.090259016    24.823259273   0   0   0 # h*
   1403     22   6  0.410000    12.504629011     8.641075447    24.654904704   0   0   0 # h*
   1404     22   6  0.410000    11.225409165    14.239559718    27.728846518   0   0   0 # h*
   1405     22   6  0.410000    11.295746601    15.744963065    27.666951214   0   0   0 # h*
   1406     22   6  0.410000    14.893687509    12.232082073    26.448947827   0   0   0 # h*
   1407     22   6  0.410000    15.705081346    12.995545761    25.446882538   0   0   0 # h*
   1408     23   3 -1.000000    26.441496777     9.362133043    26.638026598   0   0   0 # oc13
   1409     23   5 -0.820000    26.796315410    12.983073079    26.419727952   0   0   0 # o*
   1410     23   1  1.500000    22.780423234    13.061807498    21.975392395   0   0   0 # casl
   1411     23   1  1.500000    25.675470277    11.186006418    20.002308858   0   0   0 # casl
   1412     23   2  1.000000    22.853644332    12.724226608    18.896822411   0   0   0 # sc2
   1413     23   2  1.000000    23.670340378    14.891477163    16.906946599   0   0   0 # sc2
   1414     23   2  1.000000    22.814217458     9.594451133    18.894023664   0   0   0 # sc2
   1415     23   4 -0.620000    22.864908962    13.652391319    17.486277505   0   0   0 # oc12
   1416     23   4 -0.620000    22.909968151    11.224574007    18.309095471   0   0   0 # oc12
   1417     23   3 -0.930000    24.104034320    13.151835103    19.786809063   0   0   0 # oc13
   1418     23   3 -0.930000    21.546930526    12.949820658    19.772815327   0   0   0 # oc13
   1419     23   3 -0.690000    25.286848348    14.856311435    17.281972492   0   0   0 # oc13
   1420     23   3 -0.620000    22.904335836     8.785441853    17.497472495   0   0   0 # oc13
   1421     23   3 -0.930000    21.451179833     9.470872578    19.778412821   0   0   0 # oc13
   1422     23   1  1.500000    25.596616863    14.927930047    20.005107605   0   0   0 # casl
   1423     23   1  1.500000    22.859276647     9.319883868    21.978191142   0   0   0 # casl
   1424     23   2  1.000000    25.669837962    14.590349157    23.083677589   0   0   0 # sc2
   1425     23   2  1.000000    26.486534007     9.332599713    25.073553401   0   0   0 # sc2
   1426     23   2  1.000000    25.630411088    11.460573682    23.086476336   0   0   0 # sc2
   1427     23   4 -0.620000    25.681102591     8.093513868    24.494222495   0   0   0 # oc12
   1428     23   4 -0.620000    25.726161781    13.090696556    23.671404529   0   0   0 # oc12
   1429     23   3 -0.930000    24.363124155    14.815943209    22.207684673   0   0   0 # oc13
   1430     23   7 -0.690000    28.103041977     9.297433985    24.698527508   0   0   0 # oc14
   1431     23   5 -0.820000    23.090204573     9.294705810    24.359884706   0   0   0 # o*
   1432     23   4 -0.620000    25.720529466    10.651564402    24.483027505   0   0   0 # oc12
   1433     23   3 -0.930000    24.267373462    11.336995128    22.202087179   0   0   0 # oc13
   1434     23   3 -0.930000    26.976573392    11.112596441    22.196489684   0   0   0 # oc13
   1435     23   5 -0.820000    23.118366482    14.971217088    27.903038999   0   0   0 # o*
   1436     23   3 -1.000000    23.625281524    14.921019042    15.342473402   0   0   0 # oc13
   1437     23   8  0.420000    28.698908951     9.363259743    25.423346563   0   0   0 # hoy
   1438     23   6  0.410000    23.435417796    10.090259016    24.823259273   0   0   0 # h*
   1439     23   6  0.410000    23.769429011     8.641075447    24.654904704   0   0   0 # h*
   1440     23   6  0.410000    22.490209165    14.239559718    27.728846518   0   0   0 # h*
   1441     23   6  0.410000    22.560546601    15.744963065    27.666951214   0   0   0 # h*
   1442     23   6  0.410000    26.158487509    12.232082073    26.448947827   0   0   0 # h*
   1443     23   6  0.410000    26.969881346    12.995545761    25.446882538   0   0   0 # h*
   1444     24   3 -1.000000    37.706296777     9.362133043    26.638026598   0   0   0 # oc13
   1445     24   5 -0.820000    38.061115410    12.983073079    26.419727952   0   0   0 # o*
   1446     24   1  1.500000    34.045223234    13.061807498    21.975392395   0   0   0 # casl
   1447     24   1  1.500000    36.940270277    11.186006418    20.002308858   0   0   0 # casl
   1448     24   2  1.000000    34.118444332    12.724226608    18.896822411   0   0   0 # sc2
   1449     24   2  1.000000    34.935140378    14.891477163    16.906946599   0   0   0 # sc2
   1450     24   2  1.000000    34.079017458     9.594451133    18.894023664   0   0   0 # sc2
   1451     24   4 -0.620000    34.129708962    13.652391319    17.486277505   0   0   0 # oc12
   1452     24   4 -0.620000    34.174768151    11.224574007    18.309095471   0   0   0 # oc12
   1453     24   3 -0.930000    35.368834320    13.151835103    19.786809063   0   0   0 # oc13
   1454     24   3 -0.930000    32.811730526    12.949820658    19.772815327   0   0   0 # oc13
   1455     24   3 -0.690000    36.551648348    14.856311435    17.281972492   0   0   0 # oc13
   1456     24   3 -0.620000    34.169135836     8.785441853    17.497472495   0   0   0 # oc13
   1457     24   3 -0.930000    32.715979833     9.470872578    19.778412821   0   0   0 # oc13
   1458     24   1  1.500000    36.861416863    14.927930047    20.005107605   0   0   0 # casl
   1459     24   1  1.500000    34.124076647     9.319883868    21.978191142   0   0   0 # casl
   1460     24   2  1.000000    36.934637962    14.590349157    23.083677589   0   0   0 # sc2
   1461     24   2  1.000000    37.751334007     9.332599713    25.073553401   0   0   0 # sc2
   1462     24   2  1.000000    36.895211088    11.460573682    23.086476336   0   0   0 # sc2
   1463     24   4 -0.620000    36.945902591     8.093513868    24.494222495   0   0   0 # oc12
   1464     24   4 -0.620000    36.990961781    13.090696556    23.671404529   0   0   0 # oc12
   1465     24   3 -0.930000    35.627924155    14.815943209    22.207684673   0   0   0 # oc13
   1466     24   7 -0.690000    39.367841977     9.297433985    24.698527508   0   0   0 # oc14
   1467     24   5 -0.820000    34.355004573     9.294705810    24.359884706   0   0   0 # o*
   1468     24   4 -0.620000    36.985329466    10.651564402    24.483027505   0   0   0 # oc12
   1469     24   3 -0.930000    35.532173462    11.336995128    22.202087179   0   0   0 # oc13
   1470     24   3 -0.930000    38.241373392    11.112596441    22.196489684   0   0   0 # oc13
   1471     24   5 -0.820000    34.383166482    14.971217088    27.903038999   0   0   0 # o*
   1472     24   3 -1.000000    34.890081524    14.921019042    15.342473402   0   0   0 # oc13
   1473     24   8  0.420000    39.963708951     9.363259743    25.423346563   0   0   0 # hoy
   1474     24   6  0.410000    34.700217796    10.090259016    24.823259273   0   0   0 # h*
   1475     24   6  0.410000    35.034229011     8.641075447    24.654904704   0   0   0 # h*
   1476     24   6  0.410000    33.755009165    14.239559718    27.728846518   0   0   0 # h*
   1477     24   6  0.410000    33.825346601    15.744963065    27.666951214   0   0   0 # h*
   1478     24   6  0.410000    37.423287509    12.232082073    26.448947827   0   0   0 # h*
   1479     24   6  0.410000    38.234681346    12.995545761    25.446882538   0   0   0 # h*
   1480     25   5 -0.820000     4.266715410    20.408073079    26.419727952   0   0   0 # o*
   1481     25   1  1.500000     0.250823234    20.486807498    21.975392395   0   0   0 # casl
   1482     25   1  1.500000     3.145870277    18.611006418    20.002308858   0   0   0 # casl
   1483     25   2  1.000000     0.324044332    20.149226608    18.896822411   0   0   0 # sc2
   1484     25   2  1.000000     0.284617458    17.019451133    18.894023664   0   0   0 # sc2
   1485     25   3 -0.620000     0.335308962    21.077391319    17.486277505   0   0   0 # oc13
   1486     25   4 -0.620000     0.380368151    18.649574007    18.309095471   0   0   0 # oc12
   1487     25   3 -0.930000     1.574434320    20.576835103    19.786809063   0   0   0 # oc13
   1488     25   3 -0.930000    44.076530526    20.374820658    19.772815327  -1   0   0 # oc13
   1489     25   3 -0.620000     0.374735836    16.210441853    17.497472495   0   0   0 # oc13
   1490     25   3 -0.930000    43.980779833    16.895872578    19.778412821  -1   0   0 # oc13
   1491     25   1  1.500000     3.067016863    22.352930047    20.005107605   0   0   0 # casl
   1492     25   1  1.500000     0.329676647    16.744883868    21.978191142   0   0   0 # casl
   1493     25   2  1.000000     3.140237962    22.015349157    23.083677589   0   0   0 # sc2
   1494     25   2  1.000000     3.100811088    18.885573682    23.086476336   0   0   0 # sc2
   1495     25   3 -0.620000     3.151502591    15.518513868    24.494222495   0   0   0 # oc13
   1496     25   4 -0.620000     3.196561781    20.515696556    23.671404529   0   0   0 # oc12
   1497     25   3 -0.930000     1.833524155    22.240943209    22.207684673   0   0   0 # oc13
   1498     25   5 -0.820000     0.560604573    16.719705810    24.359884706   0   0   0 # o*
   1499     25   3 -0.620000     3.190929466    18.076564402    24.483027505   0   0   0 # oc13
   1500     25   3 -0.930000     1.737773462    18.761995128    22.202087179   0   0   0 # oc13
   1501     25   3 -0.930000     4.446973392    18.537596441    22.196489684   0   0   0 # oc13
   1502     25   5 -0.820000     0.588766482    22.396217088    27.903038999   0   0   0 # o*
   1503     25   6  0.410000     0.905817796    17.515259016    24.823259273   0   0   0 # h*
   1504     25   6  0.410000     1.239829011    16.066075447    24.654904704   0   0   0 # h*
   1505     25   6  0.410000    -0.039390835    21.664559718    27.728846518   0   0   0 # h*
   1506     25   6  0.410000     0.030946601    23.169963065    27.666951214   0   0   0 # h*
   1507     25   6  0.410000     3.628887509    19.657082073    26.448947827   0   0   0 # h*
   1508     25   6  0.410000     4.440281346    20.420545761    25.446882538   0   0   0 # h*
   1509     26   5 -0.820000    15.531515410    20.408073079    26.419727952   0   0   0 # o*
   1510     26   1  1.500000    11.515623234    20.486807498    21.975392395   0   0   0 # casl
   1511     26   1  1.500000    14.410670277    18.611006418    20.002308858   0   0   0 # casl
   1512     26   2  1.000000    11.588844332    20.149226608    18.896822411   0   0   0 # sc2
   1513     26   2  1.000000    11.549417458    17.019451133    18.894023664   0   0   0 # sc2
   1514     26   3 -0.620000    11.600108962    21.077391319    17.486277505   0   0   0 # oc13
   1515     26   4 -0.620000    11.645168151    18.649574007    18.309095471   0   0   0 # oc12
   1516     26   3 -0.930000    12.839234320    20.576835103    19.786809063   0   0   0 # oc13
   1517     26   3 -0.930000    10.282130526    20.374820658    19.772815327   0   0   0 # oc13
   1518     26   3 -0.620000    11.639535836    16.210441853    17.497472495   0   0   0 # oc13
   1519     26   3 -0.930000    10.186379833    16.895872578    19.778412821   0   0   0 # oc13
   1520     26   1  1.500000    14.331816863    22.352930047    20.005107605   0   0   0 # casl
   1521     26   1  1.500000    11.594476647    16.744883868    21.978191142   0   0   0 # casl
   1522     26   2  1.000000    14.405037962    22.015349157    23.083677589   0   0   0 # sc2
   1523     26   2  1.000000    14.365611088    18.885573682    23.086476336   0   0   0 # sc2
   1524     26   3 -0.620000    14.416302591    15.518513868    24.494222495   0   0   0 # oc13
   1525     26   4 -0.620000    14.461361781    20.515696556    23.671404529   0   0   0 # oc12
   1526     26   3 -0.930000    13.098324155    22.240943209    22.207684673   0   0   0 # oc13
   1527     26   5 -0.820000    11.825404573    16.719705810    24.359884706   0   0   0 # o*
   1528     26   3 -0.620000    14.455729466    18.076564402    24.483027505   0   0   0 # oc13
   1529     26   3 -0.930000    13.002573462    18.761995128    22.202087179   0   0   0 # oc13
   1530     26   3 -0.930000    15.711773392    18.537596441    22.196489684   0   0   0 # oc13
   1531     26   5 -0.820000    11.853566482    22.396217088    27.903038999   0   0   0 # o*
   1532     26   6  0.410000    12.170617796    17.515259016    24.823259273   0   0   0 # h*
   1533     26   6  0.410000    12.504629011    16.066075447    24.654904704   0   0   0 # h*
   1534     26   6  0.410000    11.225409165    21.664559718    27.728846518   0   0   0 # h*
   1535     26   6  0.410000    11.295746601    23.169963065    27.666951214   0   0   0 # h*
   1536     26   6  0.410000    14.893687509    19.657082073    26.448947827   0   0   0 # h*
   1537     26   6  0.410000    15.705081346    20.420545761    25.446882538   0   0   0 # h*
   1538     27   3 -1.000000    26.441496777    16.787133043    26.638026598   0   0   0 # oc13
   1539     27   5 -0.820000    26.796315410    20.408073079    26.419727952   0   0   0 # o*
   1540     27   1  1.500000    22.780423234    20.486807498    21.975392395   0   0   0 # casl
   1541     27   1  1.500000    25.675470277    18.611006418    20.002308858   0   0   0 # casl
   1542     27   2  1.000000    22.853644332    20.149226608    18.896822411   0   0   0 # sc2
   1543     27   2  1.000000    23.670340378    22.316477163    16.906946599   0   0   0 # sc2
   1544     27   2  1.000000    22.814217458    17.019451133    18.894023664   0   0   0 # sc2
   1545     27   4 -0.620000    22.864908962    21.077391319    17.486277505   0   0   0 # oc12
   1546     27   4 -0.620000    22.909968151    18.649574007    18.309095471   0   0   0 # oc12
   1547     27   3 -0.930000    24.104034320    20.576835103    19.786809063   0   0   0 # oc13
   1548     27   3 -0.930000    21.546930526    20.374820658    19.772815327   0   0   0 # oc13
   1549     27   3 -0.690000    25.286848348    22.281311435    17.281972492   0   0   0 # oc13
   1550     27   4 -0.620000    22.904335836    16.210441853    17.497472495   0   0   0 # oc12
   1551     27   3 -0.930000    21.451179833    16.895872578    19.778412821   0   0   0 # oc13
   1552     27   1  1.500000    25.596616863    22.352930047    20.005107605   0   0   0 # casl
   1553     27   1  1.500000    22.859276647    16.744883868    21.978191142   0   0   0 # casl
   1554     27   2  1.000000    25.669837962    22.015349157    23.083677589   0   0   0 # sc2
   1555     27   2  1.000000    26.486534007    16.757599713    25.073553401   0   0   0 # sc2
   1556     27   2  1.000000    25.630411088    18.885573682    23.086476336   0   0   0 # sc2
   1557     27   4 -0.620000    25.681102591    15.518513868    24.494222495   0   0   0 # oc12
   1558     27   4 -0.620000    25.726161781    20.515696556    23.671404529   0   0   0 # oc12
   1559     27   3 -0.930000    24.363124155    22.240943209    22.207684673   0   0   0 # oc13
   1560     27   7 -0.690000    28.103041977    16.722433985    24.698527508   0   0   0 # oc14
   1561     27   5 -0.820000    23.090204573    16.719705810    24.359884706   0   0   0 # o*
   1562     27   4 -0.620000    25.720529466    18.076564402    24.483027505   0   0   0 # oc12
   1563     27   3 -0.930000    24.267373462    18.761995128    22.202087179   0   0   0 # oc13
   1564     27   3 -0.930000    26.976573392    18.537596441    22.196489684   0   0   0 # oc13
   1565     27   5 -0.820000    23.118366482    22.396217088    27.903038999   0   0   0 # o*
   1566     27   3 -1.000000    23.625281524    22.346019042    15.342473402   0   0   0 # oc13
   1567     27   8  0.420000    28.698908951    16.788259743    25.423346563   0   0   0 # hoy
   1568     27   6  0.410000    23.435417796    17.515259016    24.823259273   0   0   0 # h*
   1569     27   6  0.410000    23.769429011    16.066075447    24.654904704   0   0   0 # h*
   1570     27   6  0.410000    22.490209165    21.664559718    27.728846518   0   0   0 # h*
   1571     27   6  0.410000    22.560546601    23.169963065    27.666951214   0   0   0 # h*
   1572     27   6  0.410000    26.158487509    19.657082073    26.448947827   0   0   0 # h*
   1573     27   6  0.410000    26.969881346    20.420545761    25.446882538   0   0   0 # h*
   1574     28   5 -0.820000    38.061115410    20.408073079    26.419727952   0   0   0 # o*
   1575     28   1  1.500000    34.045223234    20.486807498    21.975392395   0   0   0 # casl
   1576     28   1  1.500000    36.940270277    18.611006418    20.002308858   0   0   0 # casl
   1577     28   2  1.000000    34.118444332    20.149226608    18.896822411   0   0   0 # sc2
   1578     28   2  1.000000    34.079017458    17.019451133    18.894023664   0   0   0 # sc2
   1579     28   3 -0.620000    34.129708962    21.077391319    17.486277505   0   0   0 # oc13
   1580     28   4 -0.620000    34.174768151    18.649574007    18.309095471   0   0   0 # oc12
   1581     28   3 -0.930000    35.368834320    20.576835103    19.786809063   0   0   0 # oc13
   1582     28   3 -0.930000    32.811730526    20.374820658    19.772815327   0   0   0 # oc13
   1583     28   4 -0.620000    34.169135836    16.210441853    17.497472495   0   0   0 # oc12
   1584     28   3 -0.930000    32.715979833    16.895872578    19.778412821   0   0   0 # oc13
   1585     28   1  1.500000    36.861416863    22.352930047    20.005107605   0   0   0 # casl
   1586     28   1  1.500000    34.124076647    16.744883868    21.978191142   0   0   0 # casl
   1587     28   2  1.000000    36.934637962    22.015349157    23.083677589   0   0   0 # sc2
   1588     28   2  1.000000    36.895211088    18.885573682    23.086476336   0   0   0 # sc2
   1589     28   3 -0.620000    36.945902591    15.518513868    24.494222495   0   0   0 # oc13
   1590     28   4 -0.620000    36.990961781    20.515696556    23.671404529   0   0   0 # oc12
   1591     28   3 -0.930000    35.627924155    22.240943209    22.207684673   0   0   0 # oc13
   1592     28   5 -0.820000    34.355004573    16.719705810    24.359884706   0   0   0 # o*
   1593     28   3 -0.620000    36.985329466    18.076564402    24.483027505   0   0   0 # oc13
   1594     28   3 -0.930000    35.532173462    18.761995128    22.202087179   0   0   0 # oc13
   1595     28   3 -0.930000    38.241373392    18.537596441    22.196489684   0   0   0 # oc13
   1596     28   5 -0.820000    34.383166482    22.396217088    27.903038999   0   0   0 # o*
   1597     28   6  0.410000    34.700217796    17.515259016    24.823259273   0   0   0 # h*
   1598     28   6  0.410000    35.034229011    16.066075447    24.654904704   0   0   0 # h*
   1599     28   6  0.410000    33.755009165    21.664559718    27.728846518   0   0   0 # h*
   1600     28   6  0.410000    33.825346601    23.169963065    27.666951214   0   0   0 # h*
   1601     28   6  0.410000    37.423287509    19.657082073    26.448947827   0   0   0 # h*
   1602     28   6  0.410000    38.234681346    20.420545761    25.446882538   0   0   0 # h*
   1603     29   5 -0.820000     4.266715410    27.833073079    26.419727952   0   0   0 # o*
   1604     29   1  1.500000     0.250823234    27.911807498    21.975392395   0   0   0 # casl
   1605     29   1  1.500000     3.145870277    26.036006418    20.002308858   0   0   0 # casl
   1606     29   2  1.000000     0.324044332    27.574226608    18.896822411   0   0   0 # sc2
   1607     29   2  1.000000     0.284617458    24.444451133    18.894023664   0   0   0 # sc2
   1608     29   3 -0.620000     0.335308962    28.502391319    17.486277505   0   0   0 # oc13
   1609     29   4 -0.620000     0.380368151    26.074574007    18.309095471   0   0   0 # oc12
   1610     29   3 -0.930000     1.574434320    28.001835103    19.786809063   0   0   0 # oc13
   1611     29   3 -0.930000    44.076530526    27.799820658    19.772815327  -1   0   0 # oc13
   1612     29   3 -0.620000     0.374735836    23.635441853    17.497472495   0   0   0 # oc13
   1613     29   3 -0.930000    43.980779833    24.320872578    19.778412821  -1   0   0 # oc13
   1614     29   1  1.500000     0.329676647    24.169883868    21.978191142   0   0   0 # casl
   1615     29   2  1.000000     3.140237962    29.440349157    23.083677589   0   0   0 # sc2
   1616     29   2  1.000000     3.100811088    26.310573682    23.086476336   0   0   0 # sc2
   1617     29   3 -0.620000     3.151502591    22.943513868    24.494222495   0   0   0 # oc13
   1618     29   4 -0.620000     3.196561781    27.940696556    23.671404529   0   0   0 # oc12
   1619     29   3 -0.930000     1.833524155    -0.034056791    22.207684673   0   1   0 # oc13
   1620     29   5 -0.820000     0.560604573    24.144705810    24.359884706   0   0   0 # o*
   1621     29   3 -0.620000     3.190929466    25.501564402    24.483027505   0   0   0 # oc13
   1622     29   3 -0.930000     1.737773462    26.186995128    22.202087179   0   0   0 # oc13
   1623     29   3 -0.930000     4.446973392    25.962596441    22.196489684   0   0   0 # oc13
   1624     29   6  0.410000     0.905817796    24.940259016    24.823259273   0   0   0 # h*
   1625     29   6  0.410000     1.239829011    23.491075447    24.654904704   0   0   0 # h*
   1626     29   6  0.410000     3.628887509    27.082082073    26.448947827   0   0   0 # h*
   1627     29   6  0.410000     4.440281346    27.845545761    25.446882538   0   0   0 # h*
   1628     30   5 -0.820000    15.531515410    27.833073079    26.419727952   0   0   0 # o*
   1629     30   1  1.500000    11.515623234    27.911807498    21.975392395   0   0   0 # casl
   1630     30   1  1.500000    14.410670277    26.036006418    20.002308858   0   0   0 # casl
   1631     30   2  1.000000    11.588844332    27.574226608    18.896822411   0   0   0 # sc2
   1632     30   2  1.000000    11.549417458    24.444451133    18.894023664   0   0   0 # sc2
   1633     30   3 -0.620000    11.600108962    28.502391319    17.486277505   0   0   0 # oc13
   1634     30   4 -0.620000    11.645168151    26.074574007    18.309095471   0   0   0 # oc12
   1635     30   3 -0.930000    12.839234320    28.001835103    19.786809063   0   0   0 # oc13
   1636     30   3 -0.930000    10.282130526    27.799820658    19.772815327   0   0   0 # oc13
   1637     30   3 -0.620000    11.639535836    23.635441853    17.497472495   0   0   0 # oc13
   1638     30   3 -0.930000    10.186379833    24.320872578    19.778412821   0   0   0 # oc13
   1639     30   1  1.500000    11.594476647    24.169883868    21.978191142   0   0   0 # casl
   1640     30   2  1.000000    14.405037962    29.440349157    23.083677589   0   0   0 # sc2
   1641     30   2  1.000000    14.365611088    26.310573682    23.086476336   0   0   0 # sc2
   1642     30   3 -0.620000    14.416302591    22.943513868    24.494222495   0   0   0 # oc13
   1643     30   4 -0.620000    14.461361781    27.940696556    23.671404529   0   0   0 # oc12
   1644     30   3 -0.930000    13.098324155    -0.034056791    22.207684673   0   1   0 # oc13
   1645     30   5 -0.820000    11.825404573    24.144705810    24.359884706   0   0   0 # o*
   1646     30   3 -0.620000    14.455729466    25.501564402    24.483027505   0   0   0 # oc13
   1647     30   3 -0.930000    13.002573462    26.186995128    22.202087179   0   0   0 # oc13
   1648     30   3 -0.930000    15.711773392    25.962596441    22.196489684   0   0   0 # oc13
   1649     30   6  0.410000    12.170617796    24.940259016    24.823259273   0   0   0 # h*
   1650     30   6  0.410000    12.504629011    23.491075447    24.654904704   0   0   0 # h*
   1651     30   6  0.410000    14.893687509    27.082082073    26.448947827   0   0   0 # h*
   1652     30   6  0.410000    15.705081346    27.845545761    25.446882538   0   0   0 # h*
   1653     31   3 -1.000000    26.441496777    24.212133043    26.638026598   0   0   0 # oc13
   1654     31   5 -0.820000    26.796315410    27.833073079    26.419727952   0   0   0 # o*
   1655     31   1  1.500000    22.780423234    27.911807498    21.975392395   0   0   0 # casl
   1656     31   1  1.500000    25.675470277    26.036006418    20.002308858   0   0   0 # casl
   1657     31   2  1.000000    22.853644332    27.574226608    18.896822411   0   0   0 # sc2
   1658     31   2  1.000000    22.814217458    24.444451133    18.894023664   0   0   0 # sc2
   1659     31   4 -0.620000    22.864908962    28.502391319    17.486277505   0   0   0 # oc12
   1660     31   4 -0.620000    22.909968151    26.074574007    18.309095471   0   0   0 # oc12
   1661     31   3 -0.930000    24.104034320    28.001835103    19.786809063   0   0   0 # oc13
   1662     31   3 -0.930000    21.546930526    27.799820658    19.772815327   0   0   0 # oc13
   1663     31   4 -0.620000    22.904335836    23.635441853    17.497472495   0   0   0 # oc12
   1664     31   3 -0.930000    21.451179833    24.320872578    19.778412821   0   0   0 # oc13
   1665     31   1  1.500000    22.859276647    24.169883868    21.978191142   0   0   0 # casl
   1666     31   2  1.000000    25.669837962    29.440349157    23.083677589   0   0   0 # sc2
   1667     31   2  1.000000    26.486534007    24.182599713    25.073553401   0   0   0 # sc2
   1668     31   2  1.000000    25.630411088    26.310573682    23.086476336   0   0   0 # sc2
   1669     31   4 -0.620000    25.681102591    22.943513868    24.494222495   0   0   0 # oc12
   1670     31   4 -0.620000    25.726161781    27.940696556    23.671404529   0   0   0 # oc12
   1671     31   3 -0.930000    24.363124155    -0.034056791    22.207684673   0   1   0 # oc13
   1672     31   7 -0.690000    28.103041977    24.147433985    24.698527508   0   0   0 # oc14
   1673     31   5 -0.820000    23.090204573    24.144705810    24.359884706   0   0   0 # o*
   1674     31   4 -0.620000    25.720529466    25.501564402    24.483027505   0   0   0 # oc12
   1675     31   3 -0.930000    24.267373462    26.186995128    22.202087179   0   0   0 # oc13
   1676     31   3 -0.930000    26.976573392    25.962596441    22.196489684   0   0   0 # oc13
   1677     31   8  0.420000    28.698908951    24.213259743    25.423346563   0   0   0 # hoy
   1678     31   6  0.410000    23.435417796    24.940259016    24.823259273   0   0   0 # h*
   1679     31   6  0.410000    23.769429011    23.491075447    24.654904704   0   0   0 # h*
   1680     31   6  0.410000    26.158487509    27.082082073    26.448947827   0   0   0 # h*
   1681     31   6  0.410000    26.969881346    27.845545761    25.446882538   0   0   0 # h*
   1682     32   5 -0.820000    38.061115410    27.833073079    26.419727952   0   0   0 # o*
   1683     32   1  1.500000    34.045223234    27.911807498    21.975392395   0   0   0 # casl
   1684     32   1  1.500000    36.940270277    26.036006418    20.002308858   0   0   0 # casl
   1685     32   2  1.000000    34.118444332    27.574226608    18.896822411   0   0   0 # sc2
   1686     32   2  1.000000    34.079017458    24.444451133    18.894023664   0   0   0 # sc2
   1687     32   3 -0.620000    34.129708962    28.502391319    17.486277505   0   0   0 # oc13
   1688     32   4 -0.620000    34.174768151    26.074574007    18.309095471   0   0   0 # oc12
   1689     32   3 -0.930000    35.368834320    28.001835103    19.786809063   0   0   0 # oc13
   1690     32   3 -0.930000    32.811730526    27.799820658    19.772815327   0   0   0 # oc13
   1691     32   3 -0.620000    34.169135836    23.635441853    17.497472495   0   0   0 # oc13
   1692     32   3 -0.930000    32.715979833    24.320872578    19.778412821   0   0   0 # oc13
   1693     32   1  1.500000    34.124076647    24.169883868    21.978191142   0   0   0 # casl
   1694     32   2  1.000000    36.934637962    29.440349157    23.083677589   0   0   0 # sc2
   1695     32   2  1.000000    36.895211088    26.310573682    23.086476336   0   0   0 # sc2
   1696     32   3 -0.620000    36.945902591    22.943513868    24.494222495   0   0   0 # oc13
   1697     32   4 -0.620000    36.990961781    27.940696556    23.671404529   0   0   0 # oc12
   1698     32   3 -0.930000    35.627924155    -0.034056791    22.207684673   0   1   0 # oc13
   1699     32   5 -0.820000    34.355004573    24.144705810    24.359884706   0   0   0 # o*
   1700     32   3 -0.620000    36.985329466    25.501564402    24.483027505   0   0   0 # oc13
   1701     32   3 -0.930000    35.532173462    26.186995128    22.202087179   0   0   0 # oc13
   1702     32   3 -0.930000    38.241373392    25.962596441    22.196489684   0   0   0 # oc13
   1703     32   6  0.410000    34.700217796    24.940259016    24.823259273   0   0   0 # h*
   1704     32   6  0.410000    35.034229011    23.491075447    24.654904704   0   0   0 # h*
   1705     32   6  0.410000    37.423287509    27.082082073    26.448947827   0   0   0 # h*
   1706     32   6  0.410000    38.234681346    27.845545761    25.446882538   0   0   0 # h*
   1707     33   1  1.500000     3.067016863     0.077930047    20.005107605   0   0   0 # casl
   1708     33   5 -0.820000     0.588766482     0.121217088    27.903038999   0   0   0 # o*
   1709     33   6  0.410000    -0.039390835    29.089559718    27.728846518   0  -1   0 # h*
   1710     33   6  0.410000     0.030946601     0.894963065    27.666951214   0   0   0 # h*
   1711     34   5 -0.820000     1.450521780    -0.020549471    40.413227952   0   0   0 # o*
   1712     34   1  1.500000     3.067016863     0.077930047    47.992107605   0   0   0 # casl
   1713     34   1  1.500000     3.145870277     0.048506418    35.971691142   0   0   0 # casl
   1714     34   4 -0.620000     0.380368151     0.087074007    37.664904529   0   0   0 # oc12
   1715     34   6  0.410000     1.020318043     0.824469415    40.691850912   0   0   0 # h*
   1716     34   6  0.410000     1.068293224    -0.077654060    39.497968959   0   0   0 # h*
   1717     35   1  1.500000    14.331816863     0.077930047    20.005107605   0   0   0 # casl
   1718     35   5 -0.820000    11.853566482     0.121217088    27.903038999   0   0   0 # o*
   1719     35   6  0.410000    11.225409165    29.089559718    27.728846518   0  -1   0 # h*
   1720     35   6  0.410000    11.295746601     0.894963065    27.666951214   0   0   0 # h*
   1721     36   5 -0.820000    12.715321780    -0.020549471    40.413227952   0   0   0 # o*
   1722     36   1  1.500000    14.331816863     0.077930047    47.992107605   0   0   0 # casl
   1723     36   1  1.500000    14.410670277     0.048506418    35.971691142   0   0   0 # casl
   1724     36   4 -0.620000    11.645168151     0.087074007    37.664904529   0   0   0 # oc12
   1725     36   6  0.410000    12.285118043     0.824469415    40.691850912   0   0   0 # h*
   1726     36   6  0.410000    12.333093224    -0.077654060    39.497968959   0   0   0 # h*
   1727     37   2  1.000000    23.670340378     0.041477163    16.906946599   0   0   0 # sc2
   1728     37   7 -0.690000    25.286848348     0.006311435    17.281972492   0   0   0 # oc14
   1729     37   1  1.500000    25.596616863     0.077930047    20.005107605   0   0   0 # casl
   1730     37   5 -0.820000    23.118366482     0.121217088    27.903038999   0   0   0 # o*
   1731     37   3 -1.000000    23.625281524     0.071019042    15.342473402   0   0   0 # oc13
   1732     37   8  0.420000    25.879167651     0.084707637    16.556567616   0   0   0 # hoy
   1733     37   6  0.410000    22.490209165    29.089559718    27.728846518   0  -1   0 # h*
   1734     37   6  0.410000    22.560546601     0.894963065    27.666951214   0   0   0 # h*
   1735     38   2  1.000000    23.670340378     0.041477163    44.893946599   0   0   0 # sc2
   1736     38   7 -0.690000    25.286848348     0.006311435    45.268972492   0   0   0 # oc14
   1737     38   5 -0.820000    23.980121780    -0.020549471    40.413227952   0   0   0 # o*
   1738     38   1  1.500000    25.596616863     0.077930047    47.992107605   0   0   0 # casl
   1739     38   1  1.500000    25.675470277     0.048506418    35.971691142   0   0   0 # casl
   1740     38   4 -0.620000    22.909968151     0.087074007    37.664904529   0   0   0 # oc12
   1741     38   3 -1.000000    23.625281524     0.071019042    43.329473402   0   0   0 # oc13
   1742     38   8  0.420000    25.879167651     0.084707637    44.543567616   0   0   0 # hoy
   1743     38   6  0.410000    23.549918043     0.824469415    40.691850912   0   0   0 # h*
   1744     38   6  0.410000    23.597893224    -0.077654060    39.497968959   0   0   0 # h*
   1745     39   1  1.500000    36.861416863     0.077930047    20.005107605   0   0   0 # casl
   1746     39   5 -0.820000    34.383166482     0.121217088    27.903038999   0   0   0 # o*
   1747     39   6  0.410000    33.755009165    29.089559718    27.728846518   0  -1   0 # h*
   1748     39   6  0.410000    33.825346601     0.894963065    27.666951214   0   0   0 # h*
   1749     40   5 -0.820000    35.244921780    -0.020549471    40.413227952   0   0   0 # o*
   1750     40   1  1.500000    36.861416863     0.077930047    47.992107605   0   0   0 # casl
   1751     40   1  1.500000    36.940270277     0.048506418    35.971691142   0   0   0 # casl
   1752     40   4 -0.620000    34.174768151     0.087074007    37.664904529   0   0   0 # oc12
   1753     40   6  0.410000    34.814718043     0.824469415    40.691850912   0   0   0 # h*
   1754     40   6  0.410000    34.862693224    -0.077654060    39.497968959   0   0   0 # h*
   1755     41   1  1.500000     8.699404123     0.097675147    35.968892395   0   0   0 # casl
   1756     41   1  1.500000     5.962063907     1.914628968    33.995808858   0   0   0 # casl
   1757     41   2  1.000000     8.772625221     7.185094257    32.890322411   0   0   0 # sc2
   1758     41   2  1.000000     8.733198347     4.055318782    32.887523664   0   0   0 # sc2
   1759     41   3 -0.620000     8.783889851     0.688258968    31.479777505   0   0   0 # oc13
   1760     41   4 -0.620000     8.828949040     5.685441655    32.302595471   0   0   0 # oc12
   1761     41   3 -0.930000    10.023015210     7.612702752    33.780309063   0   0   0 # oc13
   1762     41   3 -0.930000     7.465911415     7.410688307    33.766315327   0   0   0 # oc13
   1763     41   5 -0.820000     6.192991832     1.889450909    31.614115294   0   0   0 # o*
   1764     41   3 -0.620000     8.823316726     3.246309502    31.490972495   0   0   0 # oc13
   1765     41   3 -0.930000     7.370160722     3.931740227    33.771912821   0   0   0 # oc13
   1766     41   5 -0.820000     6.221153742     0.140962186    28.070961001   0   0   0 # o*
   1767     41   1  1.700000     9.499203224     3.798128920    28.040175301   0   0   0 # casl
   1768     41   5 -0.820000     8.676874529     0.142146035    27.987000000   0   0   0 # o*
   1769     41   1  1.500000     5.883210493     1.944052597    49.962392395   0   0   0 # casl
   1770     41   1  1.500000     8.778257537     0.068251517    47.989308858   0   0   0 # casl
   1771     41   2  1.000000     5.956431592     1.606471708    46.883822411   0   0   0 # sc2
   1772     41   2  1.000000     5.917004718     5.901696232    46.881023664   0   0   0 # sc2
   1773     41   3 -0.620000     5.967696221     2.534636418    45.473277505   0   0   0 # oc13
   1774     41   4 -0.620000     6.012755410     7.531819106    46.296095471   0   0   0 # oc12
   1775     41   3 -0.930000     7.206821580     2.034080202    47.773809063   0   0   0 # oc13
   1776     41   3 -0.930000     4.649717785     1.832065758    47.759815327   0   0   0 # oc13
   1777     41   5 -0.820000     9.009185462     0.043073459    45.607615294   0   0   0 # o*
   1778     41   3 -0.620000     6.007123096     5.092686952    45.484472495   0   0   0 # oc13
   1779     41   3 -0.930000     4.553967092     5.778117677    47.765412821   0   0   0 # oc13
   1780     41   5 -0.820000     7.082909039     3.711695629    40.413227952   0   0   0 # o*
   1781     41   1  1.500000     8.699404122     3.810175147    47.992107605   0   0   0 # casl
   1782     41   1  1.500000     5.962063906     5.627128968    49.965191142   0   0   0 # casl
   1783     41   2  1.000000     8.772625222     3.472594256    51.070677589   0   0   0 # sc2
   1784     41   2  1.000000     8.733198347     0.342818781    51.073476336   0   0   0 # sc2
   1785     41   3 -0.620000     8.783889851     4.400758967    52.481222495   0   0   0 # oc13
   1786     41   4 -0.620000     8.828949041     1.972941655    51.658404529   0   0   0 # oc12
   1787     41   3 -0.930000     7.465911415     3.698188308    50.194684673   0   0   0 # oc13
   1788     41   3 -0.620000     8.823316726     6.958809501    52.470027505   0   0   0 # oc13
   1789     41   3 -0.930000     7.370160721     0.219240227    50.189087179   0   0   0 # oc13
   1790     41   5 -0.820000     9.899102670     5.577818179    29.554272048   0   0   0 # o*
   1791     41   1  1.500000     5.883210493     5.656552597    33.998607605   0   0   0 # casl
   1792     41   1  1.500000     8.778257536     3.780751517    35.971691142   0   0   0 # casl
   1793     41   2  1.000000     5.956431592     5.318971707    37.077177589   0   0   0 # sc2
   1794     41   2  1.000000     5.917004718     2.189196232    37.079976336   0   0   0 # sc2
   1795     41   4 -0.620000     5.967696221     6.247136418    38.487722495   0   0   0 # oc12
   1796     41   4 -0.620000     6.012755411     3.819319106    37.664904529   0   0   0 # oc12
   1797     41   3 -0.930000     4.649717785     5.544565758    36.201184673   0   0   0 # oc13
   1798     41   5 -0.820000     9.009185463     3.755573459    38.353384706   0   0   0 # o*
   1799     41   3 -0.620000     6.007123096     1.380186952    38.476527505   0   0   0 # oc13
   1800     41   3 -0.930000     4.553967092     2.065617677    36.195587179   0   0   0 # oc13
   1801     41   3 -0.930000     7.263167022     1.841218990    36.189989684   0   0   0 # oc13
   1802     41   5 -0.820000     9.961037284     5.670856487    42.064461001   0   0   0 # o*
   1803     41   5 -0.820000     9.037347372     2.007084737    41.896538999   0   0   0 # o*
   1804     41   1  1.700000     6.683009594     1.932006371    41.927324699   0   0   0 # casl
   1805     41   5 -0.820000     5.860680898     5.701023485    41.980500000   0   0   0 # o*
   1806     41   6  0.410000    10.205935086     5.442845487    30.485299190   0   0   0 # h*
   1807     41   6  0.410000     9.375814022     6.399315793    29.699690205   0   0   0 # h*
   1808     41   6  0.410000     6.549260109     2.700476688    31.184921326   0   0   0 # h*
   1809     41   6  0.410000     6.914697447     1.257745366    31.373507348   0   0   0 # h*
   1810     41   6  0.410000     6.707816247     0.837576794    28.563324689   0   0   0 # h*
   1811     41   6  0.410000     7.036153249    29.391817318    27.738451405   0  -1   0 # h*
   1812     41   6  0.410000     9.245013125    29.139005514    27.574660375   0  -1   0 # h*
   1813     41   6  0.410000     9.288538954     0.738236357    28.494734712   0   0   0 # h*
   1814     41   6  0.410000     8.564784112     3.761937245    39.227697981   0   0   0 # h*
   1815     41   6  0.410000     9.922256809     3.490175791    38.615428401   0   0   0 # h*
   1816     41   6  0.410000     6.652705303     4.556714514    40.691850912   0   0   0 # h*
   1817     41   6  0.410000     6.700680483     3.654591039    39.497968959   0   0   0 # h*
   1818     41   6  0.410000     9.497449862     2.020848169    41.029448887   0   0   0 # h*
   1819     41   6  0.410000     9.867671991     1.950004223    42.428054179   0   0   0 # h*
   1820     41   6  0.410000     9.336609754     4.925050466    41.934312897   0   0   0 # h*
   1821     41   6  0.410000     9.331744969     6.380670002    42.321808815   0   0   0 # h*
   1822     41   6  0.410000     6.449346812     5.089439180    42.502919081   0   0   0 # h*
   1823     41   6  0.410000     6.460229568     6.394237403    41.590581679   0   0   0 # h*
   1824     41   6  0.410000     9.422011603     0.841310778    45.206969855   0   0   0 # h*
   1825     41   6  0.410000     9.690427493    29.075821262    45.347758008   0  -1   0 # h*
   1826     42   1  1.500000    19.964204123     0.097675147    35.968892395   0   0   0 # casl
   1827     42   1  1.500000    17.226863907     1.914628968    33.995808858   0   0   0 # casl
   1828     42   2  1.000000    20.037425221     7.185094257    32.890322411   0   0   0 # sc2
   1829     42   2  1.000000    19.997998347     4.055318782    32.887523664   0   0   0 # sc2
   1830     42   3 -0.620000    20.048689851     0.688258968    31.479777505   0   0   0 # oc13
   1831     42   4 -0.620000    20.093749040     5.685441655    32.302595471   0   0   0 # oc12
   1832     42   3 -0.930000    21.287815210     7.612702752    33.780309063   0   0   0 # oc13
   1833     42   3 -0.930000    18.730711415     7.410688307    33.766315327   0   0   0 # oc13
   1834     42   5 -0.820000    17.457791832     1.889450909    31.614115294   0   0   0 # o*
   1835     42   3 -0.620000    20.088116726     3.246309502    31.490972495   0   0   0 # oc13
   1836     42   3 -0.930000    18.634960722     3.931740227    33.771912821   0   0   0 # oc13
   1837     42   5 -0.820000    17.485953742     0.140962186    28.070961001   0   0   0 # o*
   1838     42   1  1.700000    20.764003224     3.798128920    28.040175301   0   0   0 # casl
   1839     42   5 -0.820000    19.941674529     0.142146035    27.987000000   0   0   0 # o*
   1840     42   1  1.500000    17.148010493     1.944052597    49.962392395   0   0   0 # casl
   1841     42   1  1.500000    20.043057537     0.068251517    47.989308858   0   0   0 # casl
   1842     42   2  1.000000    17.221231592     1.606471708    46.883822411   0   0   0 # sc2
   1843     42   2  1.000000    17.181804718     5.901696232    46.881023664   0   0   0 # sc2
   1844     42   3 -0.620000    17.232496221     2.534636418    45.473277505   0   0   0 # oc13
   1845     42   4 -0.620000    17.277555410     7.531819106    46.296095471   0   0   0 # oc12
   1846     42   3 -0.930000    18.471621580     2.034080202    47.773809063   0   0   0 # oc13
   1847     42   3 -0.930000    15.914517785     1.832065758    47.759815327   0   0   0 # oc13
   1848     42   5 -0.820000    20.273985462     0.043073459    45.607615294   0   0   0 # o*
   1849     42   3 -0.620000    17.271923096     5.092686952    45.484472495   0   0   0 # oc13
   1850     42   3 -0.930000    15.818767092     5.778117677    47.765412821   0   0   0 # oc13
   1851     42   5 -0.820000    18.347709039     3.711695629    40.413227952   0   0   0 # o*
   1852     42   1  1.500000    19.964204122     3.810175147    47.992107605   0   0   0 # casl
   1853     42   1  1.500000    17.226863906     5.627128968    49.965191142   0   0   0 # casl
   1854     42   2  1.000000    20.037425222     3.472594256    51.070677589   0   0   0 # sc2
   1855     42   2  1.000000    19.997998347     0.342818781    51.073476336   0   0   0 # sc2
   1856     42   3 -0.620000    20.048689851     4.400758967    52.481222495   0   0   0 # oc13
   1857     42   4 -0.620000    20.093749041     1.972941655    51.658404529   0   0   0 # oc12
   1858     42   3 -0.930000    18.730711415     3.698188308    50.194684673   0   0   0 # oc13
   1859     42   3 -0.620000    20.088116726     6.958809501    52.470027505   0   0   0 # oc13
   1860     42   3 -0.930000    18.634960721     0.219240227    50.189087179   0   0   0 # oc13
   1861     42   5 -0.820000    21.163902670     5.577818179    29.554272048   0   0   0 # o*
   1862     42   1  1.500000    17.148010493     5.656552597    33.998607605   0   0   0 # casl
   1863     42   1  1.500000    20.043057536     3.780751517    35.971691142   0   0   0 # casl
   1864     42   2  1.000000    17.221231592     5.318971707    37.077177589   0   0   0 # sc2
   1865     42   2  1.000000    17.181804718     2.189196232    37.079976336   0   0   0 # sc2
   1866     42   3 -0.620000    17.232496221     6.247136418    38.487722495   0   0   0 # oc13
   1867     42   4 -0.620000    17.277555411     3.819319106    37.664904529   0   0   0 # oc12
   1868     42   3 -0.930000    15.914517785     5.544565758    36.201184673   0   0   0 # oc13
   1869     42   5 -0.820000    20.273985463     3.755573459    38.353384706   0   0   0 # o*
   1870     42   3 -0.620000    17.271923096     1.380186952    38.476527505   0   0   0 # oc13
   1871     42   3 -0.930000    15.818767092     2.065617677    36.195587179   0   0   0 # oc13
   1872     42   3 -0.930000    18.527967022     1.841218990    36.189989684   0   0   0 # oc13
   1873     42   5 -0.820000    21.225837284     5.670856487    42.064461001   0   0   0 # o*
   1874     42   5 -0.820000    20.302147372     2.007084737    41.896538999   0   0   0 # o*
   1875     42   1  1.700000    17.947809594     1.932006371    41.927324699   0   0   0 # casl
   1876     42   5 -0.820000    17.125480898     5.701023485    41.980500000   0   0   0 # o*
   1877     42   6  0.410000    21.470735086     5.442845487    30.485299190   0   0   0 # h*
   1878     42   6  0.410000    20.640614022     6.399315793    29.699690205   0   0   0 # h*
   1879     42   6  0.410000    17.814060109     2.700476688    31.184921326   0   0   0 # h*
   1880     42   6  0.410000    18.179497447     1.257745366    31.373507348   0   0   0 # h*
   1881     42   6  0.410000    17.972616247     0.837576794    28.563324689   0   0   0 # h*
   1882     42   6  0.410000    18.300953249    29.391817318    27.738451405   0  -1   0 # h*
   1883     42   6  0.410000    20.509813125    29.139005514    27.574660375   0  -1   0 # h*
   1884     42   6  0.410000    20.553338954     0.738236357    28.494734712   0   0   0 # h*
   1885     42   6  0.410000    19.829584112     3.761937245    39.227697981   0   0   0 # h*
   1886     42   6  0.410000    21.187056809     3.490175791    38.615428401   0   0   0 # h*
   1887     42   6  0.410000    17.917505303     4.556714514    40.691850912   0   0   0 # h*
   1888     42   6  0.410000    17.965480483     3.654591039    39.497968959   0   0   0 # h*
   1889     42   6  0.410000    20.762249862     2.020848169    41.029448887   0   0   0 # h*
   1890     42   6  0.410000    21.132471991     1.950004223    42.428054179   0   0   0 # h*
   1891     42   6  0.410000    20.601409754     4.925050466    41.934312897   0   0   0 # h*
   1892     42   6  0.410000    20.596544969     6.380670002    42.321808815   0   0   0 # h*
   1893     42   6  0.410000    17.714146812     5.089439180    42.502919081   0   0   0 # h*
   1894     42   6  0.410000    17.725029568     6.394237403    41.590581679   0   0   0 # h*
   1895     42   6  0.410000    20.686811603     0.841310778    45.206969855   0   0   0 # h*
   1896     42   6  0.410000    20.955227493    29.075821262    45.347758008   0  -1   0 # h*
   1897     43   1  1.500000    31.229004123     0.097675147    35.968892395   0   0   0 # casl
   1898     43   1  1.500000    28.491663907     1.914628968    33.995808858   0   0   0 # casl
   1899     43   2  1.000000    31.302225221     7.185094257    32.890322411   0   0   0 # sc2
   1900     43   2  1.000000    31.262798347     4.055318782    32.887523664   0   0   0 # sc2
   1901     43   3 -0.620000    31.313489851     0.688258968    31.479777505   0   0   0 # oc13
   1902     43   4 -0.620000    31.358549040     5.685441655    32.302595471   0   0   0 # oc12
   1903     43   3 -0.930000    32.552615210     7.612702752    33.780309063   0   0   0 # oc13
   1904     43   3 -0.930000    29.995511415     7.410688307    33.766315327   0   0   0 # oc13
   1905     43   5 -0.820000    28.722591832     1.889450909    31.614115294   0   0   0 # o*
   1906     43   3 -0.620000    31.352916726     3.246309502    31.490972495   0   0   0 # oc13
   1907     43   3 -0.930000    29.899760722     3.931740227    33.771912821   0   0   0 # oc13
   1908     43   5 -0.820000    28.750753742     0.140962186    28.070961001   0   0   0 # o*
   1909     43   1  1.700000    32.028803224     3.798128920    28.040175301   0   0   0 # casl
   1910     43   5 -0.820000    31.206474529     0.142146035    27.987000000   0   0   0 # o*
   1911     43   1  1.500000    28.412810493     1.944052597    49.962392395   0   0   0 # casl
   1912     43   1  1.500000    31.307857537     0.068251517    47.989308858   0   0   0 # casl
   1913     43   2  1.000000    28.486031592     1.606471708    46.883822411   0   0   0 # sc2
   1914     43   2  1.000000    28.446604718     5.901696232    46.881023664   0   0   0 # sc2
   1915     43   3 -0.620000    28.497296221     2.534636418    45.473277505   0   0   0 # oc13
   1916     43   4 -0.620000    28.542355410     7.531819106    46.296095471   0   0   0 # oc12
   1917     43   3 -0.930000    29.736421580     2.034080202    47.773809063   0   0   0 # oc13
   1918     43   3 -0.930000    27.179317785     1.832065758    47.759815327   0   0   0 # oc13
   1919     43   5 -0.820000    31.538785462     0.043073459    45.607615294   0   0   0 # o*
   1920     43   3 -0.620000    28.536723096     5.092686952    45.484472495   0   0   0 # oc13
   1921     43   3 -0.930000    27.083567092     5.778117677    47.765412821   0   0   0 # oc13
   1922     43   5 -0.820000    29.612509039     3.711695629    40.413227952   0   0   0 # o*
   1923     43   1  1.500000    31.229004122     3.810175147    47.992107605   0   0   0 # casl
   1924     43   1  1.500000    28.491663906     5.627128968    49.965191142   0   0   0 # casl
   1925     43   2  1.000000    31.302225222     3.472594256    51.070677589   0   0   0 # sc2
   1926     43   2  1.000000    31.262798347     0.342818781    51.073476336   0   0   0 # sc2
   1927     43   3 -0.620000    31.313489851     4.400758967    52.481222495   0   0   0 # oc13
   1928     43   4 -0.620000    31.358549041     1.972941655    51.658404529   0   0   0 # oc12
   1929     43   3 -0.930000    29.995511415     3.698188308    50.194684673   0   0   0 # oc13
   1930     43   3 -0.620000    31.352916726     6.958809501    52.470027505   0   0   0 # oc13
   1931     43   3 -0.930000    29.899760721     0.219240227    50.189087179   0   0   0 # oc13
   1932     43   5 -0.820000    32.428702670     5.577818179    29.554272048   0   0   0 # o*
   1933     43   1  1.500000    28.412810493     5.656552597    33.998607605   0   0   0 # casl
   1934     43   1  1.500000    31.307857536     3.780751517    35.971691142   0   0   0 # casl
   1935     43   2  1.000000    28.486031592     5.318971707    37.077177589   0   0   0 # sc2
   1936     43   2  1.000000    28.446604718     2.189196232    37.079976336   0   0   0 # sc2
   1937     43   3 -0.620000    28.497296221     6.247136418    38.487722495   0   0   0 # oc13
   1938     43   4 -0.620000    28.542355411     3.819319106    37.664904529   0   0   0 # oc12
   1939     43   3 -0.930000    27.179317785     5.544565758    36.201184673   0   0   0 # oc13
   1940     43   5 -0.820000    31.538785463     3.755573459    38.353384706   0   0   0 # o*
   1941     43   3 -0.620000    28.536723096     1.380186952    38.476527505   0   0   0 # oc13
   1942     43   3 -0.930000    27.083567092     2.065617677    36.195587179   0   0   0 # oc13
   1943     43   3 -0.930000    29.792767022     1.841218990    36.189989684   0   0   0 # oc13
   1944     43   5 -0.820000    32.490637284     5.670856487    42.064461001   0   0   0 # o*
   1945     43   5 -0.820000    31.566947372     2.007084737    41.896538999   0   0   0 # o*
   1946     43   1  1.700000    29.212609594     1.932006371    41.927324699   0   0   0 # casl
   1947     43   5 -0.820000    28.390280898     5.701023485    41.980500000   0   0   0 # o*
   1948     43   6  0.410000    32.735535086     5.442845487    30.485299190   0   0   0 # h*
   1949     43   6  0.410000    31.905414022     6.399315793    29.699690205   0   0   0 # h*
   1950     43   6  0.410000    29.078860109     2.700476688    31.184921326   0   0   0 # h*
   1951     43   6  0.410000    29.444297447     1.257745366    31.373507348   0   0   0 # h*
   1952     43   6  0.410000    29.237416247     0.837576794    28.563324689   0   0   0 # h*
   1953     43   6  0.410000    29.565753249    29.391817318    27.738451405   0  -1   0 # h*
   1954     43   6  0.410000    31.774613125    29.139005514    27.574660375   0  -1   0 # h*
   1955     43   6  0.410000    31.818138954     0.738236357    28.494734712   0   0   0 # h*
   1956     43   6  0.410000    31.094384112     3.761937245    39.227697981   0   0   0 # h*
   1957     43   6  0.410000    32.451856809     3.490175791    38.615428401   0   0   0 # h*
   1958     43   6  0.410000    29.182305303     4.556714514    40.691850912   0   0   0 # h*
   1959     43   6  0.410000    29.230280483     3.654591039    39.497968959   0   0   0 # h*
   1960     43   6  0.410000    32.027049862     2.020848169    41.029448887   0   0   0 # h*
   1961     43   6  0.410000    32.397271991     1.950004223    42.428054179   0   0   0 # h*
   1962     43   6  0.410000    31.866209754     4.925050466    41.934312897   0   0   0 # h*
   1963     43   6  0.410000    31.861344969     6.380670002    42.321808815   0   0   0 # h*
   1964     43   6  0.410000    28.978946812     5.089439180    42.502919081   0   0   0 # h*
   1965     43   6  0.410000    28.989829568     6.394237403    41.590581679   0   0   0 # h*
   1966     43   6  0.410000    31.951611603     0.841310778    45.206969855   0   0   0 # h*
   1967     43   6  0.410000    32.220027493    29.075821262    45.347758008   0  -1   0 # h*
   1968     44   1  1.500000    42.493804123     0.097675147    35.968892395   0   0   0 # casl
   1969     44   1  1.500000    39.756463907     1.914628968    33.995808858   0   0   0 # casl
   1970     44   2  1.000000    42.567025221     7.185094257    32.890322411   0   0   0 # sc2
   1971     44   2  1.000000    43.383721267     1.927344811    30.900446599   0   0   0 # sc2
   1972     44   2  1.000000    42.527598347     4.055318782    32.887523664   0   0   0 # sc2
   1973     44   4 -0.620000    42.578289851     0.688258968    31.479777505   0   0   0 # oc12
   1974     44   4 -0.620000    42.623349040     5.685441655    32.302595471   0   0   0 # oc12
   1975     44   3 -0.930000    43.817415210     7.612702752    33.780309063   0   0   0 # oc13
   1976     44   3 -0.930000    41.260311415     7.410688307    33.766315327   0   0   0 # oc13
   1977     44   3 -1.000000    43.338684037     5.669378142    54.625026598   0   0   0 # oc13
   1978     44   7 -0.690000    -0.058970762     1.892179084    31.275472492   1   0   0 # oc14
   1979     44   5 -0.820000    39.987391832     1.889450909    31.614115294   0   0   0 # o*
   1980     44   4 -0.620000    42.617716726     3.246309502    31.490972495   0   0   0 # oc12
   1981     44   3 -0.930000    41.164560722     3.931740227    33.771912821   0   0   0 # oc13
   1982     44   5 -0.820000    40.015553742     0.140962186    28.070961001   0   0   0 # o*
   1983     44   1  1.700000    43.293603224     3.798128920    28.040175301   0   0   0 # casl
   1984     44   5 -0.820000    42.471274529     0.142146035    27.987000000   0   0   0 # o*
   1985     44   1  1.500000    39.677610493     1.944052597    49.962392395   0   0   0 # casl
   1986     44   1  1.500000    42.572657537     0.068251517    47.989308858   0   0   0 # casl
   1987     44   2  1.000000    39.750831592     1.606471708    46.883822411   0   0   0 # sc2
   1988     44   2  1.000000    40.567527637     3.773722262    44.893946599   0   0   0 # sc2
   1989     44   2  1.000000    39.711404718     5.901696232    46.881023664   0   0   0 # sc2
   1990     44   4 -0.620000    39.762096221     2.534636418    45.473277505   0   0   0 # oc12
   1991     44   4 -0.620000    39.807155410     7.531819106    46.296095471   0   0   0 # oc12
   1992     44   3 -0.930000    41.001221580     2.034080202    47.773809063   0   0   0 # oc13
   1993     44   3 -0.930000    38.444117785     1.832065758    47.759815327   0   0   0 # oc13
   1994     44   3 -1.000000    40.522490407     0.090755593    40.631526598   0   0   0 # oc13
   1995     44   7 -0.690000    42.184035608     3.738556534    45.268972492   0   0   0 # oc14
   1996     44   5 -0.820000    42.803585462     0.043073459    45.607615294   0   0   0 # o*
   1997     44   4 -0.620000    39.801523096     5.092686952    45.484472495   0   0   0 # oc12
   1998     44   3 -0.930000    38.348367092     5.778117677    47.765412821   0   0   0 # oc13
   1999     44   5 -0.820000    40.877309039     3.711695629    40.413227952   0   0   0 # o*
   2000     44   1  1.500000    42.493804122     3.810175147    47.992107605   0   0   0 # casl
   2001     44   1  1.500000    39.756463906     5.627128968    49.965191142   0   0   0 # casl
   2002     44   2  1.000000    42.567025222     3.472594256    51.070677589   0   0   0 # sc2
   2003     44   2  1.000000    43.383721267     5.639844812    53.060553401   0   0   0 # sc2
   2004     44   2  1.000000    42.527598347     0.342818781    51.073476336   0   0   0 # sc2
   2005     44   4 -0.620000    42.578289851     4.400758967    52.481222495   0   0   0 # oc12
   2006     44   4 -0.620000    42.623349041     1.972941655    51.658404529   0   0   0 # oc12
   2007     44   3 -0.930000    41.260311415     3.698188308    50.194684673   0   0   0 # oc13
   2008     44   3 -1.000000    43.338662413     1.956886690    29.335973402   0   0   0 # oc13
   2009     44   3 -0.690000    -0.058970763     5.604679084    52.685527508   1   0   0 # oc13
   2010     44   4 -0.620000    42.617716726     6.958809501    52.470027505   0   0   0 # oc12
   2011     44   3 -0.930000    41.164560721     0.219240227    50.189087179   0   0   0 # oc13
   2012     44   5 -0.820000    43.693502670     5.577818179    29.554272048   0   0   0 # o*
   2013     44   1  1.500000    39.677610493     5.656552597    33.998607605   0   0   0 # casl
   2014     44   1  1.500000    42.572657536     3.780751517    35.971691142   0   0   0 # casl
   2015     44   2  1.000000    39.750831592     5.318971707    37.077177589   0   0   0 # sc2
   2016     44   2  1.000000    40.567527637     0.061222263    39.067053401   0   0   0 # sc2
   2017     44   2  1.000000    39.711404718     2.189196232    37.079976336   0   0   0 # sc2
   2018     44   3 -0.620000    39.762096221     6.247136418    38.487722495   0   0   0 # oc13
   2019     44   4 -0.620000    39.807155411     3.819319106    37.664904529   0   0   0 # oc12
   2020     44   3 -0.930000    38.444117785     5.544565758    36.201184673   0   0   0 # oc13
   2021     44   3 -1.000000    40.522468783     3.803264141    43.329473402   0   0   0 # oc13
   2022     44   7 -0.690000    42.184035607     0.026056534    38.692027508   0   0   0 # oc14
   2023     44   5 -0.820000    42.803585463     3.755573459    38.353384706   0   0   0 # o*
   2024     44   4 -0.620000    39.801523096     1.380186952    38.476527505   0   0   0 # oc12
   2025     44   3 -0.930000    38.348367092     2.065617677    36.195587179   0   0   0 # oc13
   2026     44   3 -0.930000    41.057567022     1.841218990    36.189989684   0   0   0 # oc13
   2027     44   5 -0.820000    43.755437284     5.670856487    42.064461001   0   0   0 # o*
   2028     44   5 -0.820000    42.831747372     2.007084737    41.896538999   0   0   0 # o*
   2029     44   1  1.700000    40.477409594     1.932006371    41.927324699   0   0   0 # casl
   2030     44   5 -0.820000    39.655080898     5.701023485    41.980500000   0   0   0 # o*
   2031     44   8  0.420000    42.776354910     3.816952736    44.543567616   0   0   0 # hoy
   2032     44   8  0.420000     0.526130347     1.896147689    30.537392443   1   0   0 # hoy
   2033     44   6  0.410000    44.000335086     5.442845487    30.485299190   0   0   0 # h*
   2034     44   6  0.410000    43.170214022     6.399315793    29.699690205   0   0   0 # h*
   2035     44   6  0.410000    40.343660109     2.700476688    31.184921326   0   0   0 # h*
   2036     44   6  0.410000    40.709097447     1.257745366    31.373507348   0   0   0 # h*
   2037     44   6  0.410000    40.502216247     0.837576794    28.563324689   0   0   0 # h*
   2038     44   6  0.410000    40.830553249    29.391817318    27.738451405   0  -1   0 # h*
   2039     44   6  0.410000    43.039413125    29.139005514    27.574660375   0  -1   0 # h*
   2040     44   6  0.410000    43.082938954     0.738236357    28.494734712   0   0   0 # h*
   2041     44   6  0.410000    42.359184112     3.761937245    39.227697981   0   0   0 # h*
   2042     44   6  0.410000    43.716656809     3.490175791    38.615428401   0   0   0 # h*
   2043     44   6  0.410000    40.447105303     4.556714514    40.691850912   0   0   0 # h*
   2044     44   6  0.410000    40.495080483     3.654591039    39.497968959   0   0   0 # h*
   2045     44   6  0.410000    43.291849862     2.020848169    41.029448887   0   0   0 # h*
   2046     44   6  0.410000    43.662071991     1.950004223    42.428054179   0   0   0 # h*
   2047     44   6  0.410000    43.131009754     4.925050466    41.934312897   0   0   0 # h*
   2048     44   6  0.410000    43.126144969     6.380670002    42.321808815   0   0   0 # h*
   2049     44   6  0.410000    40.243746812     5.089439180    42.502919081   0   0   0 # h*
   2050     44   6  0.410000    40.254629568     6.394237403    41.590581679   0   0   0 # h*
   2051     44   6  0.410000    43.216411603     0.841310778    45.206969855   0   0   0 # h*
   2052     44   6  0.410000    43.484827493    29.075821262    45.347758008   0  -1   0 # h*
   2053     45   1  1.500000     8.699404123     7.522675147    35.968892395   0   0   0 # casl
   2054     45   1  1.500000     5.962063907     9.339628968    33.995808858   0   0   0 # casl
   2055     45   2  1.000000     8.772625221    14.610094257    32.890322411   0   0   0 # sc2
   2056     45   2  1.000000     9.589321267     9.352344811    30.900446599   0   0   0 # sc2
   2057     45   2  1.000000     8.733198347    11.480318782    32.887523664   0   0   0 # sc2
   2058     45   4 -0.620000     8.783889851     8.113258968    31.479777505   0   0   0 # oc12
   2059     45   4 -0.620000     8.828949040    13.110441655    32.302595471   0   0   0 # oc12
   2060     45   3 -0.930000    10.023015210    15.037702752    33.780309063   0   0   0 # oc13
   2061     45   3 -0.930000     7.465911415    14.835688307    33.766315327   0   0   0 # oc13
   2062     45   3 -1.000000     9.544284037    13.094378142    54.625026598   0   0   0 # oc13
   2063     45   7 -0.690000    11.205829238     9.317179084    31.275472492   0   0   0 # oc14
   2064     45   5 -0.820000     6.192991832     9.314450909    31.614115294   0   0   0 # o*
   2065     45   4 -0.620000     8.823316726    10.671309502    31.490972495   0   0   0 # oc12
   2066     45   3 -0.930000     7.370160722    11.356740227    33.771912821   0   0   0 # oc13
   2067     45   5 -0.820000     6.221153742     7.565962186    28.070961001   0   0   0 # o*
   2068     45   1  1.700000     9.499203224    11.223128920    28.040175301   0   0   0 # casl
   2069     45   5 -0.820000     8.676874529     7.567146035    27.987000000   0   0   0 # o*
   2070     45   1  1.500000     5.883210493     9.369052597    49.962392395   0   0   0 # casl
   2071     45   1  1.500000     8.778257537     7.493251517    47.989308858   0   0   0 # casl
   2072     45   2  1.000000     5.956431592     9.031471708    46.883822411   0   0   0 # sc2
   2073     45   2  1.000000     6.773127637    11.198722262    44.893946599   0   0   0 # sc2
   2074     45   2  1.000000     5.917004718    13.326696232    46.881023664   0   0   0 # sc2
   2075     45   4 -0.620000     5.967696221     9.959636418    45.473277505   0   0   0 # oc12
   2076     45   4 -0.620000     6.012755410    14.956819106    46.296095471   0   0   0 # oc12
   2077     45   3 -0.930000     7.206821580     9.459080202    47.773809063   0   0   0 # oc13
   2078     45   3 -0.930000     4.649717785     9.257065758    47.759815327   0   0   0 # oc13
   2079     45   3 -1.000000     6.728090407     7.515755593    40.631526598   0   0   0 # oc13
   2080     45   7 -0.690000     8.389635608    11.163556534    45.268972492   0   0   0 # oc14
   2081     45   5 -0.820000     9.009185462     7.468073459    45.607615294   0   0   0 # o*
   2082     45   4 -0.620000     6.007123096    12.517686952    45.484472495   0   0   0 # oc12
   2083     45   3 -0.930000     4.553967092    13.203117677    47.765412821   0   0   0 # oc13
   2084     45   5 -0.820000     7.082909039    11.136695629    40.413227952   0   0   0 # o*
   2085     45   1  1.500000     8.699404122    11.235175147    47.992107605   0   0   0 # casl
   2086     45   1  1.500000     5.962063906    13.052128968    49.965191142   0   0   0 # casl
   2087     45   2  1.000000     8.772625222    10.897594256    51.070677589   0   0   0 # sc2
   2088     45   2  1.000000     9.589321267    13.064844812    53.060553401   0   0   0 # sc2
   2089     45   2  1.000000     8.733198347     7.767818781    51.073476336   0   0   0 # sc2
   2090     45   4 -0.620000     8.783889851    11.825758967    52.481222495   0   0   0 # oc12
   2091     45   4 -0.620000     8.828949041     9.397941655    51.658404529   0   0   0 # oc12
   2092     45   3 -0.930000     7.465911415    11.123188308    50.194684673   0   0   0 # oc13
   2093     45   3 -1.000000     9.544262413     9.381886690    29.335973402   0   0   0 # oc13
   2094     45   3 -0.690000    11.205829237    13.029679084    52.685527508   0   0   0 # oc13
   2095     45   4 -0.620000     8.823316726    14.383809501    52.470027505   0   0   0 # oc12
   2096     45   3 -0.930000     7.370160721     7.644240227    50.189087179   0   0   0 # oc13
   2097     45   3 -0.930000    10.079360652     7.419841540    50.183489684   0   0   0 # oc13
   2098     45   5 -0.820000     9.899102670    13.002818179    29.554272048   0   0   0 # o*
   2099     45   1  1.500000     5.883210493    13.081552597    33.998607605   0   0   0 # casl
   2100     45   1  1.500000     8.778257536    11.205751517    35.971691142   0   0   0 # casl
   2101     45   2  1.000000     5.956431592    12.743971707    37.077177589   0   0   0 # sc2
   2102     45   2  1.000000     6.773127637     7.486222263    39.067053401   0   0   0 # sc2
   2103     45   2  1.000000     5.917004718     9.614196232    37.079976336   0   0   0 # sc2
   2104     45   3 -0.620000     5.967696221    13.672136418    38.487722495   0   0   0 # oc13
   2105     45   4 -0.620000     6.012755411    11.244319106    37.664904529   0   0   0 # oc12
   2106     45   3 -0.930000     4.649717785    12.969565758    36.201184673   0   0   0 # oc13
   2107     45   3 -1.000000     6.728068783    11.228264141    43.329473402   0   0   0 # oc13
   2108     45   7 -0.690000     8.389635607     7.451056534    38.692027508   0   0   0 # oc14
   2109     45   5 -0.820000     9.009185463    11.180573459    38.353384706   0   0   0 # o*
   2110     45   4 -0.620000     6.007123096     8.805186952    38.476527505   0   0   0 # oc12
   2111     45   3 -0.930000     4.553967092     9.490617677    36.195587179   0   0   0 # oc13
   2112     45   3 -0.930000     7.263167022     9.266218990    36.189989684   0   0   0 # oc13
   2113     45   5 -0.820000     7.082909040     7.424195629    43.547772048   0   0   0 # o*
   2114     45   5 -0.820000     9.961037284    13.095856487    42.064461001   0   0   0 # o*
   2115     45   5 -0.820000     9.037347372     9.432084737    41.896538999   0   0   0 # o*
   2116     45   1  1.700000     6.683009594     9.357006371    41.927324699   0   0   0 # casl
   2117     45   5 -0.820000     5.860680898    13.126023485    41.980500000   0   0   0 # o*
   2118     45   8  0.420000     8.981954910    11.241952736    44.543567616   0   0   0 # hoy
   2119     45   8  0.420000     8.963549620     7.058544688    39.323226581   0   0   0 # hoy
   2120     45   8  0.420000    11.790930347     9.321147689    30.537392443   0   0   0 # hoy
   2121     45   6  0.410000    10.205935086    12.867845487    30.485299190   0   0   0 # h*
   2122     45   6  0.410000     9.375814022    13.824315793    29.699690205   0   0   0 # h*
   2123     45   6  0.410000     6.549260109    10.125476688    31.184921326   0   0   0 # h*
   2124     45   6  0.410000     6.914697447     8.682745366    31.373507348   0   0   0 # h*
   2125     45   6  0.410000     6.707816247     8.262576794    28.563324689   0   0   0 # h*
   2126     45   6  0.410000     7.036153249     7.116817318    27.738451405   0   0   0 # h*
   2127     45   6  0.410000     9.245013125     6.864005514    27.574660375   0   0   0 # h*
   2128     45   6  0.410000     9.288538954     8.163236357    28.494734712   0   0   0 # h*
   2129     45   6  0.410000     8.564784112    11.186937245    39.227697981   0   0   0 # h*
   2130     45   6  0.410000     9.922256809    10.915175791    38.615428401   0   0   0 # h*
   2131     45   6  0.410000     6.652705303    11.981714514    40.691850912   0   0   0 # h*
   2132     45   6  0.410000     6.700680483    11.079591039    39.497968959   0   0   0 # h*
   2133     45   6  0.410000     9.497449862     9.445848169    41.029448887   0   0   0 # h*
   2134     45   6  0.410000     9.867671991     9.375004223    42.428054179   0   0   0 # h*
   2135     45   6  0.410000     9.336609754    12.350050466    41.934312897   0   0   0 # h*
   2136     45   6  0.410000     9.331744969    13.805670002    42.321808815   0   0   0 # h*
   2137     45   6  0.410000     6.458538157     6.671129347    43.636539152   0   0   0 # h*
   2138     45   6  0.410000     7.352432975     7.501384613    44.494602957   0   0   0 # h*
   2139     45   6  0.410000     6.449346812    12.514439180    42.502919081   0   0   0 # h*
   2140     45   6  0.410000     6.460229568    13.819237403    41.590581679   0   0   0 # h*
   2141     45   6  0.410000     9.422011603     8.266310778    45.206969855   0   0   0 # h*
   2142     45   6  0.410000     9.690427493     6.800821262    45.347758008   0   0   0 # h*
   2143     46   1  1.500000    19.964204123     7.522675147    35.968892395   0   0   0 # casl
   2144     46   1  1.500000    17.226863907     9.339628968    33.995808858   0   0   0 # casl
   2145     46   2  1.000000    20.037425221    14.610094257    32.890322411   0   0   0 # sc2
   2146     46   2  1.000000    19.997998347    11.480318782    32.887523664   0   0   0 # sc2
   2147     46   3 -0.620000    20.048689851     8.113258968    31.479777505   0   0   0 # oc13
   2148     46   4 -0.620000    20.093749040    13.110441655    32.302595471   0   0   0 # oc12
   2149     46   3 -0.930000    21.287815210    15.037702752    33.780309063   0   0   0 # oc13
   2150     46   3 -0.930000    18.730711415    14.835688307    33.766315327   0   0   0 # oc13
   2151     46   5 -0.820000    17.457791832     9.314450909    31.614115294   0   0   0 # o*
   2152     46   3 -0.620000    20.088116726    10.671309502    31.490972495   0   0   0 # oc13
   2153     46   3 -0.930000    18.634960722    11.356740227    33.771912821   0   0   0 # oc13
   2154     46   5 -0.820000    17.485953742     7.565962186    28.070961001   0   0   0 # o*
   2155     46   1  1.700000    20.764003224    11.223128920    28.040175301   0   0   0 # casl
   2156     46   5 -0.820000    19.941674529     7.567146035    27.987000000   0   0   0 # o*
   2157     46   1  1.500000    17.148010493     9.369052597    49.962392395   0   0   0 # casl
   2158     46   1  1.500000    20.043057537     7.493251517    47.989308858   0   0   0 # casl
   2159     46   2  1.000000    17.221231592     9.031471708    46.883822411   0   0   0 # sc2
   2160     46   2  1.000000    17.181804718    13.326696232    46.881023664   0   0   0 # sc2
   2161     46   3 -0.620000    17.232496221     9.959636418    45.473277505   0   0   0 # oc13
   2162     46   4 -0.620000    17.277555410    14.956819106    46.296095471   0   0   0 # oc12
   2163     46   3 -0.930000    18.471621580     9.459080202    47.773809063   0   0   0 # oc13
   2164     46   3 -0.930000    15.914517785     9.257065758    47.759815327   0   0   0 # oc13
   2165     46   5 -0.820000    20.273985462     7.468073459    45.607615294   0   0   0 # o*
   2166     46   3 -0.620000    17.271923096    12.517686952    45.484472495   0   0   0 # oc13
   2167     46   3 -0.930000    15.818767092    13.203117677    47.765412821   0   0   0 # oc13
   2168     46   5 -0.820000    18.347709039    11.136695629    40.413227952   0   0   0 # o*
   2169     46   1  1.500000    19.964204122    11.235175147    47.992107605   0   0   0 # casl
   2170     46   1  1.500000    17.226863906    13.052128968    49.965191142   0   0   0 # casl
   2171     46   2  1.000000    20.037425222    10.897594256    51.070677589   0   0   0 # sc2
   2172     46   2  1.000000    19.997998347     7.767818781    51.073476336   0   0   0 # sc2
   2173     46   3 -0.620000    20.048689851    11.825758967    52.481222495   0   0   0 # oc13
   2174     46   4 -0.620000    20.093749041     9.397941655    51.658404529   0   0   0 # oc12
   2175     46   3 -0.930000    18.730711415    11.123188308    50.194684673   0   0   0 # oc13
   2176     46   3 -0.620000    20.088116726    14.383809501    52.470027505   0   0   0 # oc13
   2177     46   3 -0.930000    18.634960721     7.644240227    50.189087179   0   0   0 # oc13
   2178     46   3 -0.930000    21.344160652     7.419841540    50.183489684   0   0   0 # oc13
   2179     46   5 -0.820000    21.163902670    13.002818179    29.554272048   0   0   0 # o*
   2180     46   1  1.500000    17.148010493    13.081552597    33.998607605   0   0   0 # casl
   2181     46   1  1.500000    20.043057536    11.205751517    35.971691142   0   0   0 # casl
   2182     46   2  1.000000    17.221231592    12.743971707    37.077177589   0   0   0 # sc2
   2183     46   2  1.000000    17.181804718     9.614196232    37.079976336   0   0   0 # sc2
   2184     46   3 -0.620000    17.232496221    13.672136418    38.487722495   0   0   0 # oc13
   2185     46   4 -0.620000    17.277555411    11.244319106    37.664904529   0   0   0 # oc12
   2186     46   3 -0.930000    15.914517785    12.969565758    36.201184673   0   0   0 # oc13
   2187     46   5 -0.820000    20.273985463    11.180573459    38.353384706   0   0   0 # o*
   2188     46   3 -0.620000    17.271923096     8.805186952    38.476527505   0   0   0 # oc13
   2189     46   3 -0.930000    15.818767092     9.490617677    36.195587179   0   0   0 # oc13
   2190     46   3 -0.930000    18.527967022     9.266218990    36.189989684   0   0   0 # oc13
   2191     46   5 -0.820000    18.347709040     7.424195629    43.547772048   0   0   0 # o*
   2192     46   5 -0.820000    21.225837284    13.095856487    42.064461001   0   0   0 # o*
   2193     46   5 -0.820000    20.302147372     9.432084737    41.896538999   0   0   0 # o*
   2194     46   1  1.700000    17.947809594     9.357006371    41.927324699   0   0   0 # casl
   2195     46   5 -0.820000    17.125480898    13.126023485    41.980500000   0   0   0 # o*
   2196     46   6  0.410000    21.470735086    12.867845487    30.485299190   0   0   0 # h*
   2197     46   6  0.410000    20.640614022    13.824315793    29.699690205   0   0   0 # h*
   2198     46   6  0.410000    17.814060109    10.125476688    31.184921326   0   0   0 # h*
   2199     46   6  0.410000    18.179497447     8.682745366    31.373507348   0   0   0 # h*
   2200     46   6  0.410000    17.972616247     8.262576794    28.563324689   0   0   0 # h*
   2201     46   6  0.410000    18.300953249     7.116817318    27.738451405   0   0   0 # h*
   2202     46   6  0.410000    20.509813125     6.864005514    27.574660375   0   0   0 # h*
   2203     46   6  0.410000    20.553338954     8.163236357    28.494734712   0   0   0 # h*
   2204     46   6  0.410000    19.829584112    11.186937245    39.227697981   0   0   0 # h*
   2205     46   6  0.410000    21.187056809    10.915175791    38.615428401   0   0   0 # h*
   2206     46   6  0.410000    17.917505303    11.981714514    40.691850912   0   0   0 # h*
   2207     46   6  0.410000    17.965480483    11.079591039    39.497968959   0   0   0 # h*
   2208     46   6  0.410000    20.762249862     9.445848169    41.029448887   0   0   0 # h*
   2209     46   6  0.410000    21.132471991     9.375004223    42.428054179   0   0   0 # h*
   2210     46   6  0.410000    20.601409754    12.350050466    41.934312897   0   0   0 # h*
   2211     46   6  0.410000    20.596544969    13.805670002    42.321808815   0   0   0 # h*
   2212     46   6  0.410000    17.723338157     6.671129347    43.636539152   0   0   0 # h*
   2213     46   6  0.410000    18.617232975     7.501384613    44.494602957   0   0   0 # h*
   2214     46   6  0.410000    17.714146812    12.514439180    42.502919081   0   0   0 # h*
   2215     46   6  0.410000    17.725029568    13.819237403    41.590581679   0   0   0 # h*
   2216     46   6  0.410000    20.686811603     8.266310778    45.206969855   0   0   0 # h*
   2217     46   6  0.410000    20.955227493     6.800821262    45.347758008   0   0   0 # h*
   2218     47   1  1.500000    31.229004123     7.522675147    35.968892395   0   0   0 # casl
   2219     47   1  1.500000    28.491663907     9.339628968    33.995808858   0   0   0 # casl
   2220     47   2  1.000000    31.302225221    14.610094257    32.890322411   0   0   0 # sc2
   2221     47   2  1.000000    31.262798347    11.480318782    32.887523664   0   0   0 # sc2
   2222     47   3 -0.620000    31.313489851     8.113258968    31.479777505   0   0   0 # oc13
   2223     47   4 -0.620000    31.358549040    13.110441655    32.302595471   0   0   0 # oc12
   2224     47   3 -0.930000    32.552615210    15.037702752    33.780309063   0   0   0 # oc13
   2225     47   3 -0.930000    29.995511415    14.835688307    33.766315327   0   0   0 # oc13
   2226     47   5 -0.820000    28.722591832     9.314450909    31.614115294   0   0   0 # o*
   2227     47   3 -0.620000    31.352916726    10.671309502    31.490972495   0   0   0 # oc13
   2228     47   3 -0.930000    29.899760722    11.356740227    33.771912821   0   0   0 # oc13
   2229     47   5 -0.820000    28.750753742     7.565962186    28.070961001   0   0   0 # o*
   2230     47   1  1.700000    32.028803224    11.223128920    28.040175301   0   0   0 # casl
   2231     47   5 -0.820000    31.206474529     7.567146035    27.987000000   0   0   0 # o*
   2232     47   1  1.500000    28.412810493     9.369052597    49.962392395   0   0   0 # casl
   2233     47   1  1.500000    31.307857537     7.493251517    47.989308858   0   0   0 # casl
   2234     47   2  1.000000    28.486031592     9.031471708    46.883822411   0   0   0 # sc2
   2235     47   2  1.000000    28.446604718    13.326696232    46.881023664   0   0   0 # sc2
   2236     47   3 -0.620000    28.497296221     9.959636418    45.473277505   0   0   0 # oc13
   2237     47   4 -0.620000    28.542355410    14.956819106    46.296095471   0   0   0 # oc12
   2238     47   3 -0.930000    29.736421580     9.459080202    47.773809063   0   0   0 # oc13
   2239     47   3 -0.930000    27.179317785     9.257065758    47.759815327   0   0   0 # oc13
   2240     47   5 -0.820000    31.538785462     7.468073459    45.607615294   0   0   0 # o*
   2241     47   3 -0.620000    28.536723096    12.517686952    45.484472495   0   0   0 # oc13
   2242     47   3 -0.930000    27.083567092    13.203117677    47.765412821   0   0   0 # oc13
   2243     47   5 -0.820000    29.612509039    11.136695629    40.413227952   0   0   0 # o*
   2244     47   1  1.500000    31.229004122    11.235175147    47.992107605   0   0   0 # casl
   2245     47   1  1.500000    28.491663906    13.052128968    49.965191142   0   0   0 # casl
   2246     47   2  1.000000    31.302225222    10.897594256    51.070677589   0   0   0 # sc2
   2247     47   2  1.000000    31.262798347     7.767818781    51.073476336   0   0   0 # sc2
   2248     47   3 -0.620000    31.313489851    11.825758967    52.481222495   0   0   0 # oc13
   2249     47   4 -0.620000    31.358549041     9.397941655    51.658404529   0   0   0 # oc12
   2250     47   3 -0.930000    29.995511415    11.123188308    50.194684673   0   0   0 # oc13
   2251     47   3 -0.620000    31.352916726    14.383809501    52.470027505   0   0   0 # oc13
   2252     47   3 -0.930000    29.899760721     7.644240227    50.189087179   0   0   0 # oc13
   2253     47   3 -0.930000    32.608960652     7.419841540    50.183489684   0   0   0 # oc13
   2254     47   5 -0.820000    32.428702670    13.002818179    29.554272048   0   0   0 # o*
   2255     47   1  1.500000    28.412810493    13.081552597    33.998607605   0   0   0 # casl
   2256     47   1  1.500000    31.307857536    11.205751517    35.971691142   0   0   0 # casl
   2257     47   2  1.000000    28.486031592    12.743971707    37.077177589   0   0   0 # sc2
   2258     47   2  1.000000    28.446604718     9.614196232    37.079976336   0   0   0 # sc2
   2259     47   3 -0.620000    28.497296221    13.672136418    38.487722495   0   0   0 # oc13
   2260     47   4 -0.620000    28.542355411    11.244319106    37.664904529   0   0   0 # oc12
   2261     47   3 -0.930000    27.179317785    12.969565758    36.201184673   0   0   0 # oc13
   2262     47   5 -0.820000    31.538785463    11.180573459    38.353384706   0   0   0 # o*
   2263     47   3 -0.620000    28.536723096     8.805186952    38.476527505   0   0   0 # oc13
   2264     47   3 -0.930000    27.083567092     9.490617677    36.195587179   0   0   0 # oc13
   2265     47   3 -0.930000    29.792767022     9.266218990    36.189989684   0   0   0 # oc13
   2266     47   5 -0.820000    29.612509040     7.424195629    43.547772048   0   0   0 # o*
   2267     47   5 -0.820000    32.490637284    13.095856487    42.064461001   0   0   0 # o*
   2268     47   5 -0.820000    31.566947372     9.432084737    41.896538999   0   0   0 # o*
   2269     47   1  1.700000    29.212609594     9.357006371    41.927324699   0   0   0 # casl
   2270     47   5 -0.820000    28.390280898    13.126023485    41.980500000   0   0   0 # o*
   2271     47   6  0.410000    32.735535086    12.867845487    30.485299190   0   0   0 # h*
   2272     47   6  0.410000    31.905414022    13.824315793    29.699690205   0   0   0 # h*
   2273     47   6  0.410000    29.078860109    10.125476688    31.184921326   0   0   0 # h*
   2274     47   6  0.410000    29.444297447     8.682745366    31.373507348   0   0   0 # h*
   2275     47   6  0.410000    29.237416247     8.262576794    28.563324689   0   0   0 # h*
   2276     47   6  0.410000    29.565753249     7.116817318    27.738451405   0   0   0 # h*
   2277     47   6  0.410000    31.774613125     6.864005514    27.574660375   0   0   0 # h*
   2278     47   6  0.410000    31.818138954     8.163236357    28.494734712   0   0   0 # h*
   2279     47   6  0.410000    31.094384112    11.186937245    39.227697981   0   0   0 # h*
   2280     47   6  0.410000    32.451856809    10.915175791    38.615428401   0   0   0 # h*
   2281     47   6  0.410000    29.182305303    11.981714514    40.691850912   0   0   0 # h*
   2282     47   6  0.410000    29.230280483    11.079591039    39.497968959   0   0   0 # h*
   2283     47   6  0.410000    32.027049862     9.445848169    41.029448887   0   0   0 # h*
   2284     47   6  0.410000    32.397271991     9.375004223    42.428054179   0   0   0 # h*
   2285     47   6  0.410000    31.866209754    12.350050466    41.934312897   0   0   0 # h*
   2286     47   6  0.410000    31.861344969    13.805670002    42.321808815   0   0   0 # h*
   2287     47   6  0.410000    28.988138157     6.671129347    43.636539152   0   0   0 # h*
   2288     47   6  0.410000    29.882032975     7.501384613    44.494602957   0   0   0 # h*
   2289     47   6  0.410000    28.978946812    12.514439180    42.502919081   0   0   0 # h*
   2290     47   6  0.410000    28.989829568    13.819237403    41.590581679   0   0   0 # h*
   2291     47   6  0.410000    31.951611603     8.266310778    45.206969855   0   0   0 # h*
   2292     47   6  0.410000    32.220027493     6.800821262    45.347758008   0   0   0 # h*
   2293     48   1  1.500000    42.493804123     7.522675147    35.968892395   0   0   0 # casl
   2294     48   1  1.500000    39.756463907     9.339628968    33.995808858   0   0   0 # casl
   2295     48   2  1.000000    42.567025221    14.610094257    32.890322411   0   0   0 # sc2
   2296     48   2  1.000000    42.527598347    11.480318782    32.887523664   0   0   0 # sc2
   2297     48   3 -0.620000    42.578289851     8.113258968    31.479777505   0   0   0 # oc13
   2298     48   4 -0.620000    42.623349040    13.110441655    32.302595471   0   0   0 # oc12
   2299     48   3 -0.930000    43.817415210    15.037702752    33.780309063   0   0   0 # oc13
   2300     48   3 -0.930000    41.260311415    14.835688307    33.766315327   0   0   0 # oc13
   2301     48   5 -0.820000    39.987391832     9.314450909    31.614115294   0   0   0 # o*
   2302     48   3 -0.620000    42.617716726    10.671309502    31.490972495   0   0   0 # oc13
   2303     48   3 -0.930000    41.164560722    11.356740227    33.771912821   0   0   0 # oc13
   2304     48   5 -0.820000    40.015553742     7.565962186    28.070961001   0   0   0 # o*
   2305     48   1  1.700000    43.293603224    11.223128920    28.040175301   0   0   0 # casl
   2306     48   5 -0.820000    42.471274529     7.567146035    27.987000000   0   0   0 # o*
   2307     48   1  1.500000    39.677610493     9.369052597    49.962392395   0   0   0 # casl
   2308     48   1  1.500000    42.572657537     7.493251517    47.989308858   0   0   0 # casl
   2309     48   2  1.000000    39.750831592     9.031471708    46.883822411   0   0   0 # sc2
   2310     48   2  1.000000    39.711404718    13.326696232    46.881023664   0   0   0 # sc2
   2311     48   3 -0.620000    39.762096221     9.959636418    45.473277505   0   0   0 # oc13
   2312     48   4 -0.620000    39.807155410    14.956819106    46.296095471   0   0   0 # oc12
   2313     48   3 -0.930000    41.001221580     9.459080202    47.773809063   0   0   0 # oc13
   2314     48   3 -0.930000    38.444117785     9.257065758    47.759815327   0   0   0 # oc13
   2315     48   5 -0.820000    42.803585462     7.468073459    45.607615294   0   0   0 # o*
   2316     48   3 -0.620000    39.801523096    12.517686952    45.484472495   0   0   0 # oc13
   2317     48   3 -0.930000    38.348367092    13.203117677    47.765412821   0   0   0 # oc13
   2318     48   5 -0.820000    40.877309039    11.136695629    40.413227952   0   0   0 # o*
   2319     48   1  1.500000    42.493804122    11.235175147    47.992107605   0   0   0 # casl
   2320     48   1  1.500000    39.756463906    13.052128968    49.965191142   0   0   0 # casl
   2321     48   2  1.000000    42.567025222    10.897594256    51.070677589   0   0   0 # sc2
   2322     48   2  1.000000    42.527598347     7.767818781    51.073476336   0   0   0 # sc2
   2323     48   3 -0.620000    42.578289851    11.825758967    52.481222495   0   0   0 # oc13
   2324     48   4 -0.620000    42.623349041     9.397941655    51.658404529   0   0   0 # oc12
   2325     48   3 -0.930000    41.260311415    11.123188308    50.194684673   0   0   0 # oc13
   2326     48   3 -0.620000    42.617716726    14.383809501    52.470027505   0   0   0 # oc13
   2327     48   3 -0.930000    41.164560721     7.644240227    50.189087179   0   0   0 # oc13
   2328     48   3 -0.930000    43.873760652     7.419841540    50.183489684   0   0   0 # oc13
   2329     48   5 -0.820000    43.693502670    13.002818179    29.554272048   0   0   0 # o*
   2330     48   1  1.500000    39.677610493    13.081552597    33.998607605   0   0   0 # casl
   2331     48   1  1.500000    42.572657536    11.205751517    35.971691142   0   0   0 # casl
   2332     48   2  1.000000    39.750831592    12.743971707    37.077177589   0   0   0 # sc2
   2333     48   2  1.000000    39.711404718     9.614196232    37.079976336   0   0   0 # sc2
   2334     48   3 -0.620000    39.762096221    13.672136418    38.487722495   0   0   0 # oc13
   2335     48   4 -0.620000    39.807155411    11.244319106    37.664904529   0   0   0 # oc12
   2336     48   3 -0.930000    38.444117785    12.969565758    36.201184673   0   0   0 # oc13
   2337     48   5 -0.820000    42.803585463    11.180573459    38.353384706   0   0   0 # o*
   2338     48   3 -0.620000    39.801523096     8.805186952    38.476527505   0   0   0 # oc13
   2339     48   3 -0.930000    38.348367092     9.490617677    36.195587179   0   0   0 # oc13
   2340     48   3 -0.930000    41.057567022     9.266218990    36.189989684   0   0   0 # oc13
   2341     48   5 -0.820000    40.877309040     7.424195629    43.547772048   0   0   0 # o*
   2342     48   5 -0.820000    43.755437284    13.095856487    42.064461001   0   0   0 # o*
   2343     48   5 -0.820000    42.831747372     9.432084737    41.896538999   0   0   0 # o*
   2344     48   1  1.700000    40.477409594     9.357006371    41.927324699   0   0   0 # casl
   2345     48   5 -0.820000    39.655080898    13.126023485    41.980500000   0   0   0 # o*
   2346     48   6  0.410000    44.000335086    12.867845487    30.485299190   0   0   0 # h*
   2347     48   6  0.410000    43.170214022    13.824315793    29.699690205   0   0   0 # h*
   2348     48   6  0.410000    40.343660109    10.125476688    31.184921326   0   0   0 # h*
   2349     48   6  0.410000    40.709097447     8.682745366    31.373507348   0   0   0 # h*
   2350     48   6  0.410000    40.502216247     8.262576794    28.563324689   0   0   0 # h*
   2351     48   6  0.410000    40.830553249     7.116817318    27.738451405   0   0   0 # h*
   2352     48   6  0.410000    43.039413125     6.864005514    27.574660375   0   0   0 # h*
   2353     48   6  0.410000    43.082938954     8.163236357    28.494734712   0   0   0 # h*
   2354     48   6  0.410000    42.359184112    11.186937245    39.227697981   0   0   0 # h*
   2355     48   6  0.410000    43.716656809    10.915175791    38.615428401   0   0   0 # h*
   2356     48   6  0.410000    40.447105303    11.981714514    40.691850912   0   0   0 # h*
   2357     48   6  0.410000    40.495080483    11.079591039    39.497968959   0   0   0 # h*
   2358     48   6  0.410000    43.291849862     9.445848169    41.029448887   0   0   0 # h*
   2359     48   6  0.410000    43.662071991     9.375004223    42.428054179   0   0   0 # h*
   2360     48   6  0.410000    43.131009754    12.350050466    41.934312897   0   0   0 # h*
   2361     48   6  0.410000    43.126144969    13.805670002    42.321808815   0   0   0 # h*
   2362     48   6  0.410000    40.252938157     6.671129347    43.636539152   0   0   0 # h*
   2363     48   6  0.410000    41.146832975     7.501384613    44.494602957   0   0   0 # h*
   2364     48   6  0.410000    40.243746812    12.514439180    42.502919081   0   0   0 # h*
   2365     48   6  0.410000    40.254629568    13.819237403    41.590581679   0   0   0 # h*
   2366     48   6  0.410000    43.216411603     8.266310778    45.206969855   0   0   0 # h*
   2367     48   6  0.410000    43.484827493     6.800821262    45.347758008   0   0   0 # h*
   2368     49   1  1.500000     8.699404123    14.947675147    35.968892395   0   0   0 # casl
   2369     49   1  1.500000     5.962063907    16.764628968    33.995808858   0   0   0 # casl
   2370     49   2  1.000000     8.772625221    22.035094257    32.890322411   0   0   0 # sc2
   2371     49   2  1.000000     8.733198347    18.905318782    32.887523664   0   0   0 # sc2
   2372     49   3 -0.620000     8.783889851    15.538258968    31.479777505   0   0   0 # oc13
   2373     49   4 -0.620000     8.828949040    20.535441655    32.302595471   0   0   0 # oc12
   2374     49   3 -0.930000    10.023015210    22.462702752    33.780309063   0   0   0 # oc13
   2375     49   3 -0.930000     7.465911415    22.260688307    33.766315327   0   0   0 # oc13
   2376     49   5 -0.820000     6.192991832    16.739450909    31.614115294   0   0   0 # o*
   2377     49   3 -0.620000     8.823316726    18.096309502    31.490972495   0   0   0 # oc13
   2378     49   3 -0.930000     7.370160722    18.781740227    33.771912821   0   0   0 # oc13
   2379     49   5 -0.820000     6.221153742    14.990962186    28.070961001   0   0   0 # o*
   2380     49   1  1.700000     9.499203224    18.648128920    28.040175301   0   0   0 # casl
   2381     49   5 -0.820000     8.676874529    14.992146035    27.987000000   0   0   0 # o*
   2382     49   1  1.500000     5.883210493    16.794052597    49.962392395   0   0   0 # casl
   2383     49   1  1.500000     8.778257537    14.918251517    47.989308858   0   0   0 # casl
   2384     49   2  1.000000     5.956431592    16.456471708    46.883822411   0   0   0 # sc2
   2385     49   2  1.000000     5.917004718    20.751696232    46.881023664   0   0   0 # sc2
   2386     49   3 -0.620000     5.967696221    17.384636418    45.473277505   0   0   0 # oc13
   2387     49   4 -0.620000     6.012755410    22.381819106    46.296095471   0   0   0 # oc12
   2388     49   3 -0.930000     7.206821580    16.884080202    47.773809063   0   0   0 # oc13
   2389     49   3 -0.930000     4.649717785    16.682065758    47.759815327   0   0   0 # oc13
   2390     49   5 -0.820000     9.009185462    14.893073459    45.607615294   0   0   0 # o*
   2391     49   3 -0.620000     6.007123096    19.942686952    45.484472495   0   0   0 # oc13
   2392     49   3 -0.930000     4.553967092    20.628117677    47.765412821   0   0   0 # oc13
   2393     49   5 -0.820000     7.082909039    18.561695629    40.413227952   0   0   0 # o*
   2394     49   1  1.500000     8.699404122    18.660175147    47.992107605   0   0   0 # casl
   2395     49   1  1.500000     5.962063906    20.477128968    49.965191142   0   0   0 # casl
   2396     49   2  1.000000     8.772625222    18.322594256    51.070677589   0   0   0 # sc2
   2397     49   2  1.000000     8.733198347    15.192818781    51.073476336   0   0   0 # sc2
   2398     49   3 -0.620000     8.783889851    19.250758967    52.481222495   0   0   0 # oc13
   2399     49   4 -0.620000     8.828949041    16.822941655    51.658404529   0   0   0 # oc12
   2400     49   3 -0.930000     7.465911415    18.548188308    50.194684673   0   0   0 # oc13
   2401     49   3 -0.620000     8.823316726    21.808809501    52.470027505   0   0   0 # oc13
   2402     49   3 -0.930000     7.370160721    15.069240227    50.189087179   0   0   0 # oc13
   2403     49   3 -0.930000    10.079360652    14.844841540    50.183489684   0   0   0 # oc13
   2404     49   5 -0.820000     9.899102670    20.427818179    29.554272048   0   0   0 # o*
   2405     49   1  1.500000     5.883210493    20.506552597    33.998607605   0   0   0 # casl
   2406     49   1  1.500000     8.778257536    18.630751517    35.971691142   0   0   0 # casl
   2407     49   2  1.000000     5.956431592    20.168971707    37.077177589   0   0   0 # sc2
   2408     49   2  1.000000     5.917004718    17.039196232    37.079976336   0   0   0 # sc2
   2409     49   4 -0.620000     5.967696221    21.097136418    38.487722495   0   0   0 # oc12
   2410     49   4 -0.620000     6.012755411    18.669319106    37.664904529   0   0   0 # oc12
   2411     49   3 -0.930000     4.649717785    20.394565758    36.201184673   0   0   0 # oc13
   2412     49   5 -0.820000     9.009185463    18.605573459    38.353384706   0   0   0 # o*
   2413     49   3 -0.620000     6.007123096    16.230186952    38.476527505   0   0   0 # oc13
   2414     49   3 -0.930000     4.553967092    16.915617677    36.195587179   0   0   0 # oc13
   2415     49   3 -0.930000     7.263167022    16.691218990    36.189989684   0   0   0 # oc13
   2416     49   5 -0.820000     7.082909040    14.849195629    43.547772048   0   0   0 # o*
   2417     49   5 -0.820000     9.961037284    20.520856487    42.064461001   0   0   0 # o*
   2418     49   5 -0.820000     9.037347372    16.857084737    41.896538999   0   0   0 # o*
   2419     49   1  1.700000     6.683009594    16.782006371    41.927324699   0   0   0 # casl
   2420     49   5 -0.820000     5.860680898    20.551023485    41.980500000   0   0   0 # o*
   2421     49   6  0.410000    10.205935086    20.292845487    30.485299190   0   0   0 # h*
   2422     49   6  0.410000     9.375814022    21.249315793    29.699690205   0   0   0 # h*
   2423     49   6  0.410000     6.549260109    17.550476688    31.184921326   0   0   0 # h*
   2424     49   6  0.410000     6.914697447    16.107745366    31.373507348   0   0   0 # h*
   2425     49   6  0.410000     6.707816247    15.687576794    28.563324689   0   0   0 # h*
   2426     49   6  0.410000     7.036153249    14.541817318    27.738451405   0   0   0 # h*
   2427     49   6  0.410000     9.245013125    14.289005514    27.574660375   0   0   0 # h*
   2428     49   6  0.410000     9.288538954    15.588236357    28.494734712   0   0   0 # h*
   2429     49   6  0.410000     8.564784112    18.611937245    39.227697981   0   0   0 # h*
   2430     49   6  0.410000     9.922256809    18.340175791    38.615428401   0   0   0 # h*
   2431     49   6  0.410000     6.652705303    19.406714514    40.691850912   0   0   0 # h*
   2432     49   6  0.410000     6.700680483    18.504591039    39.497968959   0   0   0 # h*
   2433     49   6  0.410000     9.497449862    16.870848169    41.029448887   0   0   0 # h*
   2434     49   6  0.410000     9.867671991    16.800004223    42.428054179   0   0   0 # h*
   2435     49   6  0.410000     9.336609754    19.775050466    41.934312897   0   0   0 # h*
   2436     49   6  0.410000     9.331744969    21.230670002    42.321808815   0   0   0 # h*
   2437     49   6  0.410000     6.458538157    14.096129347    43.636539152   0   0   0 # h*
   2438     49   6  0.410000     7.352432975    14.926384613    44.494602957   0   0   0 # h*
   2439     49   6  0.410000     6.449346812    19.939439180    42.502919081   0   0   0 # h*
   2440     49   6  0.410000     6.460229568    21.244237403    41.590581679   0   0   0 # h*
   2441     49   6  0.410000     9.422011603    15.691310778    45.206969855   0   0   0 # h*
   2442     49   6  0.410000     9.690427493    14.225821262    45.347758008   0   0   0 # h*
   2443     50   1  1.500000    19.964204123    14.947675147    35.968892395   0   0   0 # casl
   2444     50   1  1.500000    17.226863907    16.764628968    33.995808858   0   0   0 # casl
   2445     50   2  1.000000    20.037425221    22.035094257    32.890322411   0   0   0 # sc2
   2446     50   2  1.000000    19.997998347    18.905318782    32.887523664   0   0   0 # sc2
   2447     50   3 -0.620000    20.048689851    15.538258968    31.479777505   0   0   0 # oc13
   2448     50   4 -0.620000    20.093749040    20.535441655    32.302595471   0   0   0 # oc12
   2449     50   3 -0.930000    21.287815210    22.462702752    33.780309063   0   0   0 # oc13
   2450     50   3 -0.930000    18.730711415    22.260688307    33.766315327   0   0   0 # oc13
   2451     50   5 -0.820000    17.457791832    16.739450909    31.614115294   0   0   0 # o*
   2452     50   3 -0.620000    20.088116726    18.096309502    31.490972495   0   0   0 # oc13
   2453     50   3 -0.930000    18.634960722    18.781740227    33.771912821   0   0   0 # oc13
   2454     50   5 -0.820000    17.485953742    14.990962186    28.070961001   0   0   0 # o*
   2455     50   1  1.700000    20.764003224    18.648128920    28.040175301   0   0   0 # casl
   2456     50   5 -0.820000    19.941674529    14.992146035    27.987000000   0   0   0 # o*
   2457     50   1  1.500000    17.148010493    16.794052597    49.962392395   0   0   0 # casl
   2458     50   1  1.500000    20.043057537    14.918251517    47.989308858   0   0   0 # casl
   2459     50   2  1.000000    17.221231592    16.456471708    46.883822411   0   0   0 # sc2
   2460     50   2  1.000000    17.181804718    20.751696232    46.881023664   0   0   0 # sc2
   2461     50   3 -0.620000    17.232496221    17.384636418    45.473277505   0   0   0 # oc13
   2462     50   4 -0.620000    17.277555410    22.381819106    46.296095471   0   0   0 # oc12
   2463     50   3 -0.930000    18.471621580    16.884080202    47.773809063   0   0   0 # oc13
   2464     50   3 -0.930000    15.914517785    16.682065758    47.759815327   0   0   0 # oc13
   2465     50   5 -0.820000    20.273985462    14.893073459    45.607615294   0   0   0 # o*
   2466     50   3 -0.620000    17.271923096    19.942686952    45.484472495   0   0   0 # oc13
   2467     50   3 -0.930000    15.818767092    20.628117677    47.765412821   0   0   0 # oc13
   2468     50   5 -0.820000    18.347709039    18.561695629    40.413227952   0   0   0 # o*
   2469     50   1  1.500000    19.964204122    18.660175147    47.992107605   0   0   0 # casl
   2470     50   1  1.500000    17.226863906    20.477128968    49.965191142   0   0   0 # casl
   2471     50   2  1.000000    20.037425222    18.322594256    51.070677589   0   0   0 # sc2
   2472     50   2  1.000000    19.997998347    15.192818781    51.073476336   0   0   0 # sc2
   2473     50   3 -0.620000    20.048689851    19.250758967    52.481222495   0   0   0 # oc13
   2474     50   4 -0.620000    20.093749041    16.822941655    51.658404529   0   0   0 # oc12
   2475     50   3 -0.930000    18.730711415    18.548188308    50.194684673   0   0   0 # oc13
   2476     50   3 -0.620000    20.088116726    21.808809501    52.470027505   0   0   0 # oc13
   2477     50   3 -0.930000    18.634960721    15.069240227    50.189087179   0   0   0 # oc13
   2478     50   3 -0.930000    21.344160652    14.844841540    50.183489684   0   0   0 # oc13
   2479     50   5 -0.820000    21.163902670    20.427818179    29.554272048   0   0   0 # o*
   2480     50   1  1.500000    17.148010493    20.506552597    33.998607605   0   0   0 # casl
   2481     50   1  1.500000    20.043057536    18.630751517    35.971691142   0   0   0 # casl
   2482     50   2  1.000000    17.221231592    20.168971707    37.077177589   0   0   0 # sc2
   2483     50   2  1.000000    17.181804718    17.039196232    37.079976336   0   0   0 # sc2
   2484     50   3 -0.620000    17.232496221    21.097136418    38.487722495   0   0   0 # oc13
   2485     50   4 -0.620000    17.277555411    18.669319106    37.664904529   0   0   0 # oc12
   2486     50   3 -0.930000    15.914517785    20.394565758    36.201184673   0   0   0 # oc13
   2487     50   5 -0.820000    20.273985463    18.605573459    38.353384706   0   0   0 # o*
   2488     50   3 -0.620000    17.271923096    16.230186952    38.476527505   0   0   0 # oc13
   2489     50   3 -0.930000    15.818767092    16.915617677    36.195587179   0   0   0 # oc13
   2490     50   3 -0.930000    18.527967022    16.691218990    36.189989684   0   0   0 # oc13
   2491     50   5 -0.820000    18.347709040    14.849195629    43.547772048   0   0   0 # o*
   2492     50   5 -0.820000    21.225837284    20.520856487    42.064461001   0   0   0 # o*
   2493     50   5 -0.820000    20.302147372    16.857084737    41.896538999   0   0   0 # o*
   2494     50   1  1.700000    17.947809594    16.782006371    41.927324699   0   0   0 # casl
   2495     50   5 -0.820000    17.125480898    20.551023485    41.980500000   0   0   0 # o*
   2496     50   6  0.410000    21.470735086    20.292845487    30.485299190   0   0   0 # h*
   2497     50   6  0.410000    20.640614022    21.249315793    29.699690205   0   0   0 # h*
   2498     50   6  0.410000    17.814060109    17.550476688    31.184921326   0   0   0 # h*
   2499     50   6  0.410000    18.179497447    16.107745366    31.373507348   0   0   0 # h*
   2500     50   6  0.410000    17.972616247    15.687576794    28.563324689   0   0   0 # h*
   2501     50   6  0.410000    18.300953249    14.541817318    27.738451405   0   0   0 # h*
   2502     50   6  0.410000    20.509813125    14.289005514    27.574660375   0   0   0 # h*
   2503     50   6  0.410000    20.553338954    15.588236357    28.494734712   0   0   0 # h*
   2504     50   6  0.410000    19.829584112    18.611937245    39.227697981   0   0   0 # h*
   2505     50   6  0.410000    21.187056809    18.340175791    38.615428401   0   0   0 # h*
   2506     50   6  0.410000    17.917505303    19.406714514    40.691850912   0   0   0 # h*
   2507     50   6  0.410000    17.965480483    18.504591039    39.497968959   0   0   0 # h*
   2508     50   6  0.410000    20.762249862    16.870848169    41.029448887   0   0   0 # h*
   2509     50   6  0.410000    21.132471991    16.800004223    42.428054179   0   0   0 # h*
   2510     50   6  0.410000    20.601409754    19.775050466    41.934312897   0   0   0 # h*
   2511     50   6  0.410000    20.596544969    21.230670002    42.321808815   0   0   0 # h*
   2512     50   6  0.410000    17.723338157    14.096129347    43.636539152   0   0   0 # h*
   2513     50   6  0.410000    18.617232975    14.926384613    44.494602957   0   0   0 # h*
   2514     50   6  0.410000    17.714146812    19.939439180    42.502919081   0   0   0 # h*
   2515     50   6  0.410000    17.725029568    21.244237403    41.590581679   0   0   0 # h*
   2516     50   6  0.410000    20.686811603    15.691310778    45.206969855   0   0   0 # h*
   2517     50   6  0.410000    20.955227493    14.225821262    45.347758008   0   0   0 # h*
   2518     51   1  1.500000    31.229004123    14.947675147    35.968892395   0   0   0 # casl
   2519     51   1  1.500000    28.491663907    16.764628968    33.995808858   0   0   0 # casl
   2520     51   2  1.000000    31.302225221    22.035094257    32.890322411   0   0   0 # sc2
   2521     51   2  1.000000    31.262798347    18.905318782    32.887523664   0   0   0 # sc2
   2522     51   3 -0.620000    31.313489851    15.538258968    31.479777505   0   0   0 # oc13
   2523     51   4 -0.620000    31.358549040    20.535441655    32.302595471   0   0   0 # oc12
   2524     51   3 -0.930000    32.552615210    22.462702752    33.780309063   0   0   0 # oc13
   2525     51   3 -0.930000    29.995511415    22.260688307    33.766315327   0   0   0 # oc13
   2526     51   5 -0.820000    28.722591832    16.739450909    31.614115294   0   0   0 # o*
   2527     51   3 -0.620000    31.352916726    18.096309502    31.490972495   0   0   0 # oc13
   2528     51   3 -0.930000    29.899760722    18.781740227    33.771912821   0   0   0 # oc13
   2529     51   5 -0.820000    28.750753742    14.990962186    28.070961001   0   0   0 # o*
   2530     51   1  1.700000    32.028803224    18.648128920    28.040175301   0   0   0 # casl
   2531     51   5 -0.820000    31.206474529    14.992146035    27.987000000   0   0   0 # o*
   2532     51   1  1.500000    28.412810493    16.794052597    49.962392395   0   0   0 # casl
   2533     51   1  1.500000    31.307857537    14.918251517    47.989308858   0   0   0 # casl
   2534     51   2  1.000000    28.486031592    16.456471708    46.883822411   0   0   0 # sc2
   2535     51   2  1.000000    28.446604718    20.751696232    46.881023664   0   0   0 # sc2
   2536     51   3 -0.620000    28.497296221    17.384636418    45.473277505   0   0   0 # oc13
   2537     51   4 -0.620000    28.542355410    22.381819106    46.296095471   0   0   0 # oc12
   2538     51   3 -0.930000    29.736421580    16.884080202    47.773809063   0   0   0 # oc13
   2539     51   3 -0.930000    27.179317785    16.682065758    47.759815327   0   0   0 # oc13
   2540     51   5 -0.820000    31.538785462    14.893073459    45.607615294   0   0   0 # o*
   2541     51   3 -0.620000    28.536723096    19.942686952    45.484472495   0   0   0 # oc13
   2542     51   3 -0.930000    27.083567092    20.628117677    47.765412821   0   0   0 # oc13
   2543     51   5 -0.820000    29.612509039    18.561695629    40.413227952   0   0   0 # o*
   2544     51   1  1.500000    31.229004122    18.660175147    47.992107605   0   0   0 # casl
   2545     51   1  1.500000    28.491663906    20.477128968    49.965191142   0   0   0 # casl
   2546     51   2  1.000000    31.302225222    18.322594256    51.070677589   0   0   0 # sc2
   2547     51   2  1.000000    31.262798347    15.192818781    51.073476336   0   0   0 # sc2
   2548     51   3 -0.620000    31.313489851    19.250758967    52.481222495   0   0   0 # oc13
   2549     51   4 -0.620000    31.358549041    16.822941655    51.658404529   0   0   0 # oc12
   2550     51   3 -0.930000    29.995511415    18.548188308    50.194684673   0   0   0 # oc13
   2551     51   3 -0.620000    31.352916726    21.808809501    52.470027505   0   0   0 # oc13
   2552     51   3 -0.930000    29.899760721    15.069240227    50.189087179   0   0   0 # oc13
   2553     51   3 -0.930000    32.608960652    14.844841540    50.183489684   0   0   0 # oc13
   2554     51   5 -0.820000    32.428702670    20.427818179    29.554272048   0   0   0 # o*
   2555     51   1  1.500000    28.412810493    20.506552597    33.998607605   0   0   0 # casl
   2556     51   1  1.500000    31.307857536    18.630751517    35.971691142   0   0   0 # casl
   2557     51   2  1.000000    28.486031592    20.168971707    37.077177589   0   0   0 # sc2
   2558     51   2  1.000000    28.446604718    17.039196232    37.079976336   0   0   0 # sc2
   2559     51   3 -0.620000    28.497296221    21.097136418    38.487722495   0   0   0 # oc13
   2560     51   4 -0.620000    28.542355411    18.669319106    37.664904529   0   0   0 # oc12
   2561     51   3 -0.930000    27.179317785    20.394565758    36.201184673   0   0   0 # oc13
   2562     51   5 -0.820000    31.538785463    18.605573459    38.353384706   0   0   0 # o*
   2563     51   3 -0.620000    28.536723096    16.230186952    38.476527505   0   0   0 # oc13
   2564     51   3 -0.930000    27.083567092    16.915617677    36.195587179   0   0   0 # oc13
   2565     51   3 -0.930000    29.792767022    16.691218990    36.189989684   0   0   0 # oc13
   2566     51   5 -0.820000    29.612509040    14.849195629    43.547772048   0   0   0 # o*
   2567     51   5 -0.820000    32.490637284    20.520856487    42.064461001   0   0   0 # o*
   2568     51   5 -0.820000    31.566947372    16.857084737    41.896538999   0   0   0 # o*
   2569     51   1  1.700000    29.212609594    16.782006371    41.927324699   0   0   0 # casl
   2570     51   5 -0.820000    28.390280898    20.551023485    41.980500000   0   0   0 # o*
   2571     51   6  0.410000    32.735535086    20.292845487    30.485299190   0   0   0 # h*
   2572     51   6  0.410000    31.905414022    21.249315793    29.699690205   0   0   0 # h*
   2573     51   6  0.410000    29.078860109    17.550476688    31.184921326   0   0   0 # h*
   2574     51   6  0.410000    29.444297447    16.107745366    31.373507348   0   0   0 # h*
   2575     51   6  0.410000    29.237416247    15.687576794    28.563324689   0   0   0 # h*
   2576     51   6  0.410000    29.565753249    14.541817318    27.738451405   0   0   0 # h*
   2577     51   6  0.410000    31.774613125    14.289005514    27.574660375   0   0   0 # h*
   2578     51   6  0.410000    31.818138954    15.588236357    28.494734712   0   0   0 # h*
   2579     51   6  0.410000    31.094384112    18.611937245    39.227697981   0   0   0 # h*
   2580     51   6  0.410000    32.451856809    18.340175791    38.615428401   0   0   0 # h*
   2581     51   6  0.410000    29.182305303    19.406714514    40.691850912   0   0   0 # h*
   2582     51   6  0.410000    29.230280483    18.504591039    39.497968959   0   0   0 # h*
   2583     51   6  0.410000    32.027049862    16.870848169    41.029448887   0   0   0 # h*
   2584     51   6  0.410000    32.397271991    16.800004223    42.428054179   0   0   0 # h*
   2585     51   6  0.410000    31.866209754    19.775050466    41.934312897   0   0   0 # h*
   2586     51   6  0.410000    31.861344969    21.230670002    42.321808815   0   0   0 # h*
   2587     51   6  0.410000    28.988138157    14.096129347    43.636539152   0   0   0 # h*
   2588     51   6  0.410000    29.882032975    14.926384613    44.494602957   0   0   0 # h*
   2589     51   6  0.410000    28.978946812    19.939439180    42.502919081   0   0   0 # h*
   2590     51   6  0.410000    28.989829568    21.244237403    41.590581679   0   0   0 # h*
   2591     51   6  0.410000    31.951611603    15.691310778    45.206969855   0   0   0 # h*
   2592     51   6  0.410000    32.220027493    14.225821262    45.347758008   0   0   0 # h*
   2593     52   1  1.500000    42.493804123    14.947675147    35.968892395   0   0   0 # casl
   2594     52   1  1.500000    39.756463907    16.764628968    33.995808858   0   0   0 # casl
   2595     52   2  1.000000    42.567025221    22.035094257    32.890322411   0   0   0 # sc2
   2596     52   2  1.000000    42.527598347    18.905318782    32.887523664   0   0   0 # sc2
   2597     52   3 -0.620000    42.578289851    15.538258968    31.479777505   0   0   0 # oc13
   2598     52   4 -0.620000    42.623349040    20.535441655    32.302595471   0   0   0 # oc12
   2599     52   3 -0.930000    43.817415210    22.462702752    33.780309063   0   0   0 # oc13
   2600     52   3 -0.930000    41.260311415    22.260688307    33.766315327   0   0   0 # oc13
   2601     52   5 -0.820000    39.987391832    16.739450909    31.614115294   0   0   0 # o*
   2602     52   3 -0.620000    42.617716726    18.096309502    31.490972495   0   0   0 # oc13
   2603     52   3 -0.930000    41.164560722    18.781740227    33.771912821   0   0   0 # oc13
   2604     52   5 -0.820000    40.015553742    14.990962186    28.070961001   0   0   0 # o*
   2605     52   1  1.700000    43.293603224    18.648128920    28.040175301   0   0   0 # casl
   2606     52   5 -0.820000    42.471274529    14.992146035    27.987000000   0   0   0 # o*
   2607     52   1  1.500000    39.677610493    16.794052597    49.962392395   0   0   0 # casl
   2608     52   1  1.500000    42.572657537    14.918251517    47.989308858   0   0   0 # casl
   2609     52   2  1.000000    39.750831592    16.456471708    46.883822411   0   0   0 # sc2
   2610     52   2  1.000000    39.711404718    20.751696232    46.881023664   0   0   0 # sc2
   2611     52   3 -0.620000    39.762096221    17.384636418    45.473277505   0   0   0 # oc13
   2612     52   4 -0.620000    39.807155410    22.381819106    46.296095471   0   0   0 # oc12
   2613     52   3 -0.930000    41.001221580    16.884080202    47.773809063   0   0   0 # oc13
   2614     52   3 -0.930000    38.444117785    16.682065758    47.759815327   0   0   0 # oc13
   2615     52   5 -0.820000    42.803585462    14.893073459    45.607615294   0   0   0 # o*
   2616     52   3 -0.620000    39.801523096    19.942686952    45.484472495   0   0   0 # oc13
   2617     52   3 -0.930000    38.348367092    20.628117677    47.765412821   0   0   0 # oc13
   2618     52   5 -0.820000    40.877309039    18.561695629    40.413227952   0   0   0 # o*
   2619     52   1  1.500000    42.493804122    18.660175147    47.992107605   0   0   0 # casl
   2620     52   1  1.500000    39.756463906    20.477128968    49.965191142   0   0   0 # casl
   2621     52   2  1.000000    42.567025222    18.322594256    51.070677589   0   0   0 # sc2
   2622     52   2  1.000000    42.527598347    15.192818781    51.073476336   0   0   0 # sc2
   2623     52   3 -0.620000    42.578289851    19.250758967    52.481222495   0   0   0 # oc13
   2624     52   4 -0.620000    42.623349041    16.822941655    51.658404529   0   0   0 # oc12
   2625     52   3 -0.930000    41.260311415    18.548188308    50.194684673   0   0   0 # oc13
   2626     52   3 -0.620000    42.617716726    21.808809501    52.470027505   0   0   0 # oc13
   2627     52   3 -0.930000    41.164560721    15.069240227    50.189087179   0   0   0 # oc13
   2628     52   3 -0.930000    43.873760652    14.844841540    50.183489684   0   0   0 # oc13
   2629     52   5 -0.820000    43.693502670    20.427818179    29.554272048   0   0   0 # o*
   2630     52   1  1.500000    39.677610493    20.506552597    33.998607605   0   0   0 # casl
   2631     52   1  1.500000    42.572657536    18.630751517    35.971691142   0   0   0 # casl
   2632     52   2  1.000000    39.750831592    20.168971707    37.077177589   0   0   0 # sc2
   2633     52   2  1.000000    39.711404718    17.039196232    37.079976336   0   0   0 # sc2
   2634     52   4 -0.620000    39.762096221    21.097136418    38.487722495   0   0   0 # oc12
   2635     52   4 -0.620000    39.807155411    18.669319106    37.664904529   0   0   0 # oc12
   2636     52   3 -0.930000    38.444117785    20.394565758    36.201184673   0   0   0 # oc13
   2637     52   5 -0.820000    42.803585463    18.605573459    38.353384706   0   0   0 # o*
   2638     52   3 -0.620000    39.801523096    16.230186952    38.476527505   0   0   0 # oc13
   2639     52   3 -0.930000    38.348367092    16.915617677    36.195587179   0   0   0 # oc13
   2640     52   3 -0.930000    41.057567022    16.691218990    36.189989684   0   0   0 # oc13
   2641     52   5 -0.820000    40.877309040    14.849195629    43.547772048   0   0   0 # o*
   2642     52   5 -0.820000    43.755437284    20.520856487    42.064461001   0   0   0 # o*
   2643     52   5 -0.820000    42.831747372    16.857084737    41.896538999   0   0   0 # o*
   2644     52   1  1.700000    40.477409594    16.782006371    41.927324699   0   0   0 # casl
   2645     52   5 -0.820000    39.655080898    20.551023485    41.980500000   0   0   0 # o*
   2646     52   6  0.410000    44.000335086    20.292845487    30.485299190   0   0   0 # h*
   2647     52   6  0.410000    43.170214022    21.249315793    29.699690205   0   0   0 # h*
   2648     52   6  0.410000    40.343660109    17.550476688    31.184921326   0   0   0 # h*
   2649     52   6  0.410000    40.709097447    16.107745366    31.373507348   0   0   0 # h*
   2650     52   6  0.410000    40.502216247    15.687576794    28.563324689   0   0   0 # h*
   2651     52   6  0.410000    40.830553249    14.541817318    27.738451405   0   0   0 # h*
   2652     52   6  0.410000    43.039413125    14.289005514    27.574660375   0   0   0 # h*
   2653     52   6  0.410000    43.082938954    15.588236357    28.494734712   0   0   0 # h*
   2654     52   6  0.410000    42.359184112    18.611937245    39.227697981   0   0   0 # h*
   2655     52   6  0.410000    43.716656809    18.340175791    38.615428401   0   0   0 # h*
   2656     52   6  0.410000    40.447105303    19.406714514    40.691850912   0   0   0 # h*
   2657     52   6  0.410000    40.495080483    18.504591039    39.497968959   0   0   0 # h*
   2658     52   6  0.410000    43.291849862    16.870848169    41.029448887   0   0   0 # h*
   2659     52   6  0.410000    43.662071991    16.800004223    42.428054179   0   0   0 # h*
   2660     52   6  0.410000    43.131009754    19.775050466    41.934312897   0   0   0 # h*
   2661     52   6  0.410000    43.126144969    21.230670002    42.321808815   0   0   0 # h*
   2662     52   6  0.410000    40.252938157    14.096129347    43.636539152   0   0   0 # h*
   2663     52   6  0.410000    41.146832975    14.926384613    44.494602957   0   0   0 # h*
   2664     52   6  0.410000    40.243746812    19.939439180    42.502919081   0   0   0 # h*
   2665     52   6  0.410000    40.254629568    21.244237403    41.590581679   0   0   0 # h*
   2666     52   6  0.410000    43.216411603    15.691310778    45.206969855   0   0   0 # h*
   2667     52   6  0.410000    43.484827493    14.225821262    45.347758008   0   0   0 # h*
   2668     53   1  1.500000     8.699404123    22.372675147    35.968892395   0   0   0 # casl
   2669     53   1  1.500000     5.962063907    24.189628968    33.995808858   0   0   0 # casl
   2670     53   2  1.000000     8.772625221    29.460094257    32.890322411   0   0   0 # sc2
   2671     53   2  1.000000     9.589321267    24.202344811    30.900446599   0   0   0 # sc2
   2672     53   2  1.000000     8.733198347    26.330318782    32.887523664   0   0   0 # sc2
   2673     53   4 -0.620000     8.783889851    22.963258968    31.479777505   0   0   0 # oc12
   2674     53   4 -0.620000     8.828949040    27.960441655    32.302595471   0   0   0 # oc12
   2675     53   3 -0.930000     7.465911415    -0.014311693    33.766315327   0   1   0 # oc13
   2676     53   3 -1.000000     9.544284037    27.944378142    54.625026598   0   0   0 # oc13
   2677     53   7 -0.690000    11.205829238    24.167179084    31.275472492   0   0   0 # oc14
   2678     53   5 -0.820000     6.192991832    24.164450909    31.614115294   0   0   0 # o*
   2679     53   4 -0.620000     8.823316726    25.521309502    31.490972495   0   0   0 # oc12
   2680     53   3 -0.930000     7.370160722    26.206740227    33.771912821   0   0   0 # oc13
   2681     53   5 -0.820000     6.221153742    22.415962186    28.070961001   0   0   0 # o*
   2682     53   1  1.700000     9.499203224    26.073128920    28.040175301   0   0   0 # casl
   2683     53   5 -0.820000     8.676874529    22.417146035    27.987000000   0   0   0 # o*
   2684     53   1  1.500000     5.883210493    24.219052597    49.962392395   0   0   0 # casl
   2685     53   1  1.500000     8.778257537    22.343251517    47.989308858   0   0   0 # casl
   2686     53   2  1.000000     5.956431592    23.881471708    46.883822411   0   0   0 # sc2
   2687     53   2  1.000000     6.773127637    26.048722262    44.893946599   0   0   0 # sc2
   2688     53   2  1.000000     5.917004718    28.176696232    46.881023664   0   0   0 # sc2
   2689     53   4 -0.620000     5.967696221    24.809636418    45.473277505   0   0   0 # oc12
   2690     53   3 -0.930000     7.206821580    24.309080202    47.773809063   0   0   0 # oc13
   2691     53   3 -0.930000     4.649717785    24.107065758    47.759815327   0   0   0 # oc13
   2692     53   3 -1.000000     6.728090407    22.365755593    40.631526598   0   0   0 # oc13
   2693     53   7 -0.690000     8.389635608    26.013556534    45.268972492   0   0   0 # oc14
   2694     53   5 -0.820000     9.009185462    22.318073459    45.607615294   0   0   0 # o*
   2695     53   4 -0.620000     6.007123096    27.367686952    45.484472495   0   0   0 # oc12
   2696     53   3 -0.930000     4.553967092    28.053117677    47.765412821   0   0   0 # oc13
   2697     53   5 -0.820000     7.082909039    25.986695629    40.413227952   0   0   0 # o*
   2698     53   1  1.500000     8.699404122    26.085175147    47.992107605   0   0   0 # casl
   2699     53   1  1.500000     5.962063906    27.902128968    49.965191142   0   0   0 # casl
   2700     53   2  1.000000     8.772625222    25.747594256    51.070677589   0   0   0 # sc2
   2701     53   2  1.000000     9.589321267    27.914844812    53.060553401   0   0   0 # sc2
   2702     53   2  1.000000     8.733198347    22.617818781    51.073476336   0   0   0 # sc2
   2703     53   4 -0.620000     8.783889851    26.675758967    52.481222495   0   0   0 # oc12
   2704     53   4 -0.620000     8.828949041    24.247941655    51.658404529   0   0   0 # oc12
   2705     53   3 -0.930000     7.465911415    25.973188308    50.194684673   0   0   0 # oc13
   2706     53   3 -1.000000     9.544262413    24.231886690    29.335973402   0   0   0 # oc13
   2707     53   7 -0.690000    11.205829237    27.879679084    52.685527508   0   0   0 # oc14
   2708     53   4 -0.620000     8.823316726    29.233809501    52.470027505   0   0   0 # oc12
   2709     53   3 -0.930000     7.370160721    22.494240227    50.189087179   0   0   0 # oc13
   2710     53   3 -0.930000    10.079360652    22.269841540    50.183489684   0   0   0 # oc13
   2711     53   5 -0.820000     9.899102670    27.852818179    29.554272048   0   0   0 # o*
   2712     53   1  1.500000     5.883210493    27.931552597    33.998607605   0   0   0 # casl
   2713     53   1  1.500000     8.778257536    26.055751517    35.971691142   0   0   0 # casl
   2714     53   2  1.000000     5.956431592    27.593971707    37.077177589   0   0   0 # sc2
   2715     53   2  1.000000     6.773127637    22.336222263    39.067053401   0   0   0 # sc2
   2716     53   2  1.000000     5.917004718    24.464196232    37.079976336   0   0   0 # sc2
   2717     53   3 -0.620000     5.967696221    28.522136418    38.487722495   0   0   0 # oc13
   2718     53   4 -0.620000     6.012755411    26.094319106    37.664904529   0   0   0 # oc12
   2719     53   3 -0.930000     4.649717785    27.819565758    36.201184673   0   0   0 # oc13
   2720     53   3 -1.000000     6.728068783    26.078264141    43.329473402   0   0   0 # oc13
   2721     53   7 -0.690000     8.389635607    22.301056534    38.692027508   0   0   0 # oc14
   2722     53   5 -0.820000     9.009185463    26.030573459    38.353384706   0   0   0 # o*
   2723     53   4 -0.620000     6.007123096    23.655186952    38.476527505   0   0   0 # oc12
   2724     53   3 -0.930000     4.553967092    24.340617677    36.195587179   0   0   0 # oc13
   2725     53   3 -0.930000     7.263167022    24.116218990    36.189989684   0   0   0 # oc13
   2726     53   5 -0.820000     7.082909040    22.274195629    43.547772048   0   0   0 # o*
   2727     53   5 -0.820000     9.961037284    27.945856487    42.064461001   0   0   0 # o*
   2728     53   5 -0.820000     9.037347372    24.282084737    41.896538999   0   0   0 # o*
   2729     53   1  1.700000     6.683009594    24.207006371    41.927324699   0   0   0 # casl
   2730     53   5 -0.820000     5.860680898    27.976023485    41.980500000   0   0   0 # o*
   2731     53   8  0.420000    11.801696210    27.945504842    53.410346563   0   0   0 # hoy
   2732     53   8  0.420000     8.981954910    26.091952736    44.543567616   0   0   0 # hoy
   2733     53   8  0.420000     8.963549620    21.908544688    39.323226581   0   0   0 # hoy
   2734     53   8  0.420000    11.790930347    24.171147689    30.537392443   0   0   0 # hoy
   2735     53   6  0.410000    10.205935086    27.717845487    30.485299190   0   0   0 # h*
   2736     53   6  0.410000     9.375814022    28.674315793    29.699690205   0   0   0 # h*
   2737     53   6  0.410000     6.549260109    24.975476688    31.184921326   0   0   0 # h*
   2738     53   6  0.410000     6.914697447    23.532745366    31.373507348   0   0   0 # h*
   2739     53   6  0.410000     6.707816247    23.112576794    28.563324689   0   0   0 # h*
   2740     53   6  0.410000     7.036153249    21.966817318    27.738451405   0   0   0 # h*
   2741     53   6  0.410000     9.245013125    21.714005514    27.574660375   0   0   0 # h*
   2742     53   6  0.410000     9.288538954    23.013236357    28.494734712   0   0   0 # h*
   2743     53   6  0.410000     8.564784112    26.036937245    39.227697981   0   0   0 # h*
   2744     53   6  0.410000     9.922256809    25.765175791    38.615428401   0   0   0 # h*
   2745     53   6  0.410000     6.652705303    26.831714514    40.691850912   0   0   0 # h*
   2746     53   6  0.410000     6.700680483    25.929591039    39.497968959   0   0   0 # h*
   2747     53   6  0.410000     9.497449862    24.295848169    41.029448887   0   0   0 # h*
   2748     53   6  0.410000     9.867671991    24.225004223    42.428054179   0   0   0 # h*
   2749     53   6  0.410000     9.336609754    27.200050466    41.934312897   0   0   0 # h*
   2750     53   6  0.410000     9.331744969    28.655670002    42.321808815   0   0   0 # h*
   2751     53   6  0.410000     6.458538157    21.521129347    43.636539152   0   0   0 # h*
   2752     53   6  0.410000     7.352432975    22.351384613    44.494602957   0   0   0 # h*
   2753     53   6  0.410000     6.449346812    27.364439180    42.502919081   0   0   0 # h*
   2754     53   6  0.410000     6.460229568    28.669237403    41.590581679   0   0   0 # h*
   2755     53   6  0.410000     9.422011603    23.116310778    45.206969855   0   0   0 # h*
   2756     53   6  0.410000     9.690427493    21.650821262    45.347758008   0   0   0 # h*
   2757     54   1  1.500000    19.964204123    22.372675147    35.968892395   0   0   0 # casl
   2758     54   1  1.500000    17.226863907    24.189628968    33.995808858   0   0   0 # casl
   2759     54   2  1.000000    20.037425221    29.460094257    32.890322411   0   0   0 # sc2
   2760     54   2  1.000000    19.997998347    26.330318782    32.887523664   0   0   0 # sc2
   2761     54   3 -0.620000    20.048689851    22.963258968    31.479777505   0   0   0 # oc13
   2762     54   4 -0.620000    20.093749040    27.960441655    32.302595471   0   0   0 # oc12
   2763     54   3 -0.930000    18.730711415    -0.014311693    33.766315327   0   1   0 # oc13
   2764     54   5 -0.820000    17.457791832    24.164450909    31.614115294   0   0   0 # o*
   2765     54   3 -0.620000    20.088116726    25.521309502    31.490972495   0   0   0 # oc13
   2766     54   3 -0.930000    18.634960722    26.206740227    33.771912821   0   0   0 # oc13
   2767     54   5 -0.820000    17.485953742    22.415962186    28.070961001   0   0   0 # o*
   2768     54   1  1.700000    20.764003224    26.073128920    28.040175301   0   0   0 # casl
   2769     54   5 -0.820000    19.941674529    22.417146035    27.987000000   0   0   0 # o*
   2770     54   1  1.500000    17.148010493    24.219052597    49.962392395   0   0   0 # casl
   2771     54   1  1.500000    20.043057537    22.343251517    47.989308858   0   0   0 # casl
   2772     54   2  1.000000    17.221231592    23.881471708    46.883822411   0   0   0 # sc2
   2773     54   2  1.000000    17.181804718    28.176696232    46.881023664   0   0   0 # sc2
   2774     54   3 -0.620000    17.232496221    24.809636418    45.473277505   0   0   0 # oc13
   2775     54   3 -0.930000    18.471621580    24.309080202    47.773809063   0   0   0 # oc13
   2776     54   3 -0.930000    15.914517785    24.107065758    47.759815327   0   0   0 # oc13
   2777     54   5 -0.820000    20.273985462    22.318073459    45.607615294   0   0   0 # o*
   2778     54   3 -0.620000    17.271923096    27.367686952    45.484472495   0   0   0 # oc13
   2779     54   3 -0.930000    15.818767092    28.053117677    47.765412821   0   0   0 # oc13
   2780     54   5 -0.820000    18.347709039    25.986695629    40.413227952   0   0   0 # o*
   2781     54   1  1.500000    19.964204122    26.085175147    47.992107605   0   0   0 # casl
   2782     54   1  1.500000    17.226863906    27.902128968    49.965191142   0   0   0 # casl
   2783     54   2  1.000000    20.037425222    25.747594256    51.070677589   0   0   0 # sc2
   2784     54   2  1.000000    19.997998347    22.617818781    51.073476336   0   0   0 # sc2
   2785     54   3 -0.620000    20.048689851    26.675758967    52.481222495   0   0   0 # oc13
   2786     54   4 -0.620000    20.093749041    24.247941655    51.658404529   0   0   0 # oc12
   2787     54   3 -0.930000    18.730711415    25.973188308    50.194684673   0   0   0 # oc13
   2788     54   3 -0.620000    20.088116726    29.233809501    52.470027505   0   0   0 # oc13
   2789     54   3 -0.930000    18.634960721    22.494240227    50.189087179   0   0   0 # oc13
   2790     54   3 -0.930000    21.344160652    22.269841540    50.183489684   0   0   0 # oc13
   2791     54   5 -0.820000    21.163902670    27.852818179    29.554272048   0   0   0 # o*
   2792     54   1  1.500000    17.148010493    27.931552597    33.998607605   0   0   0 # casl
   2793     54   1  1.500000    20.043057536    26.055751517    35.971691142   0   0   0 # casl
   2794     54   2  1.000000    17.221231592    27.593971707    37.077177589   0   0   0 # sc2
   2795     54   2  1.000000    17.181804718    24.464196232    37.079976336   0   0   0 # sc2
   2796     54   3 -0.620000    17.232496221    28.522136418    38.487722495   0   0   0 # oc13
   2797     54   4 -0.620000    17.277555411    26.094319106    37.664904529   0   0   0 # oc12
   2798     54   3 -0.930000    15.914517785    27.819565758    36.201184673   0   0   0 # oc13
   2799     54   5 -0.820000    20.273985463    26.030573459    38.353384706   0   0   0 # o*
   2800     54   3 -0.620000    17.271923096    23.655186952    38.476527505   0   0   0 # oc13
   2801     54   3 -0.930000    15.818767092    24.340617677    36.195587179   0   0   0 # oc13
   2802     54   3 -0.930000    18.527967022    24.116218990    36.189989684   0   0   0 # oc13
   2803     54   5 -0.820000    18.347709040    22.274195629    43.547772048   0   0   0 # o*
   2804     54   5 -0.820000    21.225837284    27.945856487    42.064461001   0   0   0 # o*
   2805     54   5 -0.820000    20.302147372    24.282084737    41.896538999   0   0   0 # o*
   2806     54   1  1.700000    17.947809594    24.207006371    41.927324699   0   0   0 # casl
   2807     54   5 -0.820000    17.125480898    27.976023485    41.980500000   0   0   0 # o*
   2808     54   6  0.410000    21.470735086    27.717845487    30.485299190   0   0   0 # h*
   2809     54   6  0.410000    20.640614022    28.674315793    29.699690205   0   0   0 # h*
   2810     54   6  0.410000    17.814060109    24.975476688    31.184921326   0   0   0 # h*
   2811     54   6  0.410000    18.179497447    23.532745366    31.373507348   0   0   0 # h*
   2812     54   6  0.410000    17.972616247    23.112576794    28.563324689   0   0   0 # h*
   2813     54   6  0.410000    18.300953249    21.966817318    27.738451405   0   0   0 # h*
   2814     54   6  0.410000    20.509813125    21.714005514    27.574660375   0   0   0 # h*
   2815     54   6  0.410000    20.553338954    23.013236357    28.494734712   0   0   0 # h*
   2816     54   6  0.410000    19.829584112    26.036937245    39.227697981   0   0   0 # h*
   2817     54   6  0.410000    21.187056809    25.765175791    38.615428401   0   0   0 # h*
   2818     54   6  0.410000    17.917505303    26.831714514    40.691850912   0   0   0 # h*
   2819     54   6  0.410000    17.965480483    25.929591039    39.497968959   0   0   0 # h*
   2820     54   6  0.410000    20.762249862    24.295848169    41.029448887   0   0   0 # h*
   2821     54   6  0.410000    21.132471991    24.225004223    42.428054179   0   0   0 # h*
   2822     54   6  0.410000    20.601409754    27.200050466    41.934312897   0   0   0 # h*
   2823     54   6  0.410000    20.596544969    28.655670002    42.321808815   0   0   0 # h*
   2824     54   6  0.410000    17.723338157    21.521129347    43.636539152   0   0   0 # h*
   2825     54   6  0.410000    18.617232975    22.351384613    44.494602957   0   0   0 # h*
   2826     54   6  0.410000    17.714146812    27.364439180    42.502919081   0   0   0 # h*
   2827     54   6  0.410000    17.725029568    28.669237403    41.590581679   0   0   0 # h*
   2828     54   6  0.410000    20.686811603    23.116310778    45.206969855   0   0   0 # h*
   2829     54   6  0.410000    20.955227493    21.650821262    45.347758008   0   0   0 # h*
   2830     55   1  1.500000    31.229004123    22.372675147    35.968892395   0   0   0 # casl
   2831     55   1  1.500000    28.491663907    24.189628968    33.995808858   0   0   0 # casl
   2832     55   2  1.000000    31.302225221    29.460094257    32.890322411   0   0   0 # sc2
   2833     55   2  1.000000    31.262798347    26.330318782    32.887523664   0   0   0 # sc2
   2834     55   3 -0.620000    31.313489851    22.963258968    31.479777505   0   0   0 # oc13
   2835     55   4 -0.620000    31.358549040    27.960441655    32.302595471   0   0   0 # oc12
   2836     55   3 -0.930000    29.995511415    -0.014311693    33.766315327   0   1   0 # oc13
   2837     55   5 -0.820000    28.722591832    24.164450909    31.614115294   0   0   0 # o*
   2838     55   3 -0.620000    31.352916726    25.521309502    31.490972495   0   0   0 # oc13
   2839     55   3 -0.930000    29.899760722    26.206740227    33.771912821   0   0   0 # oc13
   2840     55   5 -0.820000    28.750753742    22.415962186    28.070961001   0   0   0 # o*
   2841     55   1  1.700000    32.028803224    26.073128920    28.040175301   0   0   0 # casl
   2842     55   5 -0.820000    31.206474529    22.417146035    27.987000000   0   0   0 # o*
   2843     55   1  1.500000    28.412810493    24.219052597    49.962392395   0   0   0 # casl
   2844     55   1  1.500000    31.307857537    22.343251517    47.989308858   0   0   0 # casl
   2845     55   2  1.000000    28.486031592    23.881471708    46.883822411   0   0   0 # sc2
   2846     55   2  1.000000    28.446604718    28.176696232    46.881023664   0   0   0 # sc2
   2847     55   3 -0.620000    28.497296221    24.809636418    45.473277505   0   0   0 # oc13
   2848     55   3 -0.930000    29.736421580    24.309080202    47.773809063   0   0   0 # oc13
   2849     55   3 -0.930000    27.179317785    24.107065758    47.759815327   0   0   0 # oc13
   2850     55   5 -0.820000    31.538785462    22.318073459    45.607615294   0   0   0 # o*
   2851     55   3 -0.620000    28.536723096    27.367686952    45.484472495   0   0   0 # oc13
   2852     55   3 -0.930000    27.083567092    28.053117677    47.765412821   0   0   0 # oc13
   2853     55   5 -0.820000    29.612509039    25.986695629    40.413227952   0   0   0 # o*
   2854     55   1  1.500000    31.229004122    26.085175147    47.992107605   0   0   0 # casl
   2855     55   1  1.500000    28.491663906    27.902128968    49.965191142   0   0   0 # casl
   2856     55   2  1.000000    31.302225222    25.747594256    51.070677589   0   0   0 # sc2
   2857     55   2  1.000000    31.262798347    22.617818781    51.073476336   0   0   0 # sc2
   2858     55   3 -0.620000    31.313489851    26.675758967    52.481222495   0   0   0 # oc13
   2859     55   4 -0.620000    31.358549041    24.247941655    51.658404529   0   0   0 # oc12
   2860     55   3 -0.930000    29.995511415    25.973188308    50.194684673   0   0   0 # oc13
   2861     55   3 -0.620000    31.352916726    29.233809501    52.470027505   0   0   0 # oc13
   2862     55   3 -0.930000    29.899760721    22.494240227    50.189087179   0   0   0 # oc13
   2863     55   3 -0.930000    32.608960652    22.269841540    50.183489684   0   0   0 # oc13
   2864     55   5 -0.820000    32.428702670    27.852818179    29.554272048   0   0   0 # o*
   2865     55   1  1.500000    28.412810493    27.931552597    33.998607605   0   0   0 # casl
   2866     55   1  1.500000    31.307857536    26.055751517    35.971691142   0   0   0 # casl
   2867     55   2  1.000000    28.486031592    27.593971707    37.077177589   0   0   0 # sc2
   2868     55   2  1.000000    28.446604718    24.464196232    37.079976336   0   0   0 # sc2
   2869     55   3 -0.620000    28.497296221    28.522136418    38.487722495   0   0   0 # oc13
   2870     55   4 -0.620000    28.542355411    26.094319106    37.664904529   0   0   0 # oc12
   2871     55   3 -0.930000    27.179317785    27.819565758    36.201184673   0   0   0 # oc13
   2872     55   5 -0.820000    31.538785463    26.030573459    38.353384706   0   0   0 # o*
   2873     55   3 -0.620000    28.536723096    23.655186952    38.476527505   0   0   0 # oc13
   2874     55   3 -0.930000    27.083567092    24.340617677    36.195587179   0   0   0 # oc13
   2875     55   3 -0.930000    29.792767022    24.116218990    36.189989684   0   0   0 # oc13
   2876     55   5 -0.820000    29.612509040    22.274195629    43.547772048   0   0   0 # o*
   2877     55   5 -0.820000    32.490637284    27.945856487    42.064461001   0   0   0 # o*
   2878     55   5 -0.820000    31.566947372    24.282084737    41.896538999   0   0   0 # o*
   2879     55   1  1.700000    29.212609594    24.207006371    41.927324699   0   0   0 # casl
   2880     55   5 -0.820000    28.390280898    27.976023485    41.980500000   0   0   0 # o*
   2881     55   6  0.410000    32.735535086    27.717845487    30.485299190   0   0   0 # h*
   2882     55   6  0.410000    31.905414022    28.674315793    29.699690205   0   0   0 # h*
   2883     55   6  0.410000    29.078860109    24.975476688    31.184921326   0   0   0 # h*
   2884     55   6  0.410000    29.444297447    23.532745366    31.373507348   0   0   0 # h*
   2885     55   6  0.410000    29.237416247    23.112576794    28.563324689   0   0   0 # h*
   2886     55   6  0.410000    29.565753249    21.966817318    27.738451405   0   0   0 # h*
   2887     55   6  0.410000    31.774613125    21.714005514    27.574660375   0   0   0 # h*
   2888     55   6  0.410000    31.818138954    23.013236357    28.494734712   0   0   0 # h*
   2889     55   6  0.410000    31.094384112    26.036937245    39.227697981   0   0   0 # h*
   2890     55   6  0.410000    32.451856809    25.765175791    38.615428401   0   0   0 # h*
   2891     55   6  0.410000    29.182305303    26.831714514    40.691850912   0   0   0 # h*
   2892     55   6  0.410000    29.230280483    25.929591039    39.497968959   0   0   0 # h*
   2893     55   6  0.410000    32.027049862    24.295848169    41.029448887   0   0   0 # h*
   2894     55   6  0.410000    32.397271991    24.225004223    42.428054179   0   0   0 # h*
   2895     55   6  0.410000    31.866209754    27.200050466    41.934312897   0   0   0 # h*
   2896     55   6  0.410000    31.861344969    28.655670002    42.321808815   0   0   0 # h*
   2897     55   6  0.410000    28.988138157    21.521129347    43.636539152   0   0   0 # h*
   2898     55   6  0.410000    29.882032975    22.351384613    44.494602957   0   0   0 # h*
   2899     55   6  0.410000    28.978946812    27.364439180    42.502919081   0   0   0 # h*
   2900     55   6  0.410000    28.989829568    28.669237403    41.590581679   0   0   0 # h*
   2901     55   6  0.410000    31.951611603    23.116310778    45.206969855   0   0   0 # h*
   2902     55   6  0.410000    32.220027493    21.650821262    45.347758008   0   0   0 # h*
   2903     56   1  1.500000    42.493804123    22.372675147    35.968892395   0   0   0 # casl
   2904     56   1  1.500000    39.756463907    24.189628968    33.995808858   0   0   0 # casl
   2905     56   2  1.000000    42.567025221    29.460094257    32.890322411   0   0   0 # sc2
   2906     56   2  1.000000    43.383721267    24.202344811    30.900446599   0   0   0 # sc2
   2907     56   2  1.000000    42.527598347    26.330318782    32.887523664   0   0   0 # sc2
   2908     56   4 -0.620000    42.578289851    22.963258968    31.479777505   0   0   0 # oc12
   2909     56   4 -0.620000    42.623349040    27.960441655    32.302595471   0   0   0 # oc12
   2910     56   3 -0.930000    41.260311415    -0.014311693    33.766315327   0   1   0 # oc13
   2911     56   3 -1.000000    43.338684037    27.944378142    54.625026598   0   0   0 # oc13
   2912     56   7 -0.690000    -0.058970762    24.167179084    31.275472492   1   0   0 # oc14
   2913     56   5 -0.820000    39.987391832    24.164450909    31.614115294   0   0   0 # o*
   2914     56   4 -0.620000    42.617716726    25.521309502    31.490972495   0   0   0 # oc12
   2915     56   3 -0.930000    41.164560722    26.206740227    33.771912821   0   0   0 # oc13
   2916     56   5 -0.820000    40.015553742    22.415962186    28.070961001   0   0   0 # o*
   2917     56   1  1.700000    43.293603224    26.073128920    28.040175301   0   0   0 # casl
   2918     56   5 -0.820000    42.471274529    22.417146035    27.987000000   0   0   0 # o*
   2919     56   1  1.500000    39.677610493    24.219052597    49.962392395   0   0   0 # casl
   2920     56   1  1.500000    42.572657537    22.343251517    47.989308858   0   0   0 # casl
   2921     56   2  1.000000    39.750831592    23.881471708    46.883822411   0   0   0 # sc2
   2922     56   2  1.000000    40.567527637    26.048722262    44.893946599   0   0   0 # sc2
   2923     56   2  1.000000    39.711404718    28.176696232    46.881023664   0   0   0 # sc2
   2924     56   4 -0.620000    39.762096221    24.809636418    45.473277505   0   0   0 # oc12
   2925     56   3 -0.930000    41.001221580    24.309080202    47.773809063   0   0   0 # oc13
   2926     56   3 -0.930000    38.444117785    24.107065758    47.759815327   0   0   0 # oc13
   2927     56   3 -1.000000    40.522490407    22.365755593    40.631526598   0   0   0 # oc13
   2928     56   7 -0.690000    42.184035608    26.013556534    45.268972492   0   0   0 # oc14
   2929     56   5 -0.820000    42.803585462    22.318073459    45.607615294   0   0   0 # o*
   2930     56   4 -0.620000    39.801523096    27.367686952    45.484472495   0   0   0 # oc12
   2931     56   3 -0.930000    38.348367092    28.053117677    47.765412821   0   0   0 # oc13
   2932     56   5 -0.820000    40.877309039    25.986695629    40.413227952   0   0   0 # o*
   2933     56   1  1.500000    42.493804122    26.085175147    47.992107605   0   0   0 # casl
   2934     56   1  1.500000    39.756463906    27.902128968    49.965191142   0   0   0 # casl
   2935     56   2  1.000000    42.567025222    25.747594256    51.070677589   0   0   0 # sc2
   2936     56   2  1.000000    43.383721267    27.914844812    53.060553401   0   0   0 # sc2
   2937     56   2  1.000000    42.527598347    22.617818781    51.073476336   0   0   0 # sc2
   2938     56   4 -0.620000    42.578289851    26.675758967    52.481222495   0   0   0 # oc12
   2939     56   4 -0.620000    42.623349041    24.247941655    51.658404529   0   0   0 # oc12
   2940     56   3 -0.930000    41.260311415    25.973188308    50.194684673   0   0   0 # oc13
   2941     56   3 -1.000000    43.338662413    24.231886690    29.335973402   0   0   0 # oc13
   2942     56   3 -0.690000    -0.058970763    27.879679084    52.685527508   1   0   0 # oc13
   2943     56   4 -0.620000    42.617716726    29.233809501    52.470027505   0   0   0 # oc12
   2944     56   3 -0.930000    41.164560721    22.494240227    50.189087179   0   0   0 # oc13
   2945     56   3 -0.930000    43.873760652    22.269841540    50.183489684   0   0   0 # oc13
   2946     56   5 -0.820000    43.693502670    27.852818179    29.554272048   0   0   0 # o*
   2947     56   1  1.500000    39.677610493    27.931552597    33.998607605   0   0   0 # casl
   2948     56   1  1.500000    42.572657536    26.055751517    35.971691142   0   0   0 # casl
   2949     56   2  1.000000    39.750831592    27.593971707    37.077177589   0   0   0 # sc2
   2950     56   2  1.000000    40.567527637    22.336222263    39.067053401   0   0   0 # sc2
   2951     56   2  1.000000    39.711404718    24.464196232    37.079976336   0   0   0 # sc2
   2952     56   4 -0.620000    39.762096221    28.522136418    38.487722495   0   0   0 # oc12
   2953     56   4 -0.620000    39.807155411    26.094319106    37.664904529   0   0   0 # oc12
   2954     56   3 -0.930000    38.444117785    27.819565758    36.201184673   0   0   0 # oc13
   2955     56   3 -1.000000    40.522468783    26.078264141    43.329473402   0   0   0 # oc13
   2956     56   7 -0.690000    42.184035607    22.301056534    38.692027508   0   0   0 # oc14
   2957     56   5 -0.820000    42.803585463    26.030573459    38.353384706   0   0   0 # o*
   2958     56   4 -0.620000    39.801523096    23.655186952    38.476527505   0   0   0 # oc12
   2959     56   3 -0.930000    38.348367092    24.340617677    36.195587179   0   0   0 # oc13
   2960     56   3 -0.930000    41.057567022    24.116218990    36.189989684   0   0   0 # oc13
   2961     56   5 -0.820000    40.877309040    22.274195629    43.547772048   0   0   0 # o*
   2962     56   5 -0.820000    43.755437284    27.945856487    42.064461001   0   0   0 # o*
   2963     56   5 -0.820000    42.831747372    24.282084737    41.896538999   0   0   0 # o*
   2964     56   1  1.700000    40.477409594    24.207006371    41.927324699   0   0   0 # casl
   2965     56   5 -0.820000    39.655080898    27.976023485    41.980500000   0   0   0 # o*
   2966     56   8  0.420000    42.776354910    26.091952736    44.543567616   0   0   0 # hoy
   2967     56   8  0.420000    42.757949620    21.908544688    39.323226581   0   0   0 # hoy
   2968     56   8  0.420000     0.526130347    24.171147689    30.537392443   1   0   0 # hoy
   2969     56   6  0.410000    44.000335086    27.717845487    30.485299190   0   0   0 # h*
   2970     56   6  0.410000    43.170214022    28.674315793    29.699690205   0   0   0 # h*
   2971     56   6  0.410000    40.343660109    24.975476688    31.184921326   0   0   0 # h*
   2972     56   6  0.410000    40.709097447    23.532745366    31.373507348   0   0   0 # h*
   2973     56   6  0.410000    40.502216247    23.112576794    28.563324689   0   0   0 # h*
   2974     56   6  0.410000    40.830553249    21.966817318    27.738451405   0   0   0 # h*
   2975     56   6  0.410000    43.039413125    21.714005514    27.574660375   0   0   0 # h*
   2976     56   6  0.410000    43.082938954    23.013236357    28.494734712   0   0   0 # h*
   2977     56   6  0.410000    42.359184112    26.036937245    39.227697981   0   0   0 # h*
   2978     56   6  0.410000    43.716656809    25.765175791    38.615428401   0   0   0 # h*
   2979     56   6  0.410000    40.447105303    26.831714514    40.691850912   0   0   0 # h*
   2980     56   6  0.410000    40.495080483    25.929591039    39.497968959   0   0   0 # h*
   2981     56   6  0.410000    43.291849862    24.295848169    41.029448887   0   0   0 # h*
   2982     56   6  0.410000    43.662071991    24.225004223    42.428054179   0   0   0 # h*
   2983     56   6  0.410000    43.131009754    27.200050466    41.934312897   0   0   0 # h*
   2984     56   6  0.410000    43.126144969    28.655670002    42.321808815   0   0   0 # h*
   2985     56   6  0.410000    40.252938157    21.521129347    43.636539152   0   0   0 # h*
   2986     56   6  0.410000    41.146832975    22.351384613    44.494602957   0   0   0 # h*
   2987     56   6  0.410000    40.243746812    27.364439180    42.502919081   0   0   0 # h*
   2988     56   6  0.410000    40.254629568    28.669237403    41.590581679   0   0   0 # h*
   2989     56   6  0.410000    43.216411603    23.116310778    45.206969855   0   0   0 # h*
   2990     56   6  0.410000    43.484827493    21.650821262    45.347758008   0   0   0 # h*
   2991     57   3 -0.930000    10.023015210     0.187702752    33.780309063   0   0   0 # oc13
   2992     57   4 -0.620000     6.012755410     0.106819106    46.296095471   0   0   0 # oc12
   2993     58   3 -0.930000    21.287815210     0.187702752    33.780309063   0   0   0 # oc13
   2994     58   4 -0.620000    17.277555410     0.106819106    46.296095471   0   0   0 # oc12
   2995     59   3 -0.930000    32.552615210     0.187702752    33.780309063   0   0   0 # oc13
   2996     59   4 -0.620000    28.542355410     0.106819106    46.296095471   0   0   0 # oc12
   2997     60   3 -0.930000    43.817415210     0.187702752    33.780309063   0   0   0 # oc13
   2998     60   4 -0.620000    39.807155410     0.106819106    46.296095471   0   0   0 # oc12
   2999     61   5 -0.820000     9.899102669     1.865318178    26.419727952   0   0   0 # o*
   3000     61   1  1.500000     5.883210493     1.944052597    21.975392395   0   0   0 # casl
   3001     61   1  1.500000     8.778257537     0.068251517    20.002308858   0   0   0 # casl
   3002     61   2  1.000000     5.956431592     1.606471708    18.896822411   0   0   0 # sc2
   3003     61   2  1.000000     5.917004718     5.901696232    18.894023664   0   0   0 # sc2
   3004     61   3 -0.620000     5.967696221     2.534636418    17.486277505   0   0   0 # oc13
   3005     61   4 -0.620000     6.012755410     7.531819106    18.309095471   0   0   0 # oc12
   3006     61   3 -0.930000     7.206821580     2.034080202    19.786809063   0   0   0 # oc13
   3007     61   3 -0.930000     4.649717785     1.832065758    19.772815327   0   0   0 # oc13
   3008     61   3 -0.620000     6.007123096     5.092686952    17.497472495   0   0   0 # oc13
   3009     61   3 -0.930000     4.553967092     5.778117677    19.778412821   0   0   0 # oc13
   3010     61   1  1.500000     8.699404122     3.810175147    20.005107605   0   0   0 # casl
   3011     61   1  1.500000     5.962063906     5.627128968    21.978191142   0   0   0 # casl
   3012     61   2  1.000000     8.772625222     3.472594256    23.083677589   0   0   0 # sc2
   3013     61   2  1.000000     8.733198347     0.342818781    23.086476336   0   0   0 # sc2
   3014     61   3 -0.620000     8.783889851     4.400758967    24.494222495   0   0   0 # oc13
   3015     61   4 -0.620000     8.828949041     1.972941655    23.671404529   0   0   0 # oc12
   3016     61   3 -0.930000     7.465911415     3.698188308    22.207684673   0   0   0 # oc13
   3017     61   5 -0.820000     6.192991833     5.601950909    24.359884706   0   0   0 # o*
   3018     61   3 -0.620000     8.823316726     6.958809501    24.483027505   0   0   0 # oc13
   3019     61   3 -0.930000     7.370160721     0.219240227    22.202087179   0   0   0 # oc13
   3020     61   5 -0.820000     6.221153742     3.853462187    27.903038999   0   0   0 # o*
   3021     61   6  0.410000     6.538205056     6.397504115    24.823259273   0   0   0 # h*
   3022     61   6  0.410000     6.872216270     4.948320547    24.654904704   0   0   0 # h*
   3023     61   6  0.410000     5.592996425     3.121804817    27.728846518   0   0   0 # h*
   3024     61   6  0.410000     5.663333860     4.627208164    27.666951214   0   0   0 # h*
   3025     61   6  0.410000     9.261274769     1.114327172    26.448947827   0   0   0 # h*
   3026     61   6  0.410000    10.072668606     1.877790860    25.446882538   0   0   0 # h*
   3027     62   5 -0.820000    21.163902669     1.865318178    26.419727952   0   0   0 # o*
   3028     62   1  1.500000    17.148010493     1.944052597    21.975392395   0   0   0 # casl
   3029     62   1  1.500000    20.043057537     0.068251517    20.002308858   0   0   0 # casl
   3030     62   2  1.000000    17.221231592     1.606471708    18.896822411   0   0   0 # sc2
   3031     62   2  1.000000    17.181804718     5.901696232    18.894023664   0   0   0 # sc2
   3032     62   3 -0.620000    17.232496221     2.534636418    17.486277505   0   0   0 # oc13
   3033     62   4 -0.620000    17.277555410     7.531819106    18.309095471   0   0   0 # oc12
   3034     62   3 -0.930000    18.471621580     2.034080202    19.786809063   0   0   0 # oc13
   3035     62   3 -0.930000    15.914517785     1.832065758    19.772815327   0   0   0 # oc13
   3036     62   3 -0.620000    17.271923096     5.092686952    17.497472495   0   0   0 # oc13
   3037     62   3 -0.930000    15.818767092     5.778117677    19.778412821   0   0   0 # oc13
   3038     62   1  1.500000    19.964204122     3.810175147    20.005107605   0   0   0 # casl
   3039     62   1  1.500000    17.226863906     5.627128968    21.978191142   0   0   0 # casl
   3040     62   2  1.000000    20.037425222     3.472594256    23.083677589   0   0   0 # sc2
   3041     62   2  1.000000    19.997998347     0.342818781    23.086476336   0   0   0 # sc2
   3042     62   3 -0.620000    20.048689851     4.400758967    24.494222495   0   0   0 # oc13
   3043     62   4 -0.620000    20.093749041     1.972941655    23.671404529   0   0   0 # oc12
   3044     62   3 -0.930000    18.730711415     3.698188308    22.207684673   0   0   0 # oc13
   3045     62   5 -0.820000    17.457791833     5.601950909    24.359884706   0   0   0 # o*
   3046     62   3 -0.620000    20.088116726     6.958809501    24.483027505   0   0   0 # oc13
   3047     62   3 -0.930000    18.634960721     0.219240227    22.202087179   0   0   0 # oc13
   3048     62   5 -0.820000    17.485953742     3.853462187    27.903038999   0   0   0 # o*
   3049     62   6  0.410000    17.803005056     6.397504115    24.823259273   0   0   0 # h*
   3050     62   6  0.410000    18.137016270     4.948320547    24.654904704   0   0   0 # h*
   3051     62   6  0.410000    16.857796425     3.121804817    27.728846518   0   0   0 # h*
   3052     62   6  0.410000    16.928133860     4.627208164    27.666951214   0   0   0 # h*
   3053     62   6  0.410000    20.526074769     1.114327172    26.448947827   0   0   0 # h*
   3054     62   6  0.410000    21.337468606     1.877790860    25.446882538   0   0   0 # h*
   3055     63   5 -0.820000    32.428702669     1.865318178    26.419727952   0   0   0 # o*
   3056     63   1  1.500000    28.412810493     1.944052597    21.975392395   0   0   0 # casl
   3057     63   1  1.500000    31.307857537     0.068251517    20.002308858   0   0   0 # casl
   3058     63   2  1.000000    28.486031592     1.606471708    18.896822411   0   0   0 # sc2
   3059     63   2  1.000000    28.446604718     5.901696232    18.894023664   0   0   0 # sc2
   3060     63   3 -0.620000    28.497296221     2.534636418    17.486277505   0   0   0 # oc13
   3061     63   4 -0.620000    28.542355410     7.531819106    18.309095471   0   0   0 # oc12
   3062     63   3 -0.930000    29.736421580     2.034080202    19.786809063   0   0   0 # oc13
   3063     63   3 -0.930000    27.179317785     1.832065758    19.772815327   0   0   0 # oc13
   3064     63   3 -0.620000    28.536723096     5.092686952    17.497472495   0   0   0 # oc13
   3065     63   3 -0.930000    27.083567092     5.778117677    19.778412821   0   0   0 # oc13
   3066     63   1  1.500000    31.229004122     3.810175147    20.005107605   0   0   0 # casl
   3067     63   1  1.500000    28.491663906     5.627128968    21.978191142   0   0   0 # casl
   3068     63   2  1.000000    31.302225222     3.472594256    23.083677589   0   0   0 # sc2
   3069     63   2  1.000000    31.262798347     0.342818781    23.086476336   0   0   0 # sc2
   3070     63   3 -0.620000    31.313489851     4.400758967    24.494222495   0   0   0 # oc13
   3071     63   4 -0.620000    31.358549041     1.972941655    23.671404529   0   0   0 # oc12
   3072     63   3 -0.930000    29.995511415     3.698188308    22.207684673   0   0   0 # oc13
   3073     63   5 -0.820000    28.722591833     5.601950909    24.359884706   0   0   0 # o*
   3074     63   3 -0.620000    31.352916726     6.958809501    24.483027505   0   0   0 # oc13
   3075     63   3 -0.930000    29.899760721     0.219240227    22.202087179   0   0   0 # oc13
   3076     63   5 -0.820000    28.750753742     3.853462187    27.903038999   0   0   0 # o*
   3077     63   6  0.410000    29.067805056     6.397504115    24.823259273   0   0   0 # h*
   3078     63   6  0.410000    29.401816270     4.948320547    24.654904704   0   0   0 # h*
   3079     63   6  0.410000    28.122596425     3.121804817    27.728846518   0   0   0 # h*
   3080     63   6  0.410000    28.192933860     4.627208164    27.666951214   0   0   0 # h*
   3081     63   6  0.410000    31.790874769     1.114327172    26.448947827   0   0   0 # h*
   3082     63   6  0.410000    32.602268606     1.877790860    25.446882538   0   0   0 # h*
   3083     64   3 -1.000000    43.338684037     5.669378142    26.638026598   0   0   0 # oc13
   3084     64   5 -0.820000    43.693502669     1.865318178    26.419727952   0   0   0 # o*
   3085     64   1  1.500000    39.677610493     1.944052597    21.975392395   0   0   0 # casl
   3086     64   1  1.500000    42.572657537     0.068251517    20.002308858   0   0   0 # casl
   3087     64   2  1.000000    39.750831592     1.606471708    18.896822411   0   0   0 # sc2
   3088     64   2  1.000000    40.567527637     3.773722262    16.906946599   0   0   0 # sc2
   3089     64   2  1.000000    39.711404718     5.901696232    18.894023664   0   0   0 # sc2
   3090     64   4 -0.620000    39.762096221     2.534636418    17.486277505   0   0   0 # oc12
   3091     64   4 -0.620000    39.807155410     7.531819106    18.309095471   0   0   0 # oc12
   3092     64   3 -0.930000    41.001221580     2.034080202    19.786809063   0   0   0 # oc13
   3093     64   3 -0.930000    38.444117785     1.832065758    19.772815327   0   0   0 # oc13
   3094     64   3 -0.690000    42.184035608     3.738556534    17.281972492   0   0   0 # oc13
   3095     64   4 -0.620000    39.801523096     5.092686952    17.497472495   0   0   0 # oc12
   3096     64   3 -0.930000    38.348367092     5.778117677    19.778412821   0   0   0 # oc13
   3097     64   1  1.500000    42.493804122     3.810175147    20.005107605   0   0   0 # casl
   3098     64   1  1.500000    39.756463906     5.627128968    21.978191142   0   0   0 # casl
   3099     64   2  1.000000    42.567025222     3.472594256    23.083677589   0   0   0 # sc2
   3100     64   2  1.000000    43.383721267     5.639844812    25.073553401   0   0   0 # sc2
   3101     64   2  1.000000    42.527598347     0.342818781    23.086476336   0   0   0 # sc2
   3102     64   4 -0.620000    42.578289851     4.400758967    24.494222495   0   0   0 # oc12
   3103     64   4 -0.620000    42.623349041     1.972941655    23.671404529   0   0   0 # oc12
   3104     64   3 -0.930000    41.260311415     3.698188308    22.207684673   0   0   0 # oc13
   3105     64   7 -0.690000    -0.058970763     5.604679084    24.698527508   1   0   0 # oc14
   3106     64   5 -0.820000    39.987391833     5.601950909    24.359884706   0   0   0 # o*
   3107     64   4 -0.620000    42.617716726     6.958809501    24.483027505   0   0   0 # oc12
   3108     64   3 -0.930000    41.164560721     0.219240227    22.202087179   0   0   0 # oc13
   3109     64   5 -0.820000    40.015553742     3.853462187    27.903038999   0   0   0 # o*
   3110     64   3 -1.000000    40.522468783     3.803264141    15.342473402   0   0   0 # oc13
   3111     64   8  0.420000     0.536896210     5.670504842    25.423346563   1   0   0 # hoy
   3112     64   6  0.410000    40.332605056     6.397504115    24.823259273   0   0   0 # h*
   3113     64   6  0.410000    40.666616270     4.948320547    24.654904704   0   0   0 # h*
   3114     64   6  0.410000    39.387396425     3.121804817    27.728846518   0   0   0 # h*
   3115     64   6  0.410000    39.457733860     4.627208164    27.666951214   0   0   0 # h*
   3116     64   6  0.410000    43.055674769     1.114327172    26.448947827   0   0   0 # h*
   3117     64   6  0.410000    43.867068606     1.877790860    25.446882538   0   0   0 # h*
   3118     65   3 -1.000000     9.544284037    13.094378142    26.638026598   0   0   0 # oc13
   3119     65   5 -0.820000     9.899102669     9.290318178    26.419727952   0   0   0 # o*
   3120     65   1  1.500000     5.883210493     9.369052597    21.975392395   0   0   0 # casl
   3121     65   1  1.500000     8.778257537     7.493251517    20.002308858   0   0   0 # casl
   3122     65   2  1.000000     5.956431592     9.031471708    18.896822411   0   0   0 # sc2
   3123     65   2  1.000000     6.773127637    11.198722262    16.906946599   0   0   0 # sc2
   3124     65   2  1.000000     5.917004718    13.326696232    18.894023664   0   0   0 # sc2
   3125     65   4 -0.620000     5.967696221     9.959636418    17.486277505   0   0   0 # oc12
   3126     65   4 -0.620000     6.012755410    14.956819106    18.309095471   0   0   0 # oc12
   3127     65   3 -0.930000     7.206821580     9.459080202    19.786809063   0   0   0 # oc13
   3128     65   3 -0.930000     4.649717785     9.257065758    19.772815327   0   0   0 # oc13
   3129     65   3 -0.690000     8.389635608    11.163556534    17.281972492   0   0   0 # oc13
   3130     65   4 -0.620000     6.007123096    12.517686952    17.497472495   0   0   0 # oc12
   3131     65   3 -0.930000     4.553967092    13.203117677    19.778412821   0   0   0 # oc13
   3132     65   1  1.500000     8.699404122    11.235175147    20.005107605   0   0   0 # casl
   3133     65   1  1.500000     5.962063906    13.052128968    21.978191142   0   0   0 # casl
   3134     65   2  1.000000     8.772625222    10.897594256    23.083677589   0   0   0 # sc2
   3135     65   2  1.000000     9.589321267    13.064844812    25.073553401   0   0   0 # sc2
   3136     65   2  1.000000     8.733198347     7.767818781    23.086476336   0   0   0 # sc2
   3137     65   4 -0.620000     8.783889851    11.825758967    24.494222495   0   0   0 # oc12
   3138     65   4 -0.620000     8.828949041     9.397941655    23.671404529   0   0   0 # oc12
   3139     65   3 -0.930000     7.465911415    11.123188308    22.207684673   0   0   0 # oc13
   3140     65   7 -0.690000    11.205829237    13.029679084    24.698527508   0   0   0 # oc14
   3141     65   5 -0.820000     6.192991833    13.026950909    24.359884706   0   0   0 # o*
   3142     65   4 -0.620000     8.823316726    14.383809501    24.483027505   0   0   0 # oc12
   3143     65   3 -0.930000     7.370160721     7.644240227    22.202087179   0   0   0 # oc13
   3144     65   3 -0.930000    10.079360652     7.419841540    22.196489684   0   0   0 # oc13
   3145     65   5 -0.820000     6.221153742    11.278462187    27.903038999   0   0   0 # o*
   3146     65   3 -1.000000     6.728068783    11.228264141    15.342473402   0   0   0 # oc13
   3147     65   8  0.420000    11.801696210    13.095504842    25.423346563   0   0   0 # hoy
   3148     65   6  0.410000     6.538205056    13.822504115    24.823259273   0   0   0 # h*
   3149     65   6  0.410000     6.872216270    12.373320547    24.654904704   0   0   0 # h*
   3150     65   6  0.410000     5.592996425    10.546804817    27.728846518   0   0   0 # h*
   3151     65   6  0.410000     5.663333860    12.052208164    27.666951214   0   0   0 # h*
   3152     65   6  0.410000     9.261274769     8.539327172    26.448947827   0   0   0 # h*
   3153     65   6  0.410000    10.072668606     9.302790860    25.446882538   0   0   0 # h*
   3154     66   5 -0.820000    21.163902669     9.290318178    26.419727952   0   0   0 # o*
   3155     66   1  1.500000    17.148010493     9.369052597    21.975392395   0   0   0 # casl
   3156     66   1  1.500000    20.043057537     7.493251517    20.002308858   0   0   0 # casl
   3157     66   2  1.000000    17.221231592     9.031471708    18.896822411   0   0   0 # sc2
   3158     66   2  1.000000    17.181804718    13.326696232    18.894023664   0   0   0 # sc2
   3159     66   3 -0.620000    17.232496221     9.959636418    17.486277505   0   0   0 # oc13
   3160     66   4 -0.620000    17.277555410    14.956819106    18.309095471   0   0   0 # oc12
   3161     66   3 -0.930000    18.471621580     9.459080202    19.786809063   0   0   0 # oc13
   3162     66   3 -0.930000    15.914517785     9.257065758    19.772815327   0   0   0 # oc13
   3163     66   3 -0.620000    17.271923096    12.517686952    17.497472495   0   0   0 # oc13
   3164     66   3 -0.930000    15.818767092    13.203117677    19.778412821   0   0   0 # oc13
   3165     66   1  1.500000    19.964204122    11.235175147    20.005107605   0   0   0 # casl
   3166     66   1  1.500000    17.226863906    13.052128968    21.978191142   0   0   0 # casl
   3167     66   2  1.000000    20.037425222    10.897594256    23.083677589   0   0   0 # sc2
   3168     66   2  1.000000    19.997998347     7.767818781    23.086476336   0   0   0 # sc2
   3169     66   3 -0.620000    20.048689851    11.825758967    24.494222495   0   0   0 # oc13
   3170     66   4 -0.620000    20.093749041     9.397941655    23.671404529   0   0   0 # oc12
   3171     66   3 -0.930000    18.730711415    11.123188308    22.207684673   0   0   0 # oc13
   3172     66   5 -0.820000    17.457791833    13.026950909    24.359884706   0   0   0 # o*
   3173     66   3 -0.620000    20.088116726    14.383809501    24.483027505   0   0   0 # oc13
   3174     66   3 -0.930000    18.634960721     7.644240227    22.202087179   0   0   0 # oc13
   3175     66   3 -0.930000    21.344160652     7.419841540    22.196489684   0   0   0 # oc13
   3176     66   5 -0.820000    17.485953742    11.278462187    27.903038999   0   0   0 # o*
   3177     66   6  0.410000    17.803005056    13.822504115    24.823259273   0   0   0 # h*
   3178     66   6  0.410000    18.137016270    12.373320547    24.654904704   0   0   0 # h*
   3179     66   6  0.410000    16.857796425    10.546804817    27.728846518   0   0   0 # h*
   3180     66   6  0.410000    16.928133860    12.052208164    27.666951214   0   0   0 # h*
   3181     66   6  0.410000    20.526074769     8.539327172    26.448947827   0   0   0 # h*
   3182     66   6  0.410000    21.337468606     9.302790860    25.446882538   0   0   0 # h*
   3183     67   5 -0.820000    32.428702669     9.290318178    26.419727952   0   0   0 # o*
   3184     67   1  1.500000    28.412810493     9.369052597    21.975392395   0   0   0 # casl
   3185     67   1  1.500000    31.307857537     7.493251517    20.002308858   0   0   0 # casl
   3186     67   2  1.000000    28.486031592     9.031471708    18.896822411   0   0   0 # sc2
   3187     67   2  1.000000    28.446604718    13.326696232    18.894023664   0   0   0 # sc2
   3188     67   3 -0.620000    28.497296221     9.959636418    17.486277505   0   0   0 # oc13
   3189     67   4 -0.620000    28.542355410    14.956819106    18.309095471   0   0   0 # oc12
   3190     67   3 -0.930000    29.736421580     9.459080202    19.786809063   0   0   0 # oc13
   3191     67   3 -0.930000    27.179317785     9.257065758    19.772815327   0   0   0 # oc13
   3192     67   3 -0.620000    28.536723096    12.517686952    17.497472495   0   0   0 # oc13
   3193     67   3 -0.930000    27.083567092    13.203117677    19.778412821   0   0   0 # oc13
   3194     67   1  1.500000    31.229004122    11.235175147    20.005107605   0   0   0 # casl
   3195     67   1  1.500000    28.491663906    13.052128968    21.978191142   0   0   0 # casl
   3196     67   2  1.000000    31.302225222    10.897594256    23.083677589   0   0   0 # sc2
   3197     67   2  1.000000    31.262798347     7.767818781    23.086476336   0   0   0 # sc2
   3198     67   3 -0.620000    31.313489851    11.825758967    24.494222495   0   0   0 # oc13
   3199     67   4 -0.620000    31.358549041     9.397941655    23.671404529   0   0   0 # oc12
   3200     67   3 -0.930000    29.995511415    11.123188308    22.207684673   0   0   0 # oc13
   3201     67   5 -0.820000    28.722591833    13.026950909    24.359884706   0   0   0 # o*
   3202     67   3 -0.620000    31.352916726    14.383809501    24.483027505   0   0   0 # oc13
   3203     67   3 -0.930000    29.899760721     7.644240227    22.202087179   0   0   0 # oc13
   3204     67   3 -0.930000    32.608960652     7.419841540    22.196489684   0   0   0 # oc13
   3205     67   5 -0.820000    28.750753742    11.278462187    27.903038999   0   0   0 # o*
   3206     67   6  0.410000    29.067805056    13.822504115    24.823259273   0   0   0 # h*
   3207     67   6  0.410000    29.401816270    12.373320547    24.654904704   0   0   0 # h*
   3208     67   6  0.410000    28.122596425    10.546804817    27.728846518   0   0   0 # h*
   3209     67   6  0.410000    28.192933860    12.052208164    27.666951214   0   0   0 # h*
   3210     67   6  0.410000    31.790874769     8.539327172    26.448947827   0   0   0 # h*
   3211     67   6  0.410000    32.602268606     9.302790860    25.446882538   0   0   0 # h*
   3212     68   5 -0.820000    43.693502669     9.290318178    26.419727952   0   0   0 # o*
   3213     68   1  1.500000    39.677610493     9.369052597    21.975392395   0   0   0 # casl
   3214     68   1  1.500000    42.572657537     7.493251517    20.002308858   0   0   0 # casl
   3215     68   2  1.000000    39.750831592     9.031471708    18.896822411   0   0   0 # sc2
   3216     68   2  1.000000    39.711404718    13.326696232    18.894023664   0   0   0 # sc2
   3217     68   3 -0.620000    39.762096221     9.959636418    17.486277505   0   0   0 # oc13
   3218     68   4 -0.620000    39.807155410    14.956819106    18.309095471   0   0   0 # oc12
   3219     68   3 -0.930000    41.001221580     9.459080202    19.786809063   0   0   0 # oc13
   3220     68   3 -0.930000    38.444117785     9.257065758    19.772815327   0   0   0 # oc13
   3221     68   3 -0.620000    39.801523096    12.517686952    17.497472495   0   0   0 # oc13
   3222     68   3 -0.930000    38.348367092    13.203117677    19.778412821   0   0   0 # oc13
   3223     68   1  1.500000    42.493804122    11.235175147    20.005107605   0   0   0 # casl
   3224     68   1  1.500000    39.756463906    13.052128968    21.978191142   0   0   0 # casl
   3225     68   2  1.000000    42.567025222    10.897594256    23.083677589   0   0   0 # sc2
   3226     68   2  1.000000    42.527598347     7.767818781    23.086476336   0   0   0 # sc2
   3227     68   3 -0.620000    42.578289851    11.825758967    24.494222495   0   0   0 # oc13
   3228     68   4 -0.620000    42.623349041     9.397941655    23.671404529   0   0   0 # oc12
   3229     68   3 -0.930000    41.260311415    11.123188308    22.207684673   0   0   0 # oc13
   3230     68   5 -0.820000    39.987391833    13.026950909    24.359884706   0   0   0 # o*
   3231     68   3 -0.620000    42.617716726    14.383809501    24.483027505   0   0   0 # oc13
   3232     68   3 -0.930000    41.164560721     7.644240227    22.202087179   0   0   0 # oc13
   3233     68   3 -0.930000    43.873760652     7.419841540    22.196489684   0   0   0 # oc13
   3234     68   5 -0.820000    40.015553742    11.278462187    27.903038999   0   0   0 # o*
   3235     68   6  0.410000    40.332605056    13.822504115    24.823259273   0   0   0 # h*
   3236     68   6  0.410000    40.666616270    12.373320547    24.654904704   0   0   0 # h*
   3237     68   6  0.410000    39.387396425    10.546804817    27.728846518   0   0   0 # h*
   3238     68   6  0.410000    39.457733860    12.052208164    27.666951214   0   0   0 # h*
   3239     68   6  0.410000    43.055674769     8.539327172    26.448947827   0   0   0 # h*
   3240     68   6  0.410000    43.867068606     9.302790860    25.446882538   0   0   0 # h*
   3241     69   5 -0.820000     9.899102669    16.715318178    26.419727952   0   0   0 # o*
   3242     69   1  1.500000     5.883210493    16.794052597    21.975392395   0   0   0 # casl
   3243     69   1  1.500000     8.778257537    14.918251517    20.002308858   0   0   0 # casl
   3244     69   2  1.000000     5.956431592    16.456471708    18.896822411   0   0   0 # sc2
   3245     69   2  1.000000     5.917004718    20.751696232    18.894023664   0   0   0 # sc2
   3246     69   3 -0.620000     5.967696221    17.384636418    17.486277505   0   0   0 # oc13
   3247     69   4 -0.620000     6.012755410    22.381819106    18.309095471   0   0   0 # oc12
   3248     69   3 -0.930000     7.206821580    16.884080202    19.786809063   0   0   0 # oc13
   3249     69   3 -0.930000     4.649717785    16.682065758    19.772815327   0   0   0 # oc13
   3250     69   3 -0.620000     6.007123096    19.942686952    17.497472495   0   0   0 # oc13
   3251     69   3 -0.930000     4.553967092    20.628117677    19.778412821   0   0   0 # oc13
   3252     69   1  1.500000     8.699404122    18.660175147    20.005107605   0   0   0 # casl
   3253     69   1  1.500000     5.962063906    20.477128968    21.978191142   0   0   0 # casl
   3254     69   2  1.000000     8.772625222    18.322594256    23.083677589   0   0   0 # sc2
   3255     69   2  1.000000     8.733198347    15.192818781    23.086476336   0   0   0 # sc2
   3256     69   3 -0.620000     8.783889851    19.250758967    24.494222495   0   0   0 # oc13
   3257     69   4 -0.620000     8.828949041    16.822941655    23.671404529   0   0   0 # oc12
   3258     69   3 -0.930000     7.465911415    18.548188308    22.207684673   0   0   0 # oc13
   3259     69   5 -0.820000     6.192991833    20.451950909    24.359884706   0   0   0 # o*
   3260     69   3 -0.620000     8.823316726    21.808809501    24.483027505   0   0   0 # oc13
   3261     69   3 -0.930000     7.370160721    15.069240227    22.202087179   0   0   0 # oc13
   3262     69   3 -0.930000    10.079360652    14.844841540    22.196489684   0   0   0 # oc13
   3263     69   5 -0.820000     6.221153742    18.703462187    27.903038999   0   0   0 # o*
   3264     69   6  0.410000     6.538205056    21.247504115    24.823259273   0   0   0 # h*
   3265     69   6  0.410000     6.872216270    19.798320547    24.654904704   0   0   0 # h*
   3266     69   6  0.410000     5.592996425    17.971804817    27.728846518   0   0   0 # h*
   3267     69   6  0.410000     5.663333860    19.477208164    27.666951214   0   0   0 # h*
   3268     69   6  0.410000     9.261274769    15.964327172    26.448947827   0   0   0 # h*
   3269     69   6  0.410000    10.072668606    16.727790860    25.446882538   0   0   0 # h*
   3270     70   5 -0.820000    21.163902669    16.715318178    26.419727952   0   0   0 # o*
   3271     70   1  1.500000    17.148010493    16.794052597    21.975392395   0   0   0 # casl
   3272     70   1  1.500000    20.043057537    14.918251517    20.002308858   0   0   0 # casl
   3273     70   2  1.000000    17.221231592    16.456471708    18.896822411   0   0   0 # sc2
   3274     70   2  1.000000    17.181804718    20.751696232    18.894023664   0   0   0 # sc2
   3275     70   3 -0.620000    17.232496221    17.384636418    17.486277505   0   0   0 # oc13
   3276     70   4 -0.620000    17.277555410    22.381819106    18.309095471   0   0   0 # oc12
   3277     70   3 -0.930000    18.471621580    16.884080202    19.786809063   0   0   0 # oc13
   3278     70   3 -0.930000    15.914517785    16.682065758    19.772815327   0   0   0 # oc13
   3279     70   3 -0.620000    17.271923096    19.942686952    17.497472495   0   0   0 # oc13
   3280     70   3 -0.930000    15.818767092    20.628117677    19.778412821   0   0   0 # oc13
   3281     70   1  1.500000    19.964204122    18.660175147    20.005107605   0   0   0 # casl
   3282     70   1  1.500000    17.226863906    20.477128968    21.978191142   0   0   0 # casl
   3283     70   2  1.000000    20.037425222    18.322594256    23.083677589   0   0   0 # sc2
   3284     70   2  1.000000    19.997998347    15.192818781    23.086476336   0   0   0 # sc2
   3285     70   3 -0.620000    20.048689851    19.250758967    24.494222495   0   0   0 # oc13
   3286     70   4 -0.620000    20.093749041    16.822941655    23.671404529   0   0   0 # oc12
   3287     70   3 -0.930000    18.730711415    18.548188308    22.207684673   0   0   0 # oc13
   3288     70   5 -0.820000    17.457791833    20.451950909    24.359884706   0   0   0 # o*
   3289     70   3 -0.620000    20.088116726    21.808809501    24.483027505   0   0   0 # oc13
   3290     70   3 -0.930000    18.634960721    15.069240227    22.202087179   0   0   0 # oc13
   3291     70   3 -0.930000    21.344160652    14.844841540    22.196489684   0   0   0 # oc13
   3292     70   5 -0.820000    17.485953742    18.703462187    27.903038999   0   0   0 # o*
   3293     70   6  0.410000    17.803005056    21.247504115    24.823259273   0   0   0 # h*
   3294     70   6  0.410000    18.137016270    19.798320547    24.654904704   0   0   0 # h*
   3295     70   6  0.410000    16.857796425    17.971804817    27.728846518   0   0   0 # h*
   3296     70   6  0.410000    16.928133860    19.477208164    27.666951214   0   0   0 # h*
   3297     70   6  0.410000    20.526074769    15.964327172    26.448947827   0   0   0 # h*
   3298     70   6  0.410000    21.337468606    16.727790860    25.446882538   0   0   0 # h*
   3299     71   5 -0.820000    32.428702669    16.715318178    26.419727952   0   0   0 # o*
   3300     71   1  1.500000    28.412810493    16.794052597    21.975392395   0   0   0 # casl
   3301     71   1  1.500000    31.307857537    14.918251517    20.002308858   0   0   0 # casl
   3302     71   2  1.000000    28.486031592    16.456471708    18.896822411   0   0   0 # sc2
   3303     71   2  1.000000    28.446604718    20.751696232    18.894023664   0   0   0 # sc2
   3304     71   3 -0.620000    28.497296221    17.384636418    17.486277505   0   0   0 # oc13
   3305     71   4 -0.620000    28.542355410    22.381819106    18.309095471   0   0   0 # oc12
   3306     71   3 -0.930000    29.736421580    16.884080202    19.786809063   0   0   0 # oc13
   3307     71   3 -0.930000    27.179317785    16.682065758    19.772815327   0   0   0 # oc13
   3308     71   3 -0.620000    28.536723096    19.942686952    17.497472495   0   0   0 # oc13
   3309     71   3 -0.930000    27.083567092    20.628117677    19.778412821   0   0   0 # oc13
   3310     71   1  1.500000    31.229004122    18.660175147    20.005107605   0   0   0 # casl
   3311     71   1  1.500000    28.491663906    20.477128968    21.978191142   0   0   0 # casl
   3312     71   2  1.000000    31.302225222    18.322594256    23.083677589   0   0   0 # sc2
   3313     71   2  1.000000    31.262798347    15.192818781    23.086476336   0   0   0 # sc2
   3314     71   3 -0.620000    31.313489851    19.250758967    24.494222495   0   0   0 # oc13
   3315     71   4 -0.620000    31.358549041    16.822941655    23.671404529   0   0   0 # oc12
   3316     71   3 -0.930000    29.995511415    18.548188308    22.207684673   0   0   0 # oc13
   3317     71   5 -0.820000    28.722591833    20.451950909    24.359884706   0   0   0 # o*
   3318     71   3 -0.620000    31.352916726    21.808809501    24.483027505   0   0   0 # oc13
   3319     71   3 -0.930000    29.899760721    15.069240227    22.202087179   0   0   0 # oc13
   3320     71   3 -0.930000    32.608960652    14.844841540    22.196489684   0   0   0 # oc13
   3321     71   5 -0.820000    28.750753742    18.703462187    27.903038999   0   0   0 # o*
   3322     71   6  0.410000    29.067805056    21.247504115    24.823259273   0   0   0 # h*
   3323     71   6  0.410000    29.401816270    19.798320547    24.654904704   0   0   0 # h*
   3324     71   6  0.410000    28.122596425    17.971804817    27.728846518   0   0   0 # h*
   3325     71   6  0.410000    28.192933860    19.477208164    27.666951214   0   0   0 # h*
   3326     71   6  0.410000    31.790874769    15.964327172    26.448947827   0   0   0 # h*
   3327     71   6  0.410000    32.602268606    16.727790860    25.446882538   0   0   0 # h*
   3328     72   5 -0.820000    43.693502669    16.715318178    26.419727952   0   0   0 # o*
   3329     72   1  1.500000    39.677610493    16.794052597    21.975392395   0   0   0 # casl
   3330     72   1  1.500000    42.572657537    14.918251517    20.002308858   0   0   0 # casl
   3331     72   2  1.000000    39.750831592    16.456471708    18.896822411   0   0   0 # sc2
   3332     72   2  1.000000    39.711404718    20.751696232    18.894023664   0   0   0 # sc2
   3333     72   3 -0.620000    39.762096221    17.384636418    17.486277505   0   0   0 # oc13
   3334     72   4 -0.620000    39.807155410    22.381819106    18.309095471   0   0   0 # oc12
   3335     72   3 -0.930000    41.001221580    16.884080202    19.786809063   0   0   0 # oc13
   3336     72   3 -0.930000    38.444117785    16.682065758    19.772815327   0   0   0 # oc13
   3337     72   3 -0.620000    39.801523096    19.942686952    17.497472495   0   0   0 # oc13
   3338     72   3 -0.930000    38.348367092    20.628117677    19.778412821   0   0   0 # oc13
   3339     72   1  1.500000    42.493804122    18.660175147    20.005107605   0   0   0 # casl
   3340     72   1  1.500000    39.756463906    20.477128968    21.978191142   0   0   0 # casl
   3341     72   2  1.000000    42.567025222    18.322594256    23.083677589   0   0   0 # sc2
   3342     72   2  1.000000    42.527598347    15.192818781    23.086476336   0   0   0 # sc2
   3343     72   3 -0.620000    42.578289851    19.250758967    24.494222495   0   0   0 # oc13
   3344     72   4 -0.620000    42.623349041    16.822941655    23.671404529   0   0   0 # oc12
   3345     72   3 -0.930000    41.260311415    18.548188308    22.207684673   0   0   0 # oc13
   3346     72   5 -0.820000    39.987391833    20.451950909    24.359884706   0   0   0 # o*
   3347     72   3 -0.620000    42.617716726    21.808809501    24.483027505   0   0   0 # oc13
   3348     72   3 -0.930000    41.164560721    15.069240227    22.202087179   0   0   0 # oc13
   3349     72   3 -0.930000    43.873760652    14.844841540    22.196489684   0   0   0 # oc13
   3350     72   5 -0.820000    40.015553742    18.703462187    27.903038999   0   0   0 # o*
   3351     72   6  0.410000    40.332605056    21.247504115    24.823259273   0   0   0 # h*
   3352     72   6  0.410000    40.666616270    19.798320547    24.654904704   0   0   0 # h*
   3353     72   6  0.410000    39.387396425    17.971804817    27.728846518   0   0   0 # h*
   3354     72   6  0.410000    39.457733860    19.477208164    27.666951214   0   0   0 # h*
   3355     72   6  0.410000    43.055674769    15.964327172    26.448947827   0   0   0 # h*
   3356     72   6  0.410000    43.867068606    16.727790860    25.446882538   0   0   0 # h*
   3357     73   3 -1.000000     9.544284037    27.944378142    26.638026598   0   0   0 # oc13
   3358     73   5 -0.820000     9.899102669    24.140318178    26.419727952   0   0   0 # o*
   3359     73   1  1.500000     5.883210493    24.219052597    21.975392395   0   0   0 # casl
   3360     73   1  1.500000     8.778257537    22.343251517    20.002308858   0   0   0 # casl
   3361     73   2  1.000000     5.956431592    23.881471708    18.896822411   0   0   0 # sc2
   3362     73   2  1.000000     6.773127637    26.048722262    16.906946599   0   0   0 # sc2
   3363     73   2  1.000000     5.917004718    28.176696232    18.894023664   0   0   0 # sc2
   3364     73   4 -0.620000     5.967696221    24.809636418    17.486277505   0   0   0 # oc12
   3365     73   3 -0.930000     7.206821580    24.309080202    19.786809063   0   0   0 # oc13
   3366     73   3 -0.930000     4.649717785    24.107065758    19.772815327   0   0   0 # oc13
   3367     73   7 -0.690000     8.389635608    26.013556534    17.281972492   0   0   0 # oc14
   3368     73   4 -0.620000     6.007123096    27.367686952    17.497472495   0   0   0 # oc12
   3369     73   3 -0.930000     4.553967092    28.053117677    19.778412821   0   0   0 # oc13
   3370     73   1  1.500000     8.699404122    26.085175147    20.005107605   0   0   0 # casl
   3371     73   1  1.500000     5.962063906    27.902128968    21.978191142   0   0   0 # casl
   3372     73   2  1.000000     8.772625222    25.747594256    23.083677589   0   0   0 # sc2
   3373     73   2  1.000000     9.589321267    27.914844812    25.073553401   0   0   0 # sc2
   3374     73   2  1.000000     8.733198347    22.617818781    23.086476336   0   0   0 # sc2
   3375     73   4 -0.620000     8.783889851    26.675758967    24.494222495   0   0   0 # oc12
   3376     73   4 -0.620000     8.828949041    24.247941655    23.671404529   0   0   0 # oc12
   3377     73   3 -0.930000     7.465911415    25.973188308    22.207684673   0   0   0 # oc13
   3378     73   7 -0.690000    11.205829237    27.879679084    24.698527508   0   0   0 # oc14
   3379     73   5 -0.820000     6.192991833    27.876950909    24.359884706   0   0   0 # o*
   3380     73   4 -0.620000     8.823316726    29.233809501    24.483027505   0   0   0 # oc12
   3381     73   3 -0.930000     7.370160721    22.494240227    22.202087179   0   0   0 # oc13
   3382     73   3 -0.930000    10.079360652    22.269841540    22.196489684   0   0   0 # oc13
   3383     73   5 -0.820000     6.221153742    26.128462187    27.903038999   0   0   0 # o*
   3384     73   3 -1.000000     6.728068783    26.078264141    15.342473402   0   0   0 # oc13
   3385     73   8  0.420000    11.801696210    27.945504842    25.423346563   0   0   0 # hoy
   3386     73   8  0.420000     8.981954910    26.091952736    16.556567616   0   0   0 # hoy
   3387     73   6  0.410000     6.538205056    28.672504115    24.823259273   0   0   0 # h*
   3388     73   6  0.410000     6.872216270    27.223320547    24.654904704   0   0   0 # h*
   3389     73   6  0.410000     5.592996425    25.396804817    27.728846518   0   0   0 # h*
   3390     73   6  0.410000     5.663333860    26.902208164    27.666951214   0   0   0 # h*
   3391     73   6  0.410000     9.261274769    23.389327172    26.448947827   0   0   0 # h*
   3392     73   6  0.410000    10.072668606    24.152790860    25.446882538   0   0   0 # h*
   3393     74   5 -0.820000    21.163902669    24.140318178    26.419727952   0   0   0 # o*
   3394     74   1  1.500000    17.148010493    24.219052597    21.975392395   0   0   0 # casl
   3395     74   1  1.500000    20.043057537    22.343251517    20.002308858   0   0   0 # casl
   3396     74   2  1.000000    17.221231592    23.881471708    18.896822411   0   0   0 # sc2
   3397     74   2  1.000000    17.181804718    28.176696232    18.894023664   0   0   0 # sc2
   3398     74   3 -0.620000    17.232496221    24.809636418    17.486277505   0   0   0 # oc13
   3399     74   3 -0.930000    18.471621580    24.309080202    19.786809063   0   0   0 # oc13
   3400     74   3 -0.930000    15.914517785    24.107065758    19.772815327   0   0   0 # oc13
   3401     74   3 -0.620000    17.271923096    27.367686952    17.497472495   0   0   0 # oc13
   3402     74   3 -0.930000    15.818767092    28.053117677    19.778412821   0   0   0 # oc13
   3403     74   1  1.500000    19.964204122    26.085175147    20.005107605   0   0   0 # casl
   3404     74   1  1.500000    17.226863906    27.902128968    21.978191142   0   0   0 # casl
   3405     74   2  1.000000    20.037425222    25.747594256    23.083677589   0   0   0 # sc2
   3406     74   2  1.000000    19.997998347    22.617818781    23.086476336   0   0   0 # sc2
   3407     74   3 -0.620000    20.048689851    26.675758967    24.494222495   0   0   0 # oc13
   3408     74   4 -0.620000    20.093749041    24.247941655    23.671404529   0   0   0 # oc12
   3409     74   3 -0.930000    18.730711415    25.973188308    22.207684673   0   0   0 # oc13
   3410     74   5 -0.820000    17.457791833    27.876950909    24.359884706   0   0   0 # o*
   3411     74   3 -0.620000    20.088116726    29.233809501    24.483027505   0   0   0 # oc13
   3412     74   3 -0.930000    18.634960721    22.494240227    22.202087179   0   0   0 # oc13
   3413     74   3 -0.930000    21.344160652    22.269841540    22.196489684   0   0   0 # oc13
   3414     74   5 -0.820000    17.485953742    26.128462187    27.903038999   0   0   0 # o*
   3415     74   6  0.410000    17.803005056    28.672504115    24.823259273   0   0   0 # h*
   3416     74   6  0.410000    18.137016270    27.223320547    24.654904704   0   0   0 # h*
   3417     74   6  0.410000    16.857796425    25.396804817    27.728846518   0   0   0 # h*
   3418     74   6  0.410000    16.928133860    26.902208164    27.666951214   0   0   0 # h*
   3419     74   6  0.410000    20.526074769    23.389327172    26.448947827   0   0   0 # h*
   3420     74   6  0.410000    21.337468606    24.152790860    25.446882538   0   0   0 # h*
   3421     75   5 -0.820000    32.428702669    24.140318178    26.419727952   0   0   0 # o*
   3422     75   1  1.500000    28.412810493    24.219052597    21.975392395   0   0   0 # casl
   3423     75   1  1.500000    31.307857537    22.343251517    20.002308858   0   0   0 # casl
   3424     75   2  1.000000    28.486031592    23.881471708    18.896822411   0   0   0 # sc2
   3425     75   2  1.000000    28.446604718    28.176696232    18.894023664   0   0   0 # sc2
   3426     75   3 -0.620000    28.497296221    24.809636418    17.486277505   0   0   0 # oc13
   3427     75   3 -0.930000    29.736421580    24.309080202    19.786809063   0   0   0 # oc13
   3428     75   3 -0.930000    27.179317785    24.107065758    19.772815327   0   0   0 # oc13
   3429     75   3 -0.620000    28.536723096    27.367686952    17.497472495   0   0   0 # oc13
   3430     75   3 -0.930000    27.083567092    28.053117677    19.778412821   0   0   0 # oc13
   3431     75   1  1.500000    31.229004122    26.085175147    20.005107605   0   0   0 # casl
   3432     75   1  1.500000    28.491663906    27.902128968    21.978191142   0   0   0 # casl
   3433     75   2  1.000000    31.302225222    25.747594256    23.083677589   0   0   0 # sc2
   3434     75   2  1.000000    31.262798347    22.617818781    23.086476336   0   0   0 # sc2
   3435     75   3 -0.620000    31.313489851    26.675758967    24.494222495   0   0   0 # oc13
   3436     75   4 -0.620000    31.358549041    24.247941655    23.671404529   0   0   0 # oc12
   3437     75   3 -0.930000    29.995511415    25.973188308    22.207684673   0   0   0 # oc13
   3438     75   5 -0.820000    28.722591833    27.876950909    24.359884706   0   0   0 # o*
   3439     75   3 -0.620000    31.352916726    29.233809501    24.483027505   0   0   0 # oc13
   3440     75   3 -0.930000    29.899760721    22.494240227    22.202087179   0   0   0 # oc13
   3441     75   3 -0.930000    32.608960652    22.269841540    22.196489684   0   0   0 # oc13
   3442     75   5 -0.820000    28.750753742    26.128462187    27.903038999   0   0   0 # o*
   3443     75   6  0.410000    29.067805056    28.672504115    24.823259273   0   0   0 # h*
   3444     75   6  0.410000    29.401816270    27.223320547    24.654904704   0   0   0 # h*
   3445     75   6  0.410000    28.122596425    25.396804817    27.728846518   0   0   0 # h*
   3446     75   6  0.410000    28.192933860    26.902208164    27.666951214   0   0   0 # h*
   3447     75   6  0.410000    31.790874769    23.389327172    26.448947827   0   0   0 # h*
   3448     75   6  0.410000    32.602268606    24.152790860    25.446882538   0   0   0 # h*
   3449     76   3 -1.000000    43.338684037    27.944378142    26.638026598   0   0   0 # oc13
   3450     76   5 -0.820000    43.693502669    24.140318178    26.419727952   0   0   0 # o*
   3451     76   1  1.500000    39.677610493    24.219052597    21.975392395   0   0   0 # casl
   3452     76   1  1.500000    42.572657537    22.343251517    20.002308858   0   0   0 # casl
   3453     76   2  1.000000    39.750831592    23.881471708    18.896822411   0   0   0 # sc2
   3454     76   2  1.000000    40.567527637    26.048722262    16.906946599   0   0   0 # sc2
   3455     76   2  1.000000    39.711404718    28.176696232    18.894023664   0   0   0 # sc2
   3456     76   4 -0.620000    39.762096221    24.809636418    17.486277505   0   0   0 # oc12
   3457     76   3 -0.930000    41.001221580    24.309080202    19.786809063   0   0   0 # oc13
   3458     76   3 -0.930000    38.444117785    24.107065758    19.772815327   0   0   0 # oc13
   3459     76   3 -0.690000    42.184035608    26.013556534    17.281972492   0   0   0 # oc13
   3460     76   4 -0.620000    39.801523096    27.367686952    17.497472495   0   0   0 # oc12
   3461     76   3 -0.930000    38.348367092    28.053117677    19.778412821   0   0   0 # oc13
   3462     76   1  1.500000    42.493804122    26.085175147    20.005107605   0   0   0 # casl
   3463     76   1  1.500000    39.756463906    27.902128968    21.978191142   0   0   0 # casl
   3464     76   2  1.000000    42.567025222    25.747594256    23.083677589   0   0   0 # sc2
   3465     76   2  1.000000    43.383721267    27.914844812    25.073553401   0   0   0 # sc2
   3466     76   2  1.000000    42.527598347    22.617818781    23.086476336   0   0   0 # sc2
   3467     76   4 -0.620000    42.578289851    26.675758967    24.494222495   0   0   0 # oc12
   3468     76   4 -0.620000    42.623349041    24.247941655    23.671404529   0   0   0 # oc12
   3469     76   3 -0.930000    41.260311415    25.973188308    22.207684673   0   0   0 # oc13
   3470     76   7 -0.690000    -0.058970763    27.879679084    24.698527508   1   0   0 # oc14
   3471     76   5 -0.820000    39.987391833    27.876950909    24.359884706   0   0   0 # o*
   3472     76   4 -0.620000    42.617716726    29.233809501    24.483027505   0   0   0 # oc12
   3473     76   3 -0.930000    41.164560721    22.494240227    22.202087179   0   0   0 # oc13
   3474     76   3 -0.930000    43.873760652    22.269841540    22.196489684   0   0   0 # oc13
   3475     76   5 -0.820000    40.015553742    26.128462187    27.903038999   0   0   0 # o*
   3476     76   3 -1.000000    40.522468783    26.078264141    15.342473402   0   0   0 # oc13
   3477     76   8  0.420000     0.536896210    27.945504842    25.423346563   1   0   0 # hoy
   3478     76   6  0.410000    40.332605056    28.672504115    24.823259273   0   0   0 # h*
   3479     76   6  0.410000    40.666616270    27.223320547    24.654904704   0   0   0 # h*
   3480     76   6  0.410000    39.387396425    25.396804817    27.728846518   0   0   0 # h*
   3481     76   6  0.410000    39.457733860    26.902208164    27.666951214   0   0   0 # h*
   3482     76   6  0.410000    43.055674769    23.389327172    26.448947827   0   0   0 # h*
   3483     76   6  0.410000    43.867068606    24.152790860    25.446882538   0   0   0 # h*
   3484     77   4 -0.620000     6.012755410     0.106819106    18.309095471   0   0   0 # oc12
   3485     78   4 -0.620000    17.277555410     0.106819106    18.309095471   0   0   0 # oc12
   3486     79   4 -0.620000    28.542355410     0.106819106    18.309095471   0   0   0 # oc12
   3487     80   4 -0.620000    39.807155410     0.106819106    18.309095471   0   0   0 # oc12
   3488     81   3 -0.930000    10.079360652    -0.005158460    22.196489684   0   1   0 # oc13
   3489     82   3 -0.930000    10.079360652    -0.005158460    50.183489684   0   1   0 # oc13
   3490     82   5 -0.820000     7.082909040    -0.000804371    43.547772048   0   1   0 # o*
   3491     82   6  0.410000     6.458538157    28.946129347    43.636539152   0   0   0 # h*
   3492     82   6  0.410000     7.352432975     0.076384613    44.494602957   0   1   0 # h*
   3493     83   3 -0.930000    21.344160652    -0.005158460    22.196489684   0   1   0 # oc13
   3494     84   3 -0.930000    21.344160652    -0.005158460    50.183489684   0   1   0 # oc13
   3495     84   5 -0.820000    18.347709040    -0.000804371    43.547772048   0   1   0 # o*
   3496     84   6  0.410000    17.723338157    28.946129347    43.636539152   0   0   0 # h*
   3497     84   6  0.410000    18.617232975     0.076384613    44.494602957   0   1   0 # h*
   3498     85   3 -0.930000    32.608960652    -0.005158460    22.196489684   0   1   0 # oc13
   3499     86   3 -0.930000    32.608960652    -0.005158460    50.183489684   0   1   0 # oc13
   3500     86   5 -0.820000    29.612509040    -0.000804371    43.547772048   0   1   0 # o*
   3501     86   6  0.410000    28.988138157    28.946129347    43.636539152   0   0   0 # h*
   3502     86   6  0.410000    29.882032975     0.076384613    44.494602957   0   1   0 # h*
   3503     87   3 -0.930000    43.873760652    -0.005158460    22.196489684   0   1   0 # oc13
   3504     88   3 -0.930000    43.873760652    -0.005158460    50.183489684   0   1   0 # oc13
   3505     88   5 -0.820000    40.877309040    -0.000804371    43.547772048   0   1   0 # o*
   3506     88   8  0.420000    42.757949620    29.333544688    39.323226581   0   0   0 # hoy
   3507     88   6  0.410000    40.252938157    28.946129347    43.636539152   0   0   0 # h*
   3508     88   6  0.410000    41.146832975     0.076384613    44.494602957   0   1   0 # h*
   3509     89   3 -0.930000     4.446951768     7.400104989    33.777510316   0   0   0 # oc13
   3510     89   3 -0.930000     1.630758139     9.246482439    47.771010316   0   0   0 # oc13
   3511     89   3 -0.930000     4.390595360    15.017949476    50.180690937   0   0   0 # oc13
   3512     89   3 -0.930000     1.574401730     9.439326927    36.187190937   0   0   0 # oc13
   3513     90   3 -0.930000    15.711751768     7.400104989    33.777510316   0   0   0 # oc13
   3514     90   3 -0.930000    12.895558139     9.246482439    47.771010316   0   0   0 # oc13
   3515     90   3 -0.930000    15.655395360    15.017949476    50.180690937   0   0   0 # oc13
   3516     90   3 -0.930000    12.839201730     9.439326927    36.187190937   0   0   0 # oc13
   3517     91   3 -0.930000    26.976551768     7.400104989    33.777510316   0   0   0 # oc13
   3518     91   3 -0.930000    24.160358139     9.246482439    47.771010316   0   0   0 # oc13
   3519     91   3 -0.930000    26.920195360    15.017949476    50.180690937   0   0   0 # oc13
   3520     91   3 -0.930000    24.104001730     9.439326927    36.187190937   0   0   0 # oc13
   3521     92   3 -0.930000    38.241351768     7.400104989    33.777510316   0   0   0 # oc13
   3522     92   3 -0.930000    35.425158139     9.246482439    47.771010316   0   0   0 # oc13
   3523     92   3 -0.930000    38.184995360    15.017949476    50.180690937   0   0   0 # oc13
   3524     92   3 -0.930000    35.368801730     9.439326927    36.187190937   0   0   0 # oc13
   3525     93   3 -0.930000     4.446951768    14.825104989    33.777510316   0   0   0 # oc13
   3526     93   3 -0.930000     1.630758139    16.671482439    47.771010316   0   0   0 # oc13
   3527     93   3 -0.930000     4.390595360    22.442949476    50.180690937   0   0   0 # oc13
   3528     93   3 -0.930000     1.574401730    16.864326927    36.187190937   0   0   0 # oc13
   3529     94   3 -0.930000    15.711751768    14.825104989    33.777510316   0   0   0 # oc13
   3530     94   3 -0.930000    12.895558139    16.671482439    47.771010316   0   0   0 # oc13
   3531     94   3 -0.930000    15.655395360    22.442949476    50.180690937   0   0   0 # oc13
   3532     94   3 -0.930000    12.839201730    16.864326927    36.187190937   0   0   0 # oc13
   3533     95   3 -0.930000    26.976551768    14.825104989    33.777510316   0   0   0 # oc13
   3534     95   3 -0.930000    24.160358139    16.671482439    47.771010316   0   0   0 # oc13
   3535     95   3 -0.930000    26.920195360    22.442949476    50.180690937   0   0   0 # oc13
   3536     95   3 -0.930000    24.104001730    16.864326927    36.187190937   0   0   0 # oc13
   3537     96   3 -0.930000    38.241351768    14.825104989    33.777510316   0   0   0 # oc13
   3538     96   3 -0.930000    35.425158139    16.671482439    47.771010316   0   0   0 # oc13
   3539     96   3 -0.930000    38.184995360    22.442949476    50.180690937   0   0   0 # oc13
   3540     96   3 -0.930000    35.368801730    16.864326927    36.187190937   0   0   0 # oc13
   3541     97   3 -0.930000     4.446951768    22.250104989    33.777510316   0   0   0 # oc13
   3542     97   3 -0.930000     1.630758139    24.096482439    47.771010316   0   0   0 # oc13
   3543     97   3 -0.930000     1.574401730    24.289326927    36.187190937   0   0   0 # oc13
   3544     98   3 -0.930000    15.711751768    22.250104989    33.777510316   0   0   0 # oc13
   3545     98   3 -0.930000    12.895558139    24.096482439    47.771010316   0   0   0 # oc13
   3546     98   3 -0.930000    12.839201730    24.289326927    36.187190937   0   0   0 # oc13
   3547     99   3 -0.930000    26.976551768    22.250104989    33.777510316   0   0   0 # oc13
   3548     99   3 -0.930000    24.160358139    24.096482439    47.771010316   0   0   0 # oc13
   3549     99   3 -0.930000    24.104001730    24.289326927    36.187190937   0   0   0 # oc13
   3550    100   3 -0.930000    38.241351768    22.250104989    33.777510316   0   0   0 # oc13
   3551    100   3 -0.930000    35.425158139    24.096482439    47.771010316   0   0   0 # oc13
   3552    100   3 -0.930000    35.368801730    24.289326927    36.187190937   0   0   0 # oc13
   3553    101   3 -0.930000     4.446951768    -0.024895011    33.777510316   0   1   0 # oc13
   3554    102   3 -0.930000    15.711751768    -0.024895011    33.777510316   0   1   0 # oc13
   3555    103   3 -0.930000    26.976551768    -0.024895011    33.777510316   0   1   0 # oc13
   3556    104   3 -0.930000    38.241351768    -0.024895011    33.777510316   0   1   0 # oc13
   3557    105   3 -0.930000     1.630758139     1.821482439    19.784010316   0   0   0 # oc13
   3558    105   3 -0.930000     4.390595360     7.592949476    22.193690937   0   0   0 # oc13
   3559    106   3 -0.930000     1.630758139     1.821482439    47.771010316   0   0   0 # oc13
   3560    106   3 -0.930000     4.390595360     7.592949476    50.180690937   0   0   0 # oc13
   3561    106   3 -0.930000     1.574401730     2.014326927    36.187190937   0   0   0 # oc13
   3562    107   3 -0.930000    12.895558139     1.821482439    19.784010316   0   0   0 # oc13
   3563    107   3 -0.930000    15.655395360     7.592949476    22.193690937   0   0   0 # oc13
   3564    108   3 -0.930000    12.895558139     1.821482439    47.771010316   0   0   0 # oc13
   3565    108   3 -0.930000    15.655395360     7.592949476    50.180690937   0   0   0 # oc13
   3566    108   3 -0.930000    12.839201730     2.014326927    36.187190937   0   0   0 # oc13
   3567    109   3 -0.930000    24.160358139     1.821482439    19.784010316   0   0   0 # oc13
   3568    109   3 -0.930000    26.920195360     7.592949476    22.193690937   0   0   0 # oc13
   3569    110   3 -0.930000    24.160358139     1.821482439    47.771010316   0   0   0 # oc13
   3570    110   3 -0.930000    26.920195360     7.592949476    50.180690937   0   0   0 # oc13
   3571    110   3 -0.930000    24.104001730     2.014326927    36.187190937   0   0   0 # oc13
   3572    111   3 -0.930000    35.425158139     1.821482439    19.784010316   0   0   0 # oc13
   3573    111   3 -0.930000    38.184995360     7.592949476    22.193690937   0   0   0 # oc13
   3574    112   3 -0.930000    35.425158139     1.821482439    47.771010316   0   0   0 # oc13
   3575    112   3 -0.930000    38.184995360     7.592949476    50.180690937   0   0   0 # oc13
   3576    112   3 -0.930000    35.368801730     2.014326927    36.187190937   0   0   0 # oc13
   3577    113   3 -0.930000     1.630758139     9.246482439    19.784010316   0   0   0 # oc13
   3578    113   3 -0.930000     4.390595360    15.017949476    22.193690937   0   0   0 # oc13
   3579    114   3 -0.930000    12.895558139     9.246482439    19.784010316   0   0   0 # oc13
   3580    114   3 -0.930000    15.655395360    15.017949476    22.193690937   0   0   0 # oc13
   3581    115   3 -0.930000    24.160358139     9.246482439    19.784010316   0   0   0 # oc13
   3582    115   3 -0.930000    26.920195360    15.017949476    22.193690937   0   0   0 # oc13
   3583    116   3 -0.930000    35.425158139     9.246482439    19.784010316   0   0   0 # oc13
   3584    116   3 -0.930000    38.184995360    15.017949476    22.193690937   0   0   0 # oc13
   3585    117   3 -0.930000     1.630758139    16.671482439    19.784010316   0   0   0 # oc13
   3586    117   3 -0.930000     4.390595360    22.442949476    22.193690937   0   0   0 # oc13
   3587    118   3 -0.930000    12.895558139    16.671482439    19.784010316   0   0   0 # oc13
   3588    118   3 -0.930000    15.655395360    22.442949476    22.193690937   0   0   0 # oc13
   3589    119   3 -0.930000    24.160358139    16.671482439    19.784010316   0   0   0 # oc13
   3590    119   3 -0.930000    26.920195360    22.442949476    22.193690937   0   0   0 # oc13
   3591    120   3 -0.930000    35.425158139    16.671482439    19.784010316   0   0   0 # oc13
   3592    120   3 -0.930000    38.184995360    22.442949476    22.193690937   0   0   0 # oc13
   3593    121   3 -0.930000     1.630758139    24.096482439    19.784010316   0   0   0 # oc13
   3594    122   3 -0.930000    12.895558139    24.096482439    19.784010316   0   0   0 # oc13
   3595    123   3 -0.930000    24.160358139    24.096482439    19.784010316   0   0   0 # oc13
   3596    124   3 -0.930000    35.425158139    24.096482439    19.784010316   0   0   0 # oc13
   3597    125   3 -0.930000     4.390595360     0.167949476    22.193690937   0   0   0 # oc13
   3598    126   3 -0.930000     4.390595360     0.167949476    50.180690937   0   0   0 # oc13
   3599    127   3 -0.930000    15.655395360     0.167949476    22.193690937   0   0   0 # oc13
   3600    128   3 -0.930000    15.655395360     0.167949476    50.180690937   0   0   0 # oc13
   3601    129   3 -0.930000    26.920195360     0.167949476    22.193690937   0   0   0 # oc13
   3602    130   3 -0.930000    26.920195360     0.167949476    50.180690937   0   0   0 # oc13
   3603    131   3 -0.930000    38.184995360     0.167949476    22.193690937   0   0   0 # oc13
   3604    132   3 -0.930000    38.184995360     0.167949476    50.180690937   0   0   0 # oc13
   3605    133   3 -0.930000    10.079339028     3.707350088    33.777510316   0   0   0 # oc13
   3606    133   3 -0.930000     7.263145398     5.553727538    47.771010316   0   0   0 # oc13
   3607    133   3 -0.930000    10.022982620     3.900194576    50.180690937   0   0   0 # oc13
   3608    133   3 -0.930000     7.206788990     5.746572026    36.187190937   0   0   0 # oc13
   3609    134   3 -0.930000    21.344139028     3.707350088    33.777510316   0   0   0 # oc13
   3610    134   3 -0.930000    18.527945398     5.553727538    47.771010316   0   0   0 # oc13
   3611    134   3 -0.930000    21.287782620     3.900194576    50.180690937   0   0   0 # oc13
   3612    134   3 -0.930000    18.471588990     5.746572026    36.187190937   0   0   0 # oc13
   3613    135   3 -0.930000    32.608939028     3.707350088    33.777510316   0   0   0 # oc13
   3614    135   3 -0.930000    29.792745398     5.553727538    47.771010316   0   0   0 # oc13
   3615    135   3 -0.930000    32.552582620     3.900194576    50.180690937   0   0   0 # oc13
   3616    135   3 -0.930000    29.736388990     5.746572026    36.187190937   0   0   0 # oc13
   3617    136   3 -0.930000    43.873739028     3.707350088    33.777510316   0   0   0 # oc13
   3618    136   3 -0.930000    41.057545398     5.553727538    47.771010316   0   0   0 # oc13
   3619    136   3 -0.930000    43.817382620     3.900194576    50.180690937   0   0   0 # oc13
   3620    136   3 -0.930000    41.001188990     5.746572026    36.187190937   0   0   0 # oc13
   3621    137   3 -0.930000    10.079339028    11.132350088    33.777510316   0   0   0 # oc13
   3622    137   3 -0.930000     7.263145398    12.978727538    47.771010316   0   0   0 # oc13
   3623    137   3 -0.930000    10.022982620    11.325194576    50.180690937   0   0   0 # oc13
   3624    137   3 -0.930000     7.206788990    13.171572026    36.187190937   0   0   0 # oc13
   3625    138   3 -0.930000    21.344139028    11.132350088    33.777510316   0   0   0 # oc13
   3626    138   3 -0.930000    18.527945398    12.978727538    47.771010316   0   0   0 # oc13
   3627    138   3 -0.930000    21.287782620    11.325194576    50.180690937   0   0   0 # oc13
   3628    138   3 -0.930000    18.471588990    13.171572026    36.187190937   0   0   0 # oc13
   3629    139   3 -0.930000    32.608939028    11.132350088    33.777510316   0   0   0 # oc13
   3630    139   3 -0.930000    29.792745398    12.978727538    47.771010316   0   0   0 # oc13
   3631    139   3 -0.930000    32.552582620    11.325194576    50.180690937   0   0   0 # oc13
   3632    139   3 -0.930000    29.736388990    13.171572026    36.187190937   0   0   0 # oc13
   3633    140   3 -0.930000    43.873739028    11.132350088    33.777510316   0   0   0 # oc13
   3634    140   3 -0.930000    41.057545398    12.978727538    47.771010316   0   0   0 # oc13
   3635    140   3 -0.930000    43.817382620    11.325194576    50.180690937   0   0   0 # oc13
   3636    140   3 -0.930000    41.001188990    13.171572026    36.187190937   0   0   0 # oc13
   3637    141   3 -0.930000    10.079339028    18.557350088    33.777510316   0   0   0 # oc13
   3638    141   3 -0.930000     7.263145398    20.403727538    47.771010316   0   0   0 # oc13
   3639    141   3 -0.930000    10.022982620    18.750194576    50.180690937   0   0   0 # oc13
   3640    141   3 -0.930000     7.206788990    20.596572026    36.187190937   0   0   0 # oc13
   3641    142   3 -0.930000    21.344139028    18.557350088    33.777510316   0   0   0 # oc13
   3642    142   3 -0.930000    18.527945398    20.403727538    47.771010316   0   0   0 # oc13
   3643    142   3 -0.930000    21.287782620    18.750194576    50.180690937   0   0   0 # oc13
   3644    142   3 -0.930000    18.471588990    20.596572026    36.187190937   0   0   0 # oc13
   3645    143   3 -0.930000    32.608939028    18.557350088    33.777510316   0   0   0 # oc13
   3646    143   3 -0.930000    29.792745398    20.403727538    47.771010316   0   0   0 # oc13
   3647    143   3 -0.930000    32.552582620    18.750194576    50.180690937   0   0   0 # oc13
   3648    143   3 -0.930000    29.736388990    20.596572026    36.187190937   0   0   0 # oc13
   3649    144   3 -0.930000    43.873739028    18.557350088    33.777510316   0   0   0 # oc13
   3650    144   3 -0.930000    41.057545398    20.403727538    47.771010316   0   0   0 # oc13
   3651    144   3 -0.930000    43.817382620    18.750194576    50.180690937   0   0   0 # oc13
   3652    144   3 -0.930000    41.001188990    20.596572026    36.187190937   0   0   0 # oc13
   3653    145   3 -0.930000    10.079339028    25.982350088    33.777510316   0   0   0 # oc13
   3654    145   3 -0.930000     7.263145398    27.828727538    47.771010316   0   0   0 # oc13
   3655    145   3 -0.930000    10.022982620    26.175194576    50.180690937   0   0   0 # oc13
   3656    145   3 -0.930000     7.206788990    28.021572026    36.187190937   0   0   0 # oc13
   3657    146   3 -0.930000    21.344139028    25.982350088    33.777510316   0   0   0 # oc13
   3658    146   3 -0.930000    18.527945398    27.828727538    47.771010316   0   0   0 # oc13
   3659    146   3 -0.930000    21.287782620    26.175194576    50.180690937   0   0   0 # oc13
   3660    146   3 -0.930000    18.471588990    28.021572026    36.187190937   0   0   0 # oc13
   3661    147   3 -0.930000    32.608939028    25.982350088    33.777510316   0   0   0 # oc13
   3662    147   3 -0.930000    29.792745398    27.828727538    47.771010316   0   0   0 # oc13
   3663    147   3 -0.930000    32.552582620    26.175194576    50.180690937   0   0   0 # oc13
   3664    147   3 -0.930000    29.736388990    28.021572026    36.187190937   0   0   0 # oc13
   3665    148   3 -0.930000    43.873739028    25.982350088    33.777510316   0   0   0 # oc13
   3666    148   3 -0.930000    41.057545398    27.828727538    47.771010316   0   0   0 # oc13
   3667    148   3 -0.930000    43.817382620    26.175194576    50.180690937   0   0   0 # oc13
   3668    148   3 -0.930000    41.001188990    28.021572026    36.187190937   0   0   0 # oc13
   3669    149   3 -0.930000     7.263145398     5.553727538    19.784010316   0   0   0 # oc13
   3670    149   3 -0.930000    10.022982620     3.900194576    22.193690937   0   0   0 # oc13
   3671    150   3 -0.930000    18.527945398     5.553727538    19.784010316   0   0   0 # oc13
   3672    150   3 -0.930000    21.287782620     3.900194576    22.193690937   0   0   0 # oc13
   3673    151   3 -0.930000    29.792745398     5.553727538    19.784010316   0   0   0 # oc13
   3674    151   3 -0.930000    32.552582620     3.900194576    22.193690937   0   0   0 # oc13
   3675    152   3 -0.930000    41.057545398     5.553727538    19.784010316   0   0   0 # oc13
   3676    152   3 -0.930000    43.817382620     3.900194576    22.193690937   0   0   0 # oc13
   3677    153   3 -0.930000     7.263145398    12.978727538    19.784010316   0   0   0 # oc13
   3678    153   3 -0.930000    10.022982620    11.325194576    22.193690937   0   0   0 # oc13
   3679    154   3 -0.930000    18.527945398    12.978727538    19.784010316   0   0   0 # oc13
   3680    154   3 -0.930000    21.287782620    11.325194576    22.193690937   0   0   0 # oc13
   3681    155   3 -0.930000    29.792745398    12.978727538    19.784010316   0   0   0 # oc13
   3682    155   3 -0.930000    32.552582620    11.325194576    22.193690937   0   0   0 # oc13
   3683    156   3 -0.930000    41.057545398    12.978727538    19.784010316   0   0   0 # oc13
   3684    156   3 -0.930000    43.817382620    11.325194576    22.193690937   0   0   0 # oc13
   3685    157   3 -0.930000     7.263145398    20.403727538    19.784010316   0   0   0 # oc13
   3686    157   3 -0.930000    10.022982620    18.750194576    22.193690937   0   0   0 # oc13
   3687    158   3 -0.930000    18.527945398    20.403727538    19.784010316   0   0   0 # oc13
   3688    158   3 -0.930000    21.287782620    18.750194576    22.193690937   0   0   0 # oc13
   3689    159   3 -0.930000    29.792745398    20.403727538    19.784010316   0   0   0 # oc13
   3690    159   3 -0.930000    32.552582620    18.750194576    22.193690937   0   0   0 # oc13
   3691    160   3 -0.930000    41.057545398    20.403727538    19.784010316   0   0   0 # oc13
   3692    160   3 -0.930000    43.817382620    18.750194576    22.193690937   0   0   0 # oc13
   3693    161   3 -0.930000     7.263145398    27.828727538    19.784010316   0   0   0 # oc13
   3694    161   3 -0.930000    10.022982620    26.175194576    22.193690937   0   0   0 # oc13
   3695    162   3 -0.930000    18.527945398    27.828727538    19.784010316   0   0   0 # oc13
   3696    162   3 -0.930000    21.287782620    26.175194576    22.193690937   0   0   0 # oc13
   3697    163   3 -0.930000    29.792745398    27.828727538    19.784010316   0   0   0 # oc13
   3698    163   3 -0.930000    32.552582620    26.175194576    22.193690937   0   0   0 # oc13
   3699    164   3 -0.930000    41.057545398    27.828727538    19.784010316   0   0   0 # oc13
   3700    164   3 -0.930000    43.817382620    26.175194576    22.193690937   0   0   0 # oc13
   3701      1   1  1.700000     3.956934007     5.620099712    30.900446599   0   0   0 # casl
   3702      1   1  1.700000     1.140740378     7.466477163    44.893946599   0   0   0 # casl
   3703      1   1  1.700000     3.956934007     1.907599713    53.060553401   0   0   0 # casl
   3704      1   1  1.700000     1.140740377     3.753977163    39.067053401   0   0   0 # casl
   3705      2   1  1.700000    15.221734007     5.620099712    30.900446599   0   0   0 # casl
   3706      2   1  1.700000    12.405540378     7.466477163    44.893946599   0   0   0 # casl
   3707      2   1  1.700000    15.221734007     1.907599713    53.060553401   0   0   0 # casl
   3708      2   1  1.700000    12.405540377     3.753977163    39.067053401   0   0   0 # casl
   3709      3   1  1.700000    26.486534007     5.620099712    30.900446599   0   0   0 # casl
   3710      3   1  1.700000    23.670340378     7.466477163    44.893946599   0   0   0 # casl
   3711      3   1  1.700000    26.486534007     1.907599713    53.060553401   0   0   0 # casl
   3712      3   1  1.700000    23.670340377     3.753977163    39.067053401   0   0   0 # casl
   3713      4   1  1.700000    37.751334007     5.620099712    30.900446599   0   0   0 # casl
   3714      4   1  1.700000    34.935140378     7.466477163    44.893946599   0   0   0 # casl
   3715      4   1  1.700000    37.751334007     1.907599713    53.060553401   0   0   0 # casl
   3716      4   1  1.700000    34.935140377     3.753977163    39.067053401   0   0   0 # casl
   3717      5   1  1.700000     3.956934007    13.045099712    30.900446599   0   0   0 # casl
   3718      5   1  1.700000     1.140740378    14.891477163    44.893946599   0   0   0 # casl
   3719      5   1  1.700000     3.956934007     9.332599713    53.060553401   0   0   0 # casl
   3720      5   1  1.700000     1.140740377    11.178977163    39.067053401   0   0   0 # casl
   3721      6   1  1.700000    15.221734007    13.045099712    30.900446599   0   0   0 # casl
   3722      6   1  1.700000    12.405540378    14.891477163    44.893946599   0   0   0 # casl
   3723      6   1  1.700000    15.221734007     9.332599713    53.060553401   0   0   0 # casl
   3724      6   1  1.700000    12.405540377    11.178977163    39.067053401   0   0   0 # casl
   3725      9   1  1.700000     3.956934007    20.470099712    30.900446599   0   0   0 # casl
   3726      9   1  1.700000     1.140740378    22.316477163    44.893946599   0   0   0 # casl
   3727      9   1  1.700000     3.956934007    16.757599713    53.060553401   0   0   0 # casl
   3728      9   1  1.700000     1.140740377    18.603977163    39.067053401   0   0   0 # casl
   3729     10   1  1.700000    15.221734007    20.470099712    30.900446599   0   0   0 # casl
   3730     10   1  1.700000    12.405540378    22.316477163    44.893946599   0   0   0 # casl
   3731     10   1  1.700000    15.221734007    16.757599713    53.060553401   0   0   0 # casl
   3732     10   1  1.700000    12.405540377    18.603977163    39.067053401   0   0   0 # casl
   3733     12   1  1.700000    37.751334007    20.470099712    30.900446599   0   0   0 # casl
   3734     12   1  1.700000    34.935140378    22.316477163    44.893946599   0   0   0 # casl
   3735     12   1  1.700000    37.751334007    16.757599713    53.060553401   0   0   0 # casl
   3736     12   1  1.700000    34.935140377    18.603977163    39.067053401   0   0   0 # casl
   3737     13   1  1.700000     3.956934007    27.895099712    30.900446599   0   0   0 # casl
   3738     13   1  1.700000     3.956934007    24.182599713    53.060553401   0   0   0 # casl
   3739     13   1  1.700000     1.140740377    26.028977163    39.067053401   0   0   0 # casl
   3740     14   1  1.700000    15.221734007    27.895099712    30.900446599   0   0   0 # casl
   3741     14   1  1.700000    15.221734007    24.182599713    53.060553401   0   0   0 # casl
   3742     14   1  1.700000    12.405540377    26.028977163    39.067053401   0   0   0 # casl
   3743     16   1  1.700000    37.751334007    27.895099712    30.900446599   0   0   0 # casl
   3744     16   1  1.700000    37.751334007    24.182599713    53.060553401   0   0   0 # casl
   3745     16   1  1.700000    34.935140377    26.028977163    39.067053401   0   0   0 # casl
   3746     17   1  1.700000     1.140740378     7.466477163    16.906946599   0   0   0 # casl
   3747     17   1  1.700000     3.956934007     1.907599713    25.073553401   0   0   0 # casl
   3748     18   1  1.700000    12.405540378     7.466477163    16.906946599   0   0   0 # casl
   3749     18   1  1.700000    15.221734007     1.907599713    25.073553401   0   0   0 # casl
   3750     19   1  1.700000    23.670340378     7.466477163    16.906946599   0   0   0 # casl
   3751     19   1  1.700000    26.486534007     1.907599713    25.073553401   0   0   0 # casl
   3752     20   1  1.700000    34.935140378     7.466477163    16.906946599   0   0   0 # casl
   3753     20   1  1.700000    37.751334007     1.907599713    25.073553401   0   0   0 # casl
   3754     21   1  1.700000     1.140740378    14.891477163    16.906946599   0   0   0 # casl
   3755     21   1  1.700000     3.956934007     9.332599713    25.073553401   0   0   0 # casl
   3756     22   1  1.700000    12.405540378    14.891477163    16.906946599   0   0   0 # casl
   3757     22   1  1.700000    15.221734007     9.332599713    25.073553401   0   0   0 # casl
   3758     25   1  1.700000     1.140740378    22.316477163    16.906946599   0   0   0 # casl
   3759     25   1  1.700000     3.956934007    16.757599713    25.073553401   0   0   0 # casl
   3760     26   1  1.700000    12.405540378    22.316477163    16.906946599   0   0   0 # casl
   3761     26   1  1.700000    15.221734007    16.757599713    25.073553401   0   0   0 # casl
   3762     28   1  1.700000    34.935140378    22.316477163    16.906946599   0   0   0 # casl
   3763     28   1  1.700000    37.751334007    16.757599713    25.073553401   0   0   0 # casl
   3764     29   1  1.700000     3.956934007    24.182599713    25.073553401   0   0   0 # casl
   3765     30   1  1.700000    15.221734007    24.182599713    25.073553401   0   0   0 # casl
   3766     32   1  1.700000    37.751334007    24.182599713    25.073553401   0   0   0 # casl
   3767     33   1  1.700000     1.140740378     0.041477163    16.906946599   0   0   0 # casl
   3768     34   1  1.700000     1.140740378     0.041477163    44.893946599   0   0   0 # casl
   3769     35   1  1.700000    12.405540378     0.041477163    16.906946599   0   0   0 # casl
   3770     36   1  1.700000    12.405540378     0.041477163    44.893946599   0   0   0 # casl
   3771     39   1  1.700000    34.935140378     0.041477163    16.906946599   0   0   0 # casl
   3772     40   1  1.700000    34.935140378     0.041477163    44.893946599   0   0   0 # casl
   3773     41   1  1.700000     9.589321267     1.927344811    30.900446599   0   0   0 # casl
   3774     41   1  1.700000     6.773127637     3.773722262    44.893946599   0   0   0 # casl
   3775     41   1  1.700000     9.589321267     5.639844812    53.060553401   0   0   0 # casl
   3776     41   1  1.700000     6.773127637     0.061222263    39.067053401   0   0   0 # casl
   3777     42   1  1.700000    20.854121267     1.927344811    30.900446599   0   0   0 # casl
   3778     42   1  1.700000    18.037927637     3.773722262    44.893946599   0   0   0 # casl
   3779     42   1  1.700000    20.854121267     5.639844812    53.060553401   0   0   0 # casl
   3780     42   1  1.700000    18.037927637     0.061222263    39.067053401   0   0   0 # casl
   3781     43   1  1.700000    32.118921267     1.927344811    30.900446599   0   0   0 # casl
   3782     43   1  1.700000    29.302727637     3.773722262    44.893946599   0   0   0 # casl
   3783     43   1  1.700000    32.118921267     5.639844812    53.060553401   0   0   0 # casl
   3784     43   1  1.700000    29.302727637     0.061222263    39.067053401   0   0   0 # casl
   3785     46   1  1.700000    20.854121267     9.352344811    30.900446599   0   0   0 # casl
   3786     46   1  1.700000    18.037927637    11.198722262    44.893946599   0   0   0 # casl
   3787     46   1  1.700000    20.854121267    13.064844812    53.060553401   0   0   0 # casl
   3788     46   1  1.700000    18.037927637     7.486222263    39.067053401   0   0   0 # casl
   3789     47   1  1.700000    32.118921267     9.352344811    30.900446599   0   0   0 # casl
   3790     47   1  1.700000    29.302727637    11.198722262    44.893946599   0   0   0 # casl
   3791     47   1  1.700000    32.118921267    13.064844812    53.060553401   0   0   0 # casl
   3792     47   1  1.700000    29.302727637     7.486222263    39.067053401   0   0   0 # casl
   3793     48   1  1.700000    43.383721267     9.352344811    30.900446599   0   0   0 # casl
   3794     48   1  1.700000    40.567527637    11.198722262    44.893946599   0   0   0 # casl
   3795     48   1  1.700000    43.383721267    13.064844812    53.060553401   0   0   0 # casl
   3796     48   1  1.700000    40.567527637     7.486222263    39.067053401   0   0   0 # casl
   3797     49   1  1.700000     9.589321267    16.777344811    30.900446599   0   0   0 # casl
   3798     49   1  1.700000     6.773127637    18.623722262    44.893946599   0   0   0 # casl
   3799     49   1  1.700000     9.589321267    20.489844812    53.060553401   0   0   0 # casl
   3800     49   1  1.700000     6.773127637    14.911222263    39.067053401   0   0   0 # casl
   3801     50   1  1.700000    20.854121267    16.777344811    30.900446599   0   0   0 # casl
   3802     50   1  1.700000    18.037927637    18.623722262    44.893946599   0   0   0 # casl
   3803     50   1  1.700000    20.854121267    20.489844812    53.060553401   0   0   0 # casl
   3804     50   1  1.700000    18.037927637    14.911222263    39.067053401   0   0   0 # casl
   3805     51   1  1.700000    32.118921267    16.777344811    30.900446599   0   0   0 # casl
   3806     51   1  1.700000    29.302727637    18.623722262    44.893946599   0   0   0 # casl
   3807     51   1  1.700000    32.118921267    20.489844812    53.060553401   0   0   0 # casl
   3808     51   1  1.700000    29.302727637    14.911222263    39.067053401   0   0   0 # casl
   3809     52   1  1.700000    43.383721267    16.777344811    30.900446599   0   0   0 # casl
   3810     52   1  1.700000    40.567527637    18.623722262    44.893946599   0   0   0 # casl
   3811     52   1  1.700000    43.383721267    20.489844812    53.060553401   0   0   0 # casl
   3812     52   1  1.700000    40.567527637    14.911222263    39.067053401   0   0   0 # casl
   3813     54   1  1.700000    20.854121267    24.202344811    30.900446599   0   0   0 # casl
   3814     54   1  1.700000    18.037927637    26.048722262    44.893946599   0   0   0 # casl
   3815     54   1  1.700000    20.854121267    27.914844812    53.060553401   0   0   0 # casl
   3816     54   1  1.700000    18.037927637    22.336222263    39.067053401   0   0   0 # casl
   3817     55   1  1.700000    32.118921267    24.202344811    30.900446599   0   0   0 # casl
   3818     55   1  1.700000    29.302727637    26.048722262    44.893946599   0   0   0 # casl
   3819     55   1  1.700000    32.118921267    27.914844812    53.060553401   0   0   0 # casl
   3820     55   1  1.700000    29.302727637    22.336222263    39.067053401   0   0   0 # casl
   3821     61   1  1.700000     6.773127637     3.773722262    16.906946599   0   0   0 # casl
   3822     61   1  1.700000     9.589321267     5.639844812    25.073553401   0   0   0 # casl
   3823     62   1  1.700000    18.037927637     3.773722262    16.906946599   0   0   0 # casl
   3824     62   1  1.700000    20.854121267     5.639844812    25.073553401   0   0   0 # casl
   3825     63   1  1.700000    29.302727637     3.773722262    16.906946599   0   0   0 # casl
   3826     63   1  1.700000    32.118921267     5.639844812    25.073553401   0   0   0 # casl
   3827     66   1  1.700000    18.037927637    11.198722262    16.906946599   0   0   0 # casl
   3828     66   1  1.700000    20.854121267    13.064844812    25.073553401   0   0   0 # casl
   3829     67   1  1.700000    29.302727637    11.198722262    16.906946599   0   0   0 # casl
   3830     67   1  1.700000    32.118921267    13.064844812    25.073553401   0   0   0 # casl
   3831     68   1  1.700000    40.567527637    11.198722262    16.906946599   0   0   0 # casl
   3832     68   1  1.700000    43.383721267    13.064844812    25.073553401   0   0   0 # casl
   3833     69   1  1.700000     6.773127637    18.623722262    16.906946599   0   0   0 # casl
   3834     69   1  1.700000     9.589321267    20.489844812    25.073553401   0   0   0 # casl
   3835     70   1  1.700000    18.037927637    18.623722262    16.906946599   0   0   0 # casl
   3836     70   1  1.700000    20.854121267    20.489844812    25.073553401   0   0   0 # casl
   3837     71   1  1.700000    29.302727637    18.623722262    16.906946599   0   0   0 # casl
   3838     71   1  1.700000    32.118921267    20.489844812    25.073553401   0   0   0 # casl
   3839     72   1  1.700000    40.567527637    18.623722262    16.906946599   0   0   0 # casl
   3840     72   1  1.700000    43.383721267    20.489844812    25.073553401   0   0   0 # casl
   3841     74   1  1.700000    18.037927637    26.048722262    16.906946599   0   0   0 # casl
   3842     74   1  1.700000    20.854121267    27.914844812    25.073553401   0   0   0 # casl
   3843     75   1  1.700000    29.302727637    26.048722262    16.906946599   0   0   0 # casl
   3844     75   1  1.700000    32.118921267    27.914844812    25.073553401   0   0   0 # casl
   3845    165   9 -0.930000     2.800142000    26.711068500    57.064110980   0   0   0 # Oh
   3846    165  10  0.410000     3.128864950    26.123644040    56.353159640   0   0   0 # Ho
   3847    165   9 -0.930000    22.767876620    26.952506470    58.139684530   0   0   0 # Oh
   3848    165  10  0.410000    22.273143510    27.086930860    57.305569850   0   0   0 # Ho
   3849    165   9 -0.930000    26.643981290    16.495499240    58.608516180   0   0   0 # Oh
   3850    165  10  0.410000    26.582976130    16.630622990    57.640736240   0   0   0 # Ho
   3851    165   9 -0.930000    36.648783470    22.606462510    57.500385600   0   0   0 # Oh
   3852    165  10  0.410000    36.392035970    21.791024710    57.023185470   0   0   0 # Ho
   3853    165   9 -0.930000    29.090663460    23.035455880    58.530669250   0   0   0 # Oh
   3854    165  10  0.410000    29.126026660    23.057015680    57.552475660   0   0   0 # Ho
   3855    165   9 -0.930000    36.633277230    12.791738550    58.081782840   0   0   0 # Oh
   3856    165  10  0.410000    36.709467990    12.580433080    57.128827950   0   0   0 # Ho
   3857    165   9 -0.930000     7.064166570    21.101424830    57.635968700   0   0   0 # Oh
   3858    165  10  0.410000     7.190392960    20.947443540    56.677357870   0   0   0 # Ho
   3859    165   9 -0.930000    27.099216370    13.176421870    57.010803250   0   0   0 # Oh
   3860    165  10  0.410000    26.645216520    12.592045480    56.369736600   0   0   0 # Ho
   3861    165   9 -0.930000    27.170084300    24.461377000    58.138396520   0   0   0 # Oh
   3862    165  10  0.410000    26.391577840    24.382588060    57.549925560   0   0   0 # Ho
   3863    165   9 -0.930000    21.818533770    12.668046730    57.670396280   0   0   0 # Oh
   3864    165  10  0.410000    21.449014860    12.906484690    56.795649930   0   0   0 # Ho
   3865    165   9 -0.930000    31.642069710     7.969419540    56.943197070   0   0   0 # Oh
   3866    165  10  0.410000    31.419479610     7.474026640    56.128569800   0   0   0 # Ho
   3867    165   9 -0.930000    10.899014120    15.080233460    58.403288340   0   0   0 # Oh
   3868    165  10  0.410000    10.439315730    14.921100750    57.553622390   0   0   0 # Ho
   3869    165   9 -0.930000    12.465510170     6.401808460    57.888872200   0   0   0 # Oh
   3870    165  10  0.410000    12.469605340     6.224029190    56.926086750   0   0   0 # Ho
   3871    165   9 -0.930000    25.774009110     7.434117420    57.222430380   0   0   0 # Oh
   3872    165  10  0.410000    25.797575230     7.338002670    56.248374610   0   0   0 # Ho
   3873    165   9 -0.930000     4.539668510     4.091357920    58.018617820   0   0   0 # Oh
   3874    165  10  0.410000     4.609689250     4.157627760    57.044306030   0   0   0 # Ho
   3875    165   9 -0.930000    13.971103600    13.739962260    58.164133830   0   0   0 # Oh
   3876    165  10  0.410000    13.590391870    13.282880040    57.386501220   0   0   0 # Ho
   3877    165   9 -0.930000    33.166898640    26.985010550    58.692315820   0   0   0 # Oh
   3878    165  10  0.410000    33.249630870    26.896932980    57.720731650   0   0   0 # Ho
   3879    165   9 -0.930000    43.486807280    24.129675400    56.730208750   0   0   0 # Oh
   3880    165  10  0.410000    42.894727890    24.465431810    56.026441950   0   0   0 # Ho
   3881    165   9 -0.930000     0.348979880     2.967304160    58.459279630   0   0   0 # Oh
   3882    165  10  0.410000     0.364619590     2.809640280    57.493114240   0   0   0 # Ho
   3883    165   9 -0.930000    21.910650210    19.004890630    56.997284190   0   0   0 # Oh
   3884    165  10  0.410000    21.870827750    18.987761380    56.019174370   0   0   0 # Ho
   3885    165   9 -0.930000     0.646194630    22.653904310    57.422445930   0   0   0 # Oh
   3886    165  10  0.410000     0.366063320    22.569310940    56.488128810   0   0   0 # Ho
   3887    165   9 -0.930000    20.190140000    24.652735400    57.719073330   0   0   0 # Oh
   3888    165  10  0.410000    20.340108450    24.215283370    56.856099840   0   0   0 # Ho
   3889    165   9 -0.930000     8.003751240    17.435519100    58.569161630   0   0   0 # Oh
   3890    165  10  0.410000     8.123380720    16.919814020    57.745562750   0   0   0 # Ho
   3891    165   9 -0.930000    21.781543460    14.665488650    58.166487830   0   0   0 # Oh
   3892    165  10  0.410000    21.686629810    14.739204280    57.194821490   0   0   0 # Ho
   3893    165   9 -0.930000    35.869713930    26.612939350    56.843586240   0   0   0 # Oh
   3894    165  10  0.410000    34.985695450    26.362890790    56.505111550   0   0   0 # Ho
   3895    165   9 -0.930000    17.329147300    24.839662190    57.583993070   0   0   0 # Oh
   3896    165  10  0.410000    16.794966250    24.217941990    57.048556180   0   0   0 # Ho
   3897    165   9 -0.930000    25.912527710     4.184113100    57.372119820   0   0   0 # Oh
   3898    165  10  0.410000    25.204764760     4.136190380    56.697321280   0   0   0 # Ho
   3899    165   9 -0.930000    10.564975280     6.832249530    58.274794510   0   0   0 # Oh
   3900    165  10  0.410000    10.586241340     6.957001640    57.303937810   0   0   0 # Ho
   3901    165   9 -0.930000     7.460443370    10.528649090    57.885853090   0   0   0 # Oh
   3902    165  10  0.410000     7.535139180    10.437985940    56.913855770   0   0   0 # Ho
   3903    165   9 -0.930000     1.591590180    19.628704880    58.169587260   0   0   0 # Oh
   3904    165  10  0.410000     1.262767590    19.530362510    57.252645310   0   0   0 # Ho
   3905    165   9 -0.930000    35.375332080    29.468142490    56.628071080   0   0   0 # Oh
   3906    165  10  0.410000    34.476110780    29.253138420    56.305964930   0   0   0 # Ho
   3907    165   9 -0.930000    24.262333500    15.355322230    57.006907030   0   0   0 # Oh
   3908    165  10  0.410000    23.619698230    14.959798260    56.383081120   0   0   0 # Ho
   3909    165   9 -0.930000    24.714063990    17.548069340    57.857883210   0   0   0 # Oh
   3910    165  10  0.410000    24.695622470    16.934263350    57.095334730   0   0   0 # Ho
   3911    165   9 -0.930000    24.532122580    21.300673850    56.583960280   0   0   0 # Oh
   3912    165  10  0.410000    23.784370760    20.971704840    56.044307910   0   0   0 # Ho
   3913    165   9 -0.930000     2.928349470     4.738075750    58.183529500   0   0   0 # Oh
   3914    165  10  0.410000     2.702633300     4.625499840    57.237507870   0   0   0 # Ho
   3915    165   9 -0.930000    37.809498660     6.973821040    57.171783620   0   0   0 # Oh
   3916    165  10  0.410000    37.506054530     7.407825280    56.348291030   0   0   0 # Ho
   3917    165   9 -0.930000    42.332784210     0.523684840    58.538637040   0   0   0 # Oh
   3918    165  10  0.410000    41.510002940     0.124013930    58.189535020   0   0   0 # Ho
   3919    165   9 -0.930000     9.833256580    21.228254480    56.783433160   0   0   0 # Oh
   3920    165  10  0.410000     9.681932870    20.580260900    56.065252460   0   0   0 # Ho
   3921    165   9 -0.930000    22.119445960    25.046161760    57.905177070   0   0   0 # Oh
   3922    165  10  0.410000    22.292606940    24.679614970    57.013977440   0   0   0 # Ho
   3923    165   9 -0.930000    28.563778360    29.376154240    57.350497670   0   0   0 # Oh
   3924    165  10  0.410000    28.668108450    29.227305900    56.388449090   0   0   0 # Ho
   3925    165   9 -0.930000    15.478948160     7.108620140    57.415031690   0   0   0 # Oh
   3926    165  10  0.410000    15.157919660     6.757344050    56.559389310   0   0   0 # Ho
   3927    165   9 -0.930000    16.071604900     9.274461670    57.628892300   0   0   0 # Oh
   3928    165  10  0.410000    16.146860030     9.082157670    56.671847940   0   0   0 # Ho
   3929    165   9 -0.930000    11.077017500     3.432001250    58.025406600   0   0   0 # Oh
   3930    165  10  0.410000    11.071378020     3.526057040    57.050881190   0   0   0 # Ho
   3931    165   9 -0.930000    29.956067840     6.379524030    57.916160830   0   0   0 # Oh
   3932    165  10  0.410000    29.418656340     5.848871370    57.293124150   0   0   0 # Ho
   3933    165   9 -0.930000    37.047208700     5.679194160    57.442765290   0   0   0 # Oh
   3934    165  10  0.410000    36.493910520     5.085392160    56.895190300   0   0   0 # Ho
   3935    165   9 -0.930000    30.785879640    11.827558790    57.976438810   0   0   0 # Oh
   3936    165  10  0.410000    30.095099600    11.352987640    57.470293350   0   0   0 # Ho
   3937    165   9 -0.930000    21.553802600    10.039146540    58.578730650   0   0   0 # Oh
   3938    165  10  0.410000    21.526864400     9.651414570    57.680111530   0   0   0 # Ho
   3939    165   9 -0.930000    11.886190250     0.451772380    58.513711920   0   0   0 # Oh
   3940    165  10  0.410000    11.662016460     0.765086290    57.613623830   0   0   0 # Ho
   3941    165   9 -0.930000    28.164220660     6.958507870    57.397180410   0   0   0 # Oh
   3942    165  10  0.410000    27.498929340     6.572446420    56.791439470   0   0   0 # Ho
   3943    165   9 -0.930000    11.774469670    22.144855300    56.818161260   0   0   0 # Oh
   3944    165  10  0.410000    11.271304140    21.826357740    56.041011460   0   0   0 # Ho
   3945    165   9 -0.930000     9.459170990    13.491819210    57.758474770   0   0   0 # Oh
   3946    165  10  0.410000     9.285396850    13.574325860    56.798488700   0   0   0 # Ho
   3947    165   9 -0.930000    37.217082130     2.144566060    58.676849400   0   0   0 # Oh
   3948    165  10  0.410000    37.225764210     2.131080890    57.697910770   0   0   0 # Ho
   3949    165   9 -0.930000    32.691135780    18.693884070    57.650357080   0   0   0 # Oh
   3950    165  10  0.410000    32.759766000    18.218274350    56.797325220   0   0   0 # Ho
   3951    165   9 -0.930000     2.245570070    10.775184660    57.992041700   0   0   0 # Oh
   3952    165  10  0.410000     1.979742120    10.433078060    57.114045900   0   0   0 # Ho
   3953    165   1  1.700000    24.694241810    28.391124080    56.886064860   0   0   0 # casl
   3954    165   1  1.700000     7.358569480    24.851268910    56.774843050   0   0   0 # casl
   3955    165   1  1.700000    20.746197210     5.320494590    58.306663120   0   0   0 # casl
   3956    165   1  1.700000    44.202726240     5.840562590    56.743381800   0   0   0 # casl
   3957    165   1  1.700000     1.499571710    16.878809520    57.421835600   0   0   0 # casl
   3958    165   1  1.700000     1.266074790    25.860037720    56.274520520   0   0   0 # casl
   3959    165   1  1.700000    21.054787780    20.745615720    57.901892400   0   0   0 # casl
   3960    165   1  1.700000     4.290755750    18.982550650    58.105172030   0   0   0 # casl
   3961    165   1  1.700000    11.783964090    24.481461950    57.903478290   0   0   0 # casl
   3962    165   1  1.700000    44.019865130    12.992568580    58.475091600   0   0   0 # casl
   3963    165   1  1.700000    14.826794190     3.230576300    57.251240350   0   0   0 # casl
   3964    165   1  1.700000     7.510322100    26.491205500    58.167478980   0   0   0 # casl
   3965    165   1  1.700000    31.280997700     8.372392170    58.439021250   0   0   0 # casl
   3966    165   1  1.700000    21.018833000    26.068654280    58.219525740   0   0   0 # casl
   3967    165   1  1.700000    20.222868160    13.563034490    58.535940400   0   0   0 # casl
   3968    165   1  1.700000    43.539678350    25.649500410    56.996962360   0   0   0 # casl
   3969    165   1  1.700000    26.641631590    26.058096260    57.540799050   0   0   0 # casl
   3970    165   1  1.700000    41.361069890    17.936127530    56.289532010   0   0   0 # casl
   3971    165   1  1.700000     0.480917070    29.254956540    56.242229430   0   0   0 # casl
   3972    165   1  1.700000    13.337230730     2.956385300    58.402168190   0   0   0 # casl
   3973    165   1  1.700000    18.782550800    20.239591300    58.329766330   0   0   0 # casl
   3974    165   1  1.700000    17.449953210     3.789457060    56.786087100   0   0   0 # casl
   3975    165   1  1.700000     6.336910900    22.537840460    58.063130950   0   0   0 # casl
   3976    165   1  1.700000    30.965772180    15.588888500    58.090431470   0   0   0 # casl
   3977    165   1  1.700000    36.857521390    19.654867360    56.912014680   0   0   0 # casl
   3978    165   1  1.700000    41.161781540     7.184910010    56.965811540   0   0   0 # casl
   3979    165   1  1.700000    42.600256880    20.590599470    58.601884060   0   0   0 # casl
   3980    165   1  1.700000    32.479606550    14.179717520    58.762662340   0   0   0 # casl
   3981    165   1  1.700000     5.841088240    18.475276090    58.273793300   0   0   0 # casl
   3982    165   1  1.700000    24.624002550    26.682572320    56.707536730   0   0   0 # casl
   3983    165   1  1.700000    43.470250980    16.407617540    58.326985280   0   0   0 # casl
   3984    165   1  1.700000     3.881528670    23.952569040    57.564075480   0   0   0 # casl
   3985    165   1  1.700000    34.877299180    25.642554040    58.314141210   0   0   0 # casl
   3986    165   1  1.700000    33.589486930     4.835994480    57.069538280   0   0   0 # casl
   3987    166   9 -0.930000    39.164300200     8.169125480    12.236749820   0   0   0 # Oh
   3988    166  10  0.410000    38.593409420     8.288801610    13.023095420   0   0   0 # Ho
   3989    166   9 -0.930000     0.849105950     5.034149650    12.889717040   0   0   0 # Oh
   3990    166  10  0.410000     0.503018580     4.690864060    12.040625410   0   0   0 # Ho
   3991    166   9 -0.930000    27.740574100    14.027487240    12.543289640   0   0   0 # Oh
   3992    166  10  0.410000    27.382062830    13.325210810    13.123682230   0   0   0 # Ho
   3993    166   9 -0.930000     3.368480060    10.024323680    12.019412440   0   0   0 # Oh
   3994    166  10  0.410000     3.812868440     9.414439180    11.395603230   0   0   0 # Ho
   3995    166   9 -0.930000    15.467782660     8.580673560    11.489219400   0   0   0 # Oh
   3996    166  10  0.410000    15.287019400     7.620412150    11.427569390   0   0   0 # Ho
   3997    166   9 -0.930000     9.744643770    11.064477660    12.438345950   0   0   0 # Oh
   3998    166  10  0.410000     9.587848400    10.102549050    12.345143930   0   0   0 # Ho
   3999    166   9 -0.930000    19.893992670    18.221464580    12.758064020   0   0   0 # Oh
   4000    166  10  0.410000    19.130409870    18.658606490    12.328615170   0   0   0 # Ho
   4001    166   9 -0.930000    11.580587750    28.728056720    11.348237490   0   0   0 # Oh
   4002    166  10  0.410000    12.161733500    27.962365020    11.534151180   0   0   0 # Ho
   4003    166   9 -0.930000    36.869604750    16.727997200    13.608022520   0   0   0 # Oh
   4004    166  10  0.410000    37.033268660    16.376429040    12.709027510   0   0   0 # Ho
   4005    166   9 -0.930000     6.476940830    17.169057290    12.054745910   0   0   0 # Oh
   4006    166  10  0.410000     5.938706730    17.241685940    11.240125010   0   0   0 # Ho
   4007    166   9 -0.930000    13.598580080    18.151509310    13.947560590   0   0   0 # Oh
   4008    166  10  0.410000    13.844580730    17.204424600    13.980610450   0   0   0 # Ho
   4009    166   9 -0.930000    28.942871050    12.342376920    12.573414220   0   0   0 # Oh
   4010    166  10  0.410000    28.677989640    11.480350370    12.954630870   0   0   0 # Ho
   4011    166   9 -0.930000    34.047001210    26.068804070    11.888478520   0   0   0 # Oh
   4012    166  10  0.410000    33.343033930    26.260127170    12.541474370   0   0   0 # Ho
   4013    166   9 -0.930000     1.488896510    19.047923300    13.955088030   0   0   0 # Oh
   4014    166  10  0.410000     2.305945700    18.556804690    13.731903790   0   0   0 # Ho
   4015    166   9 -0.930000    42.034244110    17.081634100    12.369435640   0   0   0 # Oh
   4016    166  10  0.410000    42.185029910    16.140772610    12.144443730   0   0   0 # Ho
   4017    166   9 -0.930000    31.683623540    20.817349710    11.018788210   0   0   0 # Oh
   4018    166  10  0.410000    31.903162570    19.864065440    11.059158600   0   0   0 # Ho
   4019    166   9 -0.930000    17.686209470     7.817874180    12.520744800   0   0   0 # Oh
   4020    166  10  0.410000    17.471519430     6.862895990    12.498319070   0   0   0 # Ho
   4021    166   9 -0.930000    14.448421490     3.600616020    13.575728610   0   0   0 # Oh
   4022    166  10  0.410000    13.671236260     3.016867330    13.693196250   0   0   0 # Ho
   4023    166   9 -0.930000    15.827644300    25.224421350    13.617155760   0   0   0 # Oh
   4024    166  10  0.410000    15.360403630    25.510436510    12.805700560   0   0   0 # Ho
   4025    166   9 -0.930000    17.186785160     3.868014780    12.491048080   0   0   0 # Oh
   4026    166  10  0.410000    16.361438140     4.393833210    12.461126040   0   0   0 # Ho
   4027    166   9 -0.930000    17.446575460    10.840949410    13.173013360   0   0   0 # Oh
   4028    166  10  0.410000    17.177889070    11.122037330    12.274472730   0   0   0 # Ho
   4029    166   9 -0.930000    21.946469800    21.703914670    13.015650240   0   0   0 # Oh
   4030    166  10  0.410000    21.071421050    21.704707130    13.454816640   0   0   0 # Ho
   4031    166   9 -0.930000     2.940734470     6.359834480    13.602174380   0   0   0 # Oh
   4032    166  10  0.410000     2.514599890     6.422411030    12.722929490   0   0   0 # Ho
   4033    166   9 -0.930000     2.565093140    12.625202330    11.022058850   0   0   0 # Oh
   4034    166  10  0.410000     2.625180980    11.651000180    11.098855200   0   0   0 # Ho
   4035    166   9 -0.930000    19.720322400     6.898192870    13.404295610   0   0   0 # Oh
   4036    166  10  0.410000    19.621715560     5.945673580    13.200428600   0   0   0 # Ho
   4037    166   9 -0.930000     0.692993350    10.220332760    13.054426470   0   0   0 # Oh
   4038    166  10  0.410000     0.064427010     9.714660990    12.499648590   0   0   0 # Ho
   4039    166   9 -0.930000    27.333863950     1.741732570    13.146117000   0   0   0 # Oh
   4040    166  10  0.410000    26.698896410     2.389344220    13.514889890   0   0   0 # Ho
   4041    166   9 -0.930000    21.138075640     1.683499740    13.745140030   0   0   0 # Oh
   4042    166  10  0.410000    21.138379030     1.103790760    12.956143540   0   0   0 # Ho
   4043    166   9 -0.930000    10.675551440     7.269820010    12.777972310   0   0   0 # Oh
   4044    166  10  0.410000    10.159965400     6.442202380    12.689665140   0   0   0 # Ho
   4045    166   9 -0.930000     0.137544550    24.457760270    13.647704560   0   0   0 # Oh
   4046    166  10  0.410000     0.910031050    23.877306660    13.805553440   0   0   0 # Ho
   4047    166   9 -0.930000    18.494907220    25.781422820    13.823527540   0   0   0 # Oh
   4048    166  10  0.410000    17.579595220    26.056443670    13.611052760   0   0   0 # Ho
   4049    166   9 -0.930000     0.834215940    18.835779600    12.093163630   0   0   0 # Oh
   4050    166  10  0.410000     1.550964280    18.171244560    12.036215770   0   0   0 # Ho
   4051    166   9 -0.930000     2.472596270    14.163656220    12.379234430   0   0   0 # Oh
   4052    166  10  0.410000     2.379079910    13.207164940    12.566202850   0   0   0 # Ho
   4053    166   9 -0.930000     6.244428740     4.161183700    11.704457310   0   0   0 # Oh
   4054    166  10  0.410000     5.962202870     3.465436800    11.076076150   0   0   0 # Ho
   4055    166   9 -0.930000    12.401261010    19.911343550    11.450800530   0   0   0 # Oh
   4056    166  10  0.410000    12.565817510    18.980229670    11.704820550   0   0   0 # Ho
   4057    166   9 -0.930000    32.743938220    14.866823700    11.664357030   0   0   0 # Oh
   4058    166  10  0.410000    32.813489930    13.894262750    11.575667500   0   0   0 # Ho
   4059    166   9 -0.930000     6.722254160     6.356596740    13.734009130   0   0   0 # Oh
   4060    166  10  0.410000     5.827649120     6.370553800    13.336435120   0   0   0 # Ho
   4061    166   9 -0.930000    23.165639880    14.230823480    13.519299460   0   0   0 # Oh
   4062    166  10  0.410000    22.724218230    14.711782460    12.789639630   0   0   0 # Ho
   4063    166   9 -0.930000    15.444645010    24.041739680    11.151487660   0   0   0 # Oh
   4064    166  10  0.410000    15.559244210    23.208764650    11.653082790   0   0   0 # Ho
   4065    166   9 -0.930000    23.069130280    18.276025940    12.819335360   0   0   0 # Oh
   4066    166  10  0.410000    22.243941880    18.318882010    13.344507270   0   0   0 # Ho
   4067    166   9 -0.930000    24.709021200     5.020680750    13.571960020   0   0   0 # Oh
   4068    166  10  0.410000    24.379747770     4.099352610    13.608175060   0   0   0 # Ho
   4069    166   9 -0.930000    19.949491380    27.918336130    13.104282510   0   0   0 # Oh
   4070    166  10  0.410000    19.814807040    28.011517120    12.139007680   0   0   0 # Ho
   4071    166   9 -0.930000    40.051027420    27.728465300    11.085071710   0   0   0 # Oh
   4072    166  10  0.410000    40.040465650    27.000083580    11.739232690   0   0   0 # Ho
   4073    166   9 -0.930000    -0.441102540    18.305938710    11.637680690   1   0   0 # Oh
   4074    166  10  0.410000    -0.287912630    17.362480800    11.425553130   1   0   0 # Ho
   4075    166   9 -0.930000    11.449236140    23.464412330    13.218639470   0   0   0 # Oh
   4076    166  10  0.410000    12.048514880    23.003163190    12.596793610   0   0   0 # Ho
   4077    166   9 -0.930000    36.029822700     6.818010220    11.223814940   0   0   0 # Oh
   4078    166  10  0.410000    35.557475350     7.651872260    11.023464880   0   0   0 # Ho
   4079    166   9 -0.930000    11.632425170    26.108860060    13.058865370   0   0   0 # Oh
   4080    166  10  0.410000    11.284422410    25.441897750    13.685470050   0   0   0 # Ho
   4081    166   9 -0.930000    24.007632160     6.452003510    13.151254770   0   0   0 # Oh
   4082    166  10  0.410000    24.061663990     5.800105020    12.422772110   0   0   0 # Ho
   4083    166   9 -0.930000    15.824588020    12.890444890    12.498762600   0   0   0 # Oh
   4084    166  10  0.410000    15.655186960    11.948192060    12.703801480   0   0   0 # Ho
   4085    166   9 -0.930000    26.234445310     5.601177910    12.326500250   0   0   0 # Oh
   4086    166  10  0.410000    25.559424340     6.296649010    12.465225500   0   0   0 # Ho
   4087    166   9 -0.930000    11.500092000     1.308920150    13.991502480   0   0   0 # Oh
   4088    166  10  0.410000    10.648417280     0.866244170    13.798457920   0   0   0 # Ho
   4089    166   9 -0.930000    12.693452420     2.710469580    12.551153980   0   0   0 # Oh
   4090    166  10  0.410000    12.782771850     2.403984620    11.625590870   0   0   0 # Ho
   4091    166   9 -0.930000    13.899995760    10.386670350    12.587251170   0   0   0 # Oh
   4092    166  10  0.410000    13.810631930     9.411861330    12.605678010   0   0   0 # Ho
   4093    166   9 -0.930000    23.133436970     8.729750240    11.647642300   0   0   0 # Oh
   4094    166  10  0.410000    23.212826530     7.967474430    11.038371460   0   0   0 # Ho
   4095    166   1  1.700000    19.824014590    22.841780560    12.151825870   0   0   0 # casl
   4096    166   1  1.700000    25.110925450    21.548523020    11.420914680   0   0   0 # casl
   4097    166   1  1.700000    27.826233110     6.470295560    12.011898590   0   0   0 # casl
   4098    166   1  1.700000    44.065176450    25.378017730    13.086919440   0   0   0 # casl
   4099    166   1  1.700000    37.862199320     1.801335430    12.142224620   0   0   0 # casl
   4100    166   1  1.700000    16.515143130     5.660256070    11.316248510   0   0   0 # casl
   4101    166   1  1.700000    26.146681330    26.510534220    12.252502530   0   0   0 # casl
   4102    166   1  1.700000     4.876255010     9.629590780    12.793130200   0   0   0 # casl
   4103    166   1  1.700000    24.493820780    19.428897010    13.668034660   0   0   0 # casl
   4104    166   1  1.700000    32.889081960    15.439560790    13.380005340   0   0   0 # casl
   4105    166   1  1.700000    29.744988060    20.743535210    13.100455030   0   0   0 # casl
   4106    166   1  1.700000    36.974023090    25.393918140    12.305650520   0   0   0 # casl
   4107    166   1  1.700000     6.949264350    23.127075890    13.799524270   0   0   0 # casl
   4108    166   1  1.700000     2.555435610    21.608413570    12.741582730   0   0   0 # casl
   4109    166   1  1.700000     0.418496400     2.653314490    12.037285360   0   0   0 # casl
   4110    166   1  1.700000    14.251531450    12.135056970    11.719538580   0   0   0 # casl
   4111    166   1  1.700000    13.132923570    16.318918020    11.454576260   0   0   0 # casl
   4112    166   1  1.700000    31.815457860     7.879905110    12.326815140   0   0   0 # casl
   4113    166   1  1.700000     5.529669610    15.722458340    13.490545190   0   0   0 # casl
   4114    166   1  1.700000    37.740496320     3.094599790    13.323553820   0   0   0 # casl
   4115    166   1  1.700000     0.314201790    26.342567660    12.519386640   0   0   0 # casl
   4116    166   1  1.700000    43.686367180    11.196483300    11.547368850   0   0   0 # casl
   4117    166   1  1.700000    28.639548590     0.985421450    13.744025360   0   0   0 # casl
   4118    166   1  1.700000    34.517277440    29.255669080    13.528525210   0   0   0 # casl
   4119    166   1  1.700000    41.063578940    28.548225210    13.477570240   0   0   0 # casl
   4120    166   1  1.700000     1.989686050    29.464514120    13.324902580   0   0   0 # casl
   4121    166   1  1.700000    43.117954610     5.460004080    12.363064280   0   0   0 # casl
   4122    166   1  1.700000    24.601143970    10.316135410    13.057069500   0   0   0 # casl
   4123    166   1  1.700000    20.597336700    15.193488140    12.410053600   0   0   0 # casl
   4124    166   1  1.700000     9.043463940    25.279908790    12.969848280   0   0   0 # casl
   4125    166   1  1.700000    21.400040150    10.613349390    12.508074340   0   0   0 # casl
   4126    166   1  1.700000    21.031009310     8.431732700    11.280166380   0   0   0 # casl
   4127    166   1  1.700000    40.164017770    14.027041640    11.896790090   0   0   0 # casl
   4128    166   1  1.700000    18.897389910    16.690873270    13.720297230   0   0   0 # casl
   4129    167   9 -0.930000    17.276416710    29.237496710    30.607608770   0   0   0 # Oh
   4130    167  10  0.410000    16.331504210    29.085161850    30.401423090   0   0   0 # Ho
   4131    167   9 -0.930000    34.056838320    28.871132050    28.544851460   0   0   0 # Oh
   4132    167  10  0.410000    33.196389940    29.183689870    28.197699820   0   0   0 # Ho
   4133    167   9 -0.930000    21.864702560    20.988512200    26.493940470   0   0   0 # Oh
   4134    167  10  0.410000    21.395778610    20.129785860    26.458198680   0   0   0 # Ho
   4135    167   9 -0.930000    23.767007850     5.888694460    25.722464170   0   0   0 # Oh
   4136    167  10  0.410000    23.179335510     5.216069820    25.321471180   0   0   0 # Ho
   4137    167   9 -0.930000    40.666622150     1.727879740    27.155567810   0   0   0 # Oh
   4138    167  10  0.410000    39.755618740     1.484550170    27.419085490   0   0   0 # Ho
   4139    167   9 -0.930000    34.621993310    26.257038490    25.967999320   0   0   0 # Oh
   4140    167  10  0.410000    34.367758950    25.362595310    26.274453810   0   0   0 # Ho
   4141    167   9 -0.930000    18.482500550    20.521005410    28.509786200   0   0   0 # Oh
   4142    167  10  0.410000    18.859374140    20.059156090    27.733101210   0   0   0 # Ho
   4143    167   9 -0.930000     7.883260820    27.070618940    29.818028000   0   0   0 # Oh
   4144    167  10  0.410000     7.146292590    26.480581850    29.558582180   0   0   0 # Ho
   4145    167   9 -0.930000    17.493398640     6.165607280    30.512429180   0   0   0 # Oh
   4146    167  10  0.410000    17.017847820     5.486588000    29.991504700   0   0   0 # Ho
   4147    167   9 -0.930000    22.077738590    27.662678980    27.248437190   0   0   0 # Oh
   4148    167  10  0.410000    22.396994090    26.819153670    26.867492270   0   0   0 # Ho
   4149    167   9 -0.930000    29.771818880    25.149598920    29.474532880   0   0   0 # Oh
   4150    167  10  0.410000    29.009449160    24.589887650    29.727700350   0   0   0 # Ho
   4151    167   9 -0.930000     1.378416000     6.098488510    25.994142270   0   0   0 # Oh
   4152    167  10  0.410000     1.579097780     6.042250960    25.037511610   0   0   0 # Ho
   4153    167   9 -0.930000    24.094848830    21.719475850    25.120011780   0   0   0 # Oh
   4154    167  10  0.410000    23.138920940    21.530500990    25.215240080   0   0   0 # Ho
   4155    167   9 -0.930000     2.595398980    21.803773700    26.348773540   0   0   0 # Oh
   4156    167  10  0.410000     2.203446110    21.024053020    25.904941740   0   0   0 # Ho
   4157    167   9 -0.930000     7.970532330    -0.136640290    26.637000610   0   1   0 # Oh
   4158    167  10  0.410000     8.075016640    28.590412260    26.604839220   0   0   0 # Ho
   4159    167   9 -0.930000    19.246441220     4.366594370    30.212150670   0   0   0 # Oh
   4160    167  10  0.410000    18.440873270     3.920296950    29.879800010   0   0   0 # Ho
   4161    167   9 -0.930000     2.126157680    25.494369240    25.804821610   0   0   0 # Oh
   4162    167  10  0.410000     2.199667700    24.540267580    25.597784490   0   0   0 # Ho
   4163    167   9 -0.930000    35.946487540    15.604732490    29.476332200   0   0   0 # Oh
   4164    167  10  0.410000    35.635998680    14.676699990    29.445829590   0   0   0 # Ho
   4165    167   9 -0.930000    28.260826310     3.259751330    25.263193670   0   0   0 # Oh
   4166    167  10  0.410000    27.775845720     3.703931120    24.537882560   0   0   0 # Ho
   4167    167   9 -0.930000     3.269323680    16.062131490    26.942403680   0   0   0 # Oh
   4168    167  10  0.410000     3.561607900    15.328295280    26.363929460   0   0   0 # Ho
   4169    167   9 -0.930000    22.362845950     3.416999690    30.385147030   0   0   0 # Oh
   4170    167  10  0.410000    21.668215480     3.911224370    29.903682050   0   0   0 # Ho
   4171    167   9 -0.930000    41.493438100    24.677667570    25.973367980   0   0   0 # Oh
   4172    167  10  0.410000    40.606903130    24.538978000    26.365029830   0   0   0 # Ho
   4173    167   9 -0.930000     6.409639780    27.797874490    30.588948010   0   0   0 # Oh
   4174    167  10  0.410000     5.645531330    27.289252220    30.248331340   0   0   0 # Ho
   4175    167   9 -0.930000    13.752683850     1.111791630    27.531152630   0   0   0 # Oh
   4176    167  10  0.410000    12.966302480     1.053279750    26.950843430   0   0   0 # Ho
   4177    167   9 -0.930000    17.315070580    20.580626580    30.790485550   0   0   0 # Oh
   4178    167  10  0.410000    16.801276410    19.747204120    30.789700390   0   0   0 # Ho
   4179    167   9 -0.930000    41.162376070     3.400349890    29.283694000   0   0   0 # Oh
   4180    167  10  0.410000    40.423931970     2.766151880    29.388914060   0   0   0 # Ho
   4181    167   9 -0.930000    11.803366160    21.078720880    25.231023530   0   0   0 # Oh
   4182    167  10  0.410000    11.280230460    20.317854960    24.905462230   0   0   0 # Ho
   4183    167   9 -0.930000    24.314824880    13.570691510    27.440144610   0   0   0 # Oh
   4184    167  10  0.410000    24.271353620    13.509692620    26.463944100   0   0   0 # Ho
   4185    167   9 -0.930000    24.777638550    21.713599550    27.844287160   0   0   0 # Oh
   4186    167  10  0.410000    24.663098990    21.911321330    26.892255200   0   0   0 # Ho
   4187    167   9 -0.930000    34.009463470    18.280896380    30.053662080   0   0   0 # Oh
   4188    167  10  0.410000    33.161674480    17.867340610    30.315966320   0   0   0 # Ho
   4189    167   9 -0.930000    17.373785360    12.997043910    30.390519840   0   0   0 # Oh
   4190    167  10  0.410000    16.856512400    12.191306000    30.186086090   0   0   0 # Ho
   4191    167   9 -0.930000    34.905508880    29.345351390    26.909092550   0   0   0 # Oh
   4192    167  10  0.410000    33.961064090    -0.097155680    26.926398030   0   1   0 # Ho
   4193    167   9 -0.930000    29.290091390    -0.075083170    28.349912270   0   1   0 # Oh
   4194    167  10  0.410000    29.426322340    -0.134689580    27.382200400   0   1   0 # Ho
   4195    167   9 -0.930000     5.028129940     7.023326600    26.779796820   0   0   0 # Oh
   4196    167  10  0.410000     4.884009050     7.067656760    25.812407520   0   0   0 # Ho
   4197    167   9 -0.930000    13.948419610    21.091913470    27.409791650   0   0   0 # Oh
   4198    167  10  0.410000    13.886949930    20.975619300    26.439598270   0   0   0 # Ho
   4199    167   9 -0.930000    22.674666180    24.397844200    29.524972520   0   0   0 # Oh
   4200    167  10  0.410000    21.790124030    24.621489190    29.169801920   0   0   0 # Ho
   4201    167   9 -0.930000    15.162899970     7.941948370    26.517620510   0   0   0 # Oh
   4202    167  10  0.410000    14.833343380     7.244646140    25.914511800   0   0   0 # Ho
   4203    167   9 -0.930000    35.347855930    17.725066520    30.810670140   0   0   0 # Oh
   4204    167  10  0.410000    35.004987850    16.808098370    30.796923900   0   0   0 # Ho
   4205    167   9 -0.930000    11.265154630     4.940176700    26.760669450   0   0   0 # Oh
   4206    167  10  0.410000    10.711067480     4.700701160    25.989814750   0   0   0 # Ho
   4207    167   9 -0.930000     5.848381690    -0.045101470    30.079767020   0   1   0 # Oh
   4208    167  10  0.410000     6.137397330    -0.084933920    29.145175450   0   1   0 # Ho
   4209    167   9 -0.930000    38.676700180     7.907992860    25.975438470   0   0   0 # Oh
   4210    167  10  0.410000    38.120810670     7.102213440    25.958573130   0   0   0 # Ho
   4211    167   9 -0.930000    17.301623000    -0.072327350    27.715845420   0   1   0 # Oh
   4212    167  10  0.410000    17.039045090    -0.053997640    26.772821070   0   1   0 # Ho
   4213    167   9 -0.930000    18.517419420    23.459241200    27.162509070   0   0   0 # Oh
   4214    167  10  0.410000    18.023258170    23.693853090    26.350511550   0   0   0 # Ho
   4215    167   9 -0.930000    24.577906520    17.961311840    31.094738210   0   0   0 # Oh
   4216    167  10  0.410000    24.792741690    17.769888570    30.158906470   0   0   0 # Ho
   4217    167   9 -0.930000    19.108509840    27.122127250    27.258329550   0   0   0 # Oh
   4218    167  10  0.410000    18.865371720    26.173727660    27.257952310   0   0   0 # Ho
   4219    167   9 -0.930000     1.831875120    16.918739720    30.143964980   0   0   0 # Oh
   4220    167  10  0.410000     2.285305640    16.714977270    29.300484280   0   0   0 # Ho
   4221    167   9 -0.930000    29.523317010     2.017674350    29.652315870   0   0   0 # Oh
   4222    167  10  0.410000    28.601565100     1.694059460    29.717314870   0   0   0 # Ho
   4223    167   9 -0.930000     5.556469270    21.268576510    26.903451330   0   0   0 # Oh
   4224    167  10  0.410000     6.046541290    20.569168320    26.424665710   0   0   0 # Ho
   4225    167   9 -0.930000    33.321316200     7.145752070    30.374511470   0   0   0 # Oh
   4226    167  10  0.410000    32.499968540     7.672927500    30.296715970   0   0   0 # Ho
   4227    167   9 -0.930000    27.874189930     7.581612620    30.805755290   0   0   0 # Oh
   4228    167  10  0.410000    27.773153340     7.814102190    29.860071270   0   0   0 # Ho
   4229    167   9 -0.930000    23.749708950    16.252273240    29.834570880   0   0   0 # Oh
   4230    167  10  0.410000    23.293758530    15.385994220    29.818825010   0   0   0 # Ho
   4231    167   9 -0.930000    13.837221660    15.378126670    27.241253190   0   0   0 # Oh
   4232    167  10  0.410000    13.785243430    14.676844380    26.560019400   0   0   0 # Ho
   4233    167   9 -0.930000    28.226426590     4.798393710    29.612103200   0   0   0 # Oh
   4234    167  10  0.410000    27.574956690     5.439148380    29.260537410   0   0   0 # Ho
   4235    167   9 -0.930000     2.650903810     6.355491120    27.992112860   0   0   0 # Oh
   4236    167  10  0.410000     3.054254950     6.161171180    27.121408730   0   0   0 # Ho
   4237    167   9 -0.930000    41.778821920     5.794005350    30.136864740   0   0   0 # Oh
   4238    167  10  0.410000    41.662785690     5.017610350    29.551779740   0   0   0 # Ho
   4239    167   9 -0.930000    13.406601800    14.218074900    28.785602930   0   0   0 # Oh
   4240    167  10  0.410000    13.394193360    13.446678640    28.182799550   0   0   0 # Ho
   4241    167   9 -0.930000    34.679765000     9.768726030    30.889713290   0   0   0 # Oh
   4242    167  10  0.410000    34.222900910    10.458958000    30.366804990   0   0   0 # Ho
   4243    167   9 -0.930000    13.248789230     6.175869620    27.886109070   0   0   0 # Oh
   4244    167  10  0.410000    13.261856290     6.350039760    26.922744090   0   0   0 # Ho
   4245    167   9 -0.930000     4.450860300    15.185934630    31.456535990   0   0   0 # Oh
   4246    167  10  0.410000     4.884953510    15.064061490    30.587462870   0   0   0 # Ho
   4247    167   9 -0.930000     0.820045780     2.623198090    30.693475690   0   0   0 # Oh
   4248    167  10  0.410000     1.141281170     2.890432310    29.808053890   0   0   0 # Ho
   4249    167   9 -0.930000     1.521236910    25.679424060    29.682531220   0   0   0 # Oh
   4250    167  10  0.410000     1.951930190    24.809169330    29.557079790   0   0   0 # Ho
   4251    167   9 -0.930000     4.659440840    21.665289960    29.527315080   0   0   0 # Oh
   4252    167  10  0.410000     4.796937930    20.748735330    29.211720040   0   0   0 # Ho
   4253    167   9 -0.930000    10.612762120    26.504824570    26.652106250   0   0   0 # Oh
   4254    167  10  0.410000    10.237102110    25.601742090    26.695691420   0   0   0 # Ho
   4255    167   9 -0.930000     6.803215770     5.060342850    31.485297350   0   0   0 # Oh
   4256    167  10  0.410000     7.213325340     5.152705970    30.601070420   0   0   0 # Ho
   4257    167   9 -0.930000     8.239248120    11.114867960    25.864765230   0   0   0 # Oh
   4258    167  10  0.410000     7.648264390    10.880250780    25.120271390   0   0   0 # Ho
   4259    167   9 -0.930000    27.854765350    26.481103410    25.366475280   0   0   0 # Oh
   4260    167  10  0.410000    26.968215030    26.110337630    25.553930150   0   0   0 # Ho
   4261    167   9 -0.930000    24.036843360    14.439394500    25.194084970   0   0   0 # Oh
   4262    167  10  0.410000    23.971565200    13.584670540    24.721048220   0   0   0 # Ho
   4263    167   9 -0.930000    20.986603410    28.924622150    27.267175830   0   0   0 # Oh
   4264    167  10  0.410000    20.543695640    28.065154120    27.421206620   0   0   0 # Ho
   4265    167   9 -0.930000    19.266306750     0.262831240    25.975260210   0   0   0 # Oh
   4266    167  10  0.410000    18.343007960     0.466477230    25.721044310   0   0   0 # Ho
   4267    167   9 -0.930000    21.676415050     4.393950350    26.599669790   0   0   0 # Oh
   4268    167  10  0.410000    20.732614280     4.524166500    26.374143940   0   0   0 # Ho
   4269    167   9 -0.930000    36.157951560     6.393600490    25.875892800   0   0   0 # Oh
   4270    167  10  0.410000    35.440492430     5.753852600    26.061777460   0   0   0 # Ho
   4271    167   9 -0.930000    25.566711970     1.405682250    27.936743540   0   0   0 # Oh
   4272    167  10  0.410000    24.742379460     0.954225230    27.662443450   0   0   0 # Ho
   4273    167   9 -0.930000    28.394620750    14.389776670    29.686698850   0   0   0 # Oh
   4274    167  10  0.410000    27.513252660    14.665017170    29.361105510   0   0   0 # Ho
   4275    167   9 -0.930000     8.178360290     9.404946670    25.346120970   0   0   0 # Oh
   4276    167  10  0.410000     7.669538110     9.027532920    24.599637930   0   0   0 # Ho
   4277    167   9 -0.930000     6.319154560    29.407144940    26.369215030   0   0   0 # Oh
   4278    167  10  0.410000     6.354277940    28.428722010    26.374957920   0   0   0 # Ho
   4279    167   9 -0.930000    40.861350940    20.101625170    29.015206160   0   0   0 # Oh
   4280    167  10  0.410000    40.807476120    20.344135500    28.068176960   0   0   0 # Ho
   4281    167   9 -0.930000     0.111847600    -0.187482870    27.001300540   0   1   0 # Oh
   4282    167  10  0.410000     0.596992100    28.662097970    27.001666950   0   0   0 # Ho
   4283    167   9 -0.930000    11.717898990    14.802428590    29.723248300   0   0   0 # Oh
   4284    167  10  0.410000    11.428084460    13.995569060    29.250423500   0   0   0 # Ho
   4285    167   9 -0.930000     1.010395140    12.737814200    25.740403570   0   0   0 # Oh
   4286    167  10  0.410000     1.078771940    12.377216790    24.832729520   0   0   0 # Ho
   4287    167   9 -0.930000    41.693411490     9.299751310    25.039009230   0   0   0 # Oh
   4288    167  10  0.410000    41.430865520     8.437097940    24.657594960   0   0   0 # Ho
   4289    167   9 -0.930000    18.386269950     8.432978360    26.326279360   0   0   0 # Oh
   4290    167  10  0.410000    17.978995500     7.769989850    25.732013580   0   0   0 # Ho
   4291    167   9 -0.930000    29.976573530    10.469465320    27.187267010   0   0   0 # Oh
   4292    167  10  0.410000    29.585620700     9.590160470    27.006831610   0   0   0 # Ho
   4293    167   9 -0.930000    30.087710770     5.612982790    29.179345780   0   0   0 # Oh
   4294    167  10  0.410000    30.046967980     5.122368610    28.333050430   0   0   0 # Ho
   4295    167   9 -0.930000    11.225503190    17.185949190    30.204536110   0   0   0 # Oh
   4296    167  10  0.410000    10.933298100    16.309735850    29.879814020   0   0   0 # Ho
   4297    167   9 -0.930000    30.037755260     0.576954300    26.229896890   0   0   0 # Oh
   4298    167  10  0.410000    29.127558160     0.216564250    26.245334640   0   0   0 # Ho
   4299    167   9 -0.930000     7.775487620    12.207558560    31.273891390   0   0   0 # Oh
   4300    167  10  0.410000     7.308732790    11.490793080    30.797482710   0   0   0 # Ho
   4301    167   9 -0.930000    32.807083250    19.948454850    27.108383650   0   0   0 # Oh
   4302    167  10  0.410000    32.083310770    20.375184970    26.605757680   0   0   0 # Ho
   4303    167   9 -0.930000    28.411235020     4.630691490    31.272714730   0   0   0 # Oh
   4304    167  10  0.410000    27.647852560     4.020468900    31.213946800   0   0   0 # Ho
   4305    167   9 -0.930000    18.720373660     4.692577860    27.390198040   0   0   0 # Oh
   4306    167  10  0.410000    18.367016800     4.953505970    26.515193180   0   0   0 # Ho
   4307    167   9 -0.930000     9.199866000    29.402623580    31.072256560   0   0   0 # Oh
   4308    167  10  0.410000     8.457593730    28.774062070    30.960362130   0   0   0 # Ho
   4309    167   9 -0.930000     7.598851310    23.428493060    25.982561400   0   0   0 # Oh
   4310    167  10  0.410000     7.881793150    22.689040090    25.406600210   0   0   0 # Ho
   4311    167   9 -0.930000    15.416482080    22.208112330    30.214673700   0   0   0 # Oh
   4312    167  10  0.410000    15.735688900    21.600173550    29.516751420   0   0   0 # Ho
   4313    167   9 -0.930000     7.685064780    15.331433850    29.800077660   0   0   0 # Oh
   4314    167  10  0.410000     7.482521490    14.506260230    29.313618220   0   0   0 # Ho
   4315    167   9 -0.930000    35.816793430    10.290655580    26.254498750   0   0   0 # Oh
   4316    167  10  0.410000    35.534143740     9.393594410    25.982527310   0   0   0 # Ho
   4317    167   9 -0.930000     7.952244460    20.309569620    27.654996030   0   0   0 # Oh
   4318    167  10  0.410000     8.296216760    19.991379160    26.795335660   0   0   0 # Ho
   4319    167   9 -0.930000     8.008635240     4.974147480    27.814884480   0   0   0 # Oh
   4320    167  10  0.410000     7.885213220     4.505711440    26.964053870   0   0   0 # Ho
   4321    167   9 -0.930000    40.690685540    15.959166380    26.622714990   0   0   0 # Oh
   4322    167  10  0.410000    39.778542490    16.289122170    26.755764970   0   0   0 # Ho
   4323    167   9 -0.930000     7.020677880    18.322441260    26.510447800   0   0   0 # Oh
   4324    167  10  0.410000     7.377150230    17.861195060    25.723836420   0   0   0 # Ho
   4325    167   9 -0.930000    31.029869840    10.278412270    25.632599930   0   0   0 # Oh
   4326    167  10  0.410000    30.368630170     9.556373620    25.633189790   0   0   0 # Ho
   4327    167   9 -0.930000    19.798117230    26.119758660    26.010986250   0   0   0 # Oh
   4328    167  10  0.410000    19.523030840    25.180260760    25.995198950   0   0   0 # Ho
   4329    167   9 -0.930000    12.460297510    19.479796500    25.789099360   0   0   0 # Oh
   4330    167  10  0.410000    12.649651700    19.062853060    24.923720130   0   0   0 # Ho
   4331    167   9 -0.930000     5.918320230    15.778760280    26.531989320   0   0   0 # Oh
   4332    167  10  0.410000     5.613269150    14.976443560    26.061022460   0   0   0 # Ho
   4333    167   9 -0.930000    13.193060540    13.024475890    26.581981540   0   0   0 # Oh
   4334    167  10  0.410000    12.971938460    12.172907840    26.152429510   0   0   0 # Ho
   4335    167   9 -0.930000    13.407721830     6.543504800    30.136782210   0   0   0 # Oh
   4336    167  10  0.410000    12.730724260     6.139863670    29.555984310   0   0   0 # Ho
   4337    167   9 -0.930000    15.365873090     7.523230630    29.878844800   0   0   0 # Oh
   4338    167  10  0.410000    14.751098650     6.864861200    29.495204140   0   0   0 # Ho
   4339    167   9 -0.930000    28.843509380    11.629970370    29.634432250   0   0   0 # Oh
   4340    167  10  0.410000    27.897051220    11.880533890    29.630834340   0   0   0 # Ho
   4341    167   9 -0.930000    24.570963360    15.673440490    27.164029730   0   0   0 # Oh
   4342    167  10  0.410000    24.174647020    16.023530650    26.340046540   0   0   0 # Ho
   4343    167   9 -0.930000     0.734447250    19.133048490    30.057668020   0   0   0 # Oh
   4344    167  10  0.410000     0.914785040    18.209499540    29.787272590   0   0   0 # Ho
   4345    167   9 -0.930000    23.891403810    28.863569090    26.900642440   0   0   0 # Oh
   4346    167  10  0.410000    24.034386660    27.899874220    26.803553950   0   0   0 # Ho
   4347    167   9 -0.930000    19.962330890     2.952497110    25.601367720   0   0   0 # Oh
   4348    167  10  0.410000    19.143902800     3.173103840    25.111381790   0   0   0 # Ho
   4349    167   9 -0.930000    31.046696170    19.011649960    30.247052960   0   0   0 # Oh
   4350    167  10  0.410000    31.073386760    19.128066280    29.275295310   0   0   0 # Ho
   4351    167   9 -0.930000    19.292401910    23.867259230    30.141503070   0   0   0 # Oh
   4352    167  10  0.410000    19.448459660    22.978357920    29.761926320   0   0   0 # Ho
   4353    167   9 -0.930000     0.790494850    24.124206270    30.587278100   0   0   0 # Oh
   4354    167  10  0.410000     0.897847360    23.158981620    30.463202040   0   0   0 # Ho
   4355    167   9 -0.930000    13.058504090     0.893540100    30.762259170   0   0   0 # Oh
   4356    167  10  0.410000    13.255443200     0.757068080    29.812960250   0   0   0 # Ho
   4357    167   9 -0.930000    34.805150320    24.675697620    29.679717600   0   0   0 # Oh
   4358    167  10  0.410000    35.031186420    24.213280520    28.846857360   0   0   0 # Ho
   4359    167   9 -0.930000     1.187513920    -0.010547210    29.340558780   0   1   0 # Oh
   4360    167  10  0.410000     0.417377380    29.157980130    29.052453600   0   0   0 # Ho
   4361    167   9 -0.930000    26.393469260     7.779737030    26.547840550   0   0   0 # Oh
   4362    167  10  0.410000    26.205238670     6.995266290    25.993085690   0   0   0 # Ho
   4363    167   9 -0.930000    39.536733640     3.942831470    30.266189000   0   0   0 # Oh
   4364    167  10  0.410000    39.344344780     4.574029130    29.542895070   0   0   0 # Ho
   4365    167   9 -0.930000    41.074073270    20.520629600    30.869419580   0   0   0 # Oh
   4366    167  10  0.410000    40.224784520    20.312383840    31.309783500   0   0   0 # Ho
   4367    167   9 -0.930000    22.746118070     7.602964050    30.078343060   0   0   0 # Oh
   4368    167  10  0.410000    22.209930510     6.821640070    29.832144340   0   0   0 # Ho
   4369    167   9 -0.930000    29.500641840    19.357573700    29.591019890   0   0   0 # Oh
   4370    167  10  0.410000    28.835189190    18.669966280    29.798256150   0   0   0 # Ho
   4371    167   9 -0.930000     4.762512560    28.618289340    28.292015260   0   0   0 # Oh
   4372    167  10  0.410000     5.208222310    28.464096380    27.434026090   0   0   0 # Ho
   4373    167   1  1.700000    14.155763480    28.870340560    28.728062190   0   0   0 # casl
   4374    167   1  1.700000    44.224975250    22.123138490    31.040611990   0   0   0 # casl
   4375    167   1  1.700000    11.763537790    11.147954590    29.901400000   0   0   0 # casl
   4376    167   1  1.700000    24.686931430     7.661584840    28.031740240   0   0   0 # casl
   4377    167   1  1.700000     2.622769180    13.016411270    30.050947200   0   0   0 # casl
   4378    167   1  1.700000    42.893316960    18.428260250    29.476098170   0   0   0 # casl
   4379    167   1  1.700000    12.569195040    16.469975130    30.742032920   0   0   0 # casl
   4380    167   1  1.700000    12.546902260    22.314202810    26.473797860   0   0   0 # casl
   4381    167   1  1.700000    29.847586820     3.918491030    26.409721510   0   0   0 # casl
   4382    167   1  1.700000    31.122847210    12.404844330    30.408749510   0   0   0 # casl
   4383    167   1  1.700000     6.093971040    26.212903760    25.619880440   0   0   0 # casl
   4384    167   1  1.700000    33.810802490     3.952204750    25.351264220   0   0   0 # casl
   4385    167   1  1.700000    16.443194260     8.937867550    27.935441400   0   0   0 # casl
   4386    167   1  1.700000    41.292959450    12.146769610    29.309474580   0   0   0 # casl
   4387    167   1  1.700000    36.597581490    28.247340060    28.202775740   0   0   0 # casl
   4388    167   1  1.700000    38.200075360    14.664936950    25.598164270   0   0   0 # casl
   4389    167   1  1.700000    16.491705520    10.662284040    25.694977720   0   0   0 # casl
   4390    167   1  1.700000     3.521211420     8.754795330    27.300562340   0   0   0 # casl
   4391    167   1  1.700000    -0.637374180     8.867477490    29.862666560   1   0   0 # casl
   4392    167   1  1.700000    23.008697600    20.082616430    26.985711860   0   0   0 # casl
   4393    167   1  1.700000    23.819925840     1.272030750    30.045465120   0   0   0 # casl
   4394    167   1  1.700000    44.030936850    22.138504910    26.441478980   0   0   0 # casl
   4395    167   1  1.700000    44.102354530     9.256346950    28.082219050   0   0   0 # casl
   4396    167   1  1.700000    41.315478360    25.180165540    27.592154840   0   0   0 # casl
   4397    167   1  1.700000    19.554046120    17.594896940    25.200604520   0   0   0 # casl
   4398    167   1  1.700000     6.585455280     5.693265770    29.067774270   0   0   0 # casl
   4399    167   1  1.700000    34.298586150     9.554531330    29.154036170   0   0   0 # casl
   4400    167   1  1.700000    30.512042220    10.892063680    28.842942280   0   0   0 # casl
   4401    167   1  1.700000     1.761012180    14.705215860    30.184397800   0   0   0 # casl
   4402    167   1  1.700000    -0.241850570    11.493434820    26.149033860   1   0   0 # casl
   4403    167   1  1.700000    36.118439250     1.279937630    29.947500830   0   0   0 # casl
   4404    167   1  1.700000    39.675801410     1.261416520    25.177762930   0   0   0 # casl
   4405    167   1  1.700000     1.944456020    19.725885740    27.026310800   0   0   0 # casl
   4406    167   1  1.700000    36.144976720     2.333468130    26.785571480   0   0   0 # casl
   4407    167   1  1.700000    41.894878330     2.183281460    26.342383310   0   0   0 # casl
   4408    167   1  1.700000    20.195284640     2.282164000    27.546933050   0   0   0 # casl
   4409    167   1  1.700000    13.469193880     3.443796780    25.885031870   0   0   0 # casl
   4410    168   9 -0.930000    21.896729900    10.826822420    43.029555830   0   0   0 # Oh
   4411    168  10  0.410000    21.627731730    11.064143540    42.118569150   0   0   0 # Ho
   4412    168   9 -0.930000    25.817035560     4.448451830    39.829851850   0   0   0 # Oh
   4413    168  10  0.410000    25.189619320     3.991130200    39.233375660   0   0   0 # Ho
   4414    168   9 -0.930000    22.327673280    20.227646080    43.935642940   0   0   0 # Oh
   4415    168  10  0.410000    21.920416360    19.418064090    43.565107020   0   0   0 # Ho
   4416    168   9 -0.930000    22.864491440    28.772949830    39.230710950   0   0   0 # Oh
   4417    168  10  0.410000    22.052839750    28.795830370    38.683649630   0   0   0 # Ho
   4418    168   9 -0.930000     2.355909950     1.647877440    44.590762270   0   0   0 # Oh
   4419    168  10  0.410000     2.175213410     2.074042590    43.728028190   0   0   0 # Ho
   4420    168   9 -0.930000    32.282766430    19.491278710    43.989544740   0   0   0 # Oh
   4421    168  10  0.410000    31.524214080    18.874393960    43.938265250   0   0   0 # Ho
   4422    168   9 -0.930000    -0.686808140     6.242420040    39.310237860   1   0   0 # Oh
   4423    168  10  0.410000    43.960919160     5.489102410    38.839301740   0   0   0 # Ho
   4424    168   9 -0.930000     2.153937460    19.728152960    42.717420780   0   0   0 # Oh
   4425    168  10  0.410000     1.900535480    19.014171200    42.097263100   0   0   0 # Ho
   4426    168   9 -0.930000     5.700453180     4.090739410    43.854022160   0   0   0 # Oh
   4427    168  10  0.410000     5.488182300     4.007400770    42.901880470   0   0   0 # Ho
   4428    168   9 -0.930000    25.149315870    28.933038250    44.392649270   0   0   0 # Oh
   4429    168  10  0.410000    24.210566850    28.737324590    44.195103100   0   0   0 # Ho
   4430    168   9 -0.930000     7.947620490    14.872540750    41.478564250   0   0   0 # Oh
   4431    168  10  0.410000     7.459753600    14.611969810    40.670686310   0   0   0 # Ho
   4432    168   9 -0.930000    13.203086240    16.166711240    43.735421400   0   0   0 # Oh
   4433    168  10  0.410000    13.534889670    15.814138230    42.884435600   0   0   0 # Ho
   4434    168   9 -0.930000    11.074013830    -0.057420730    39.621184650   0   1   0 # Oh
   4435    168  10  0.410000    10.481799790    29.458871700    38.863482780   0   0   0 # Ho
   4436    168   9 -0.930000    20.574585410    22.420487900    41.063192520   0   0   0 # Oh
   4437    168  10  0.410000    20.285706460    21.543954450    40.736365170   0   0   0 # Ho
   4438    168   9 -0.930000    16.819407930    17.800876140    41.533723720   0   0   0 # Oh
   4439    168  10  0.410000    16.179411230    17.833701760    40.793517820   0   0   0 # Ho
   4440    168   9 -0.930000    13.929017770    29.370482880    44.594596500   0   0   0 # Oh
   4441    168  10  0.410000    13.860902310    28.434777940    44.314606110   0   0   0 # Ho
   4442    168   9 -0.930000    26.525923340     0.813215210    39.704889350   0   0   0 # Oh
   4443    168  10  0.410000    26.376183560     0.753035610    38.739211100   0   0   0 # Ho
   4444    168   9 -0.930000    39.664432620     1.717770920    43.817692440   0   0   0 # Oh
   4445    168  10  0.410000    38.689327800     1.707340420    43.730286170   0   0   0 # Ho
   4446    168   9 -0.930000    15.597749940    22.134671710    45.076901820   0   0   0 # Oh
   4447    168  10  0.410000    15.371423920    22.231811530    44.129316230   0   0   0 # Ho
   4448    168   9 -0.930000     8.091713020    23.042869340    41.990348280   0   0   0 # Oh
   4449    168  10  0.410000     8.383062160    22.558255920    41.191071370   0   0   0 # Ho
   4450    168   9 -0.930000    19.057776360     9.448790540    40.488544240   0   0   0 # Oh
   4451    168  10  0.410000    18.371224460     9.034593960    39.926702860   0   0   0 # Ho
   4452    168   9 -0.930000    31.147521600    24.529888950    44.889854100   0   0   0 # Oh
   4453    168  10  0.410000    30.519409460    23.779027850    44.873704170   0   0   0 # Ho
   4454    168   9 -0.930000    15.651743430    10.022571540    39.835773770   0   0   0 # Oh
   4455    168  10  0.410000    15.651812060     9.672797490    38.921314270   0   0   0 # Ho
   4456    168   9 -0.930000    42.452196080     6.073436080    38.646726670   0   0   0 # Oh
   4457    168  10  0.410000    41.503434070     5.837031380    38.697140300   0   0   0 # Ho
   4458    168   9 -0.930000    16.561057650     0.864768500    41.173158820   0   0   0 # Oh
   4459    168  10  0.410000    15.887377170     0.795158550    40.466131860   0   0   0 # Ho
   4460    168   9 -0.930000    39.048757880     3.923801010    41.225941290   0   0   0 # Oh
   4461    168  10  0.410000    38.106024370     3.659638600    41.218882550   0   0   0 # Ho
   4462    168   9 -0.930000    28.348662960     8.341212470    44.009303170   0   0   0 # Oh
   4463    168  10  0.410000    27.478230210     8.108810260    43.626009410   0   0   0 # Ho
   4464    168   9 -0.930000    42.842461960     1.989018670    39.170781610   0   0   0 # Oh
   4465    168  10  0.410000    41.874882940     1.861700500    39.249260740   0   0   0 # Ho
   4466    168   9 -0.930000    43.838614500     4.857763290    43.518104690   0   0   0 # Oh
   4467    168  10  0.410000    42.893493410     5.107758190    43.464937470   0   0   0 # Ho
   4468    168   9 -0.930000    39.553439690     8.731656370    43.268104650   0   0   0 # Oh
   4469    168  10  0.410000    38.814545190     8.122164310    43.065293390   0   0   0 # Ho
   4470    168   9 -0.930000    19.934313050    11.078966660    45.010148750   0   0   0 # Oh
   4471    168  10  0.410000    19.966427570    10.574802550    44.171480000   0   0   0 # Ho
   4472    168   9 -0.930000     2.830645900    17.579110820    40.711769200   0   0   0 # Oh
   4473    168  10  0.410000     2.562952730    17.319352270    39.806537770   0   0   0 # Ho
   4474    168   9 -0.930000    38.506082270     4.617946350    40.009119310   0   0   0 # Oh
   4475    168  10  0.410000    37.838089700     4.010717200    39.630124920   0   0   0 # Ho
   4476    168   9 -0.930000    30.323323600    26.822504850    43.100796590   0   0   0 # Oh
   4477    168  10  0.410000    29.950597850    25.937182560    42.911434470   0   0   0 # Ho
   4478    168   9 -0.930000    33.097800000     6.610255880    40.913750630   0   0   0 # Oh
   4479    168  10  0.410000    32.520503240     5.934730080    40.502689310   0   0   0 # Ho
   4480    168   9 -0.930000    35.043837570     4.858393320    40.522890730   0   0   0 # Oh
   4481    168  10  0.410000    34.126395150     5.112631430    40.294329000   0   0   0 # Ho
   4482    168   9 -0.930000    27.349050660     7.871949970    41.093003550   0   0   0 # Oh
   4483    168  10  0.410000    26.531821920     7.967284610    40.562318570   0   0   0 # Ho
   4484    168   9 -0.930000    21.080126300     3.917686240    44.442442090   0   0   0 # Oh
   4485    168  10  0.410000    20.763661060     4.380202880    43.639630680   0   0   0 # Ho
   4486    168   9 -0.930000    15.206682030    17.312585030    39.718113050   0   0   0 # Oh
   4487    168  10  0.410000    14.522961900    17.319261790    39.017356130   0   0   0 # Ho
   4488    168   9 -0.930000    42.522245100    13.188078900    43.683508780   0   0   0 # Oh
   4489    168  10  0.410000    41.787588730    12.549034650    43.581134270   0   0   0 # Ho
   4490    168   9 -0.930000    30.224245030     9.406873090    39.178707560   0   0   0 # Oh
   4491    168  10  0.410000    29.682926310     9.784717460    38.455668320   0   0   0 # Ho
   4492    168   9 -0.930000    19.056741590     0.956160880    41.231972820   0   0   0 # Oh
   4493    168  10  0.410000    18.652727820     0.644119870    40.396520040   0   0   0 # Ho
   4494    168   9 -0.930000    25.286922520    16.343755190    43.464042840   0   0   0 # Oh
   4495    168  10  0.410000    24.842828140    16.676801380    42.657545170   0   0   0 # Ho
   4496    168   9 -0.930000    30.937862150    14.498164650    40.976323740   0   0   0 # Oh
   4497    168  10  0.410000    30.896895330    14.583575480    40.001847080   0   0   0 # Ho
   4498    168   9 -0.930000    14.708694200    13.761137120    44.863288930   0   0   0 # Oh
   4499    168  10  0.410000    14.717732030    13.742656010    43.884435090   0   0   0 # Ho
   4500    168   9 -0.930000    43.846971010     8.411890600    39.452354890   0   0   0 # Oh
   4501    168  10  0.410000    42.884662000     8.247642520    39.526933740   0   0   0 # Ho
   4502    168   9 -0.930000    11.210244780    27.444637440    43.104106500   0   0   0 # Oh
   4503    168  10  0.410000    10.929733710    26.577004260    42.747589650   0   0   0 # Ho
   4504    168   9 -0.930000    20.025293470     6.313221030    44.068297810   0   0   0 # Oh
   4505    168  10  0.410000    19.642466660     5.771087240    43.348497390   0   0   0 # Ho
   4506    168   9 -0.930000     5.001461130    15.022861020    41.291464440   0   0   0 # Oh
   4507    168  10  0.410000     4.515271540    14.545733640    40.588223940   0   0   0 # Ho
   4508    168   9 -0.930000     5.448661950     8.077422280    43.824572580   0   0   0 # Oh
   4509    168  10  0.410000     5.392986200     8.153047050    42.850016690   0   0   0 # Ho
   4510    168   9 -0.930000    30.431029820     7.966883780    40.890872360   0   0   0 # Oh
   4511    168  10  0.410000    29.598828310     7.505997860    40.659349360   0   0   0 # Ho
   4512    168   9 -0.930000     9.556796590     3.692666830    44.062551930   0   0   0 # Oh
   4513    168  10  0.410000     9.729926510     3.588222930    43.104587650   0   0   0 # Ho
   4514    168   9 -0.930000     2.996180220    19.190282960    40.368292760   0   0   0 # Oh
   4515    168  10  0.410000     3.108574930    19.077086030    39.402305210   0   0   0 # Ho
   4516    168   9 -0.930000    19.185973740    15.962295410    42.410769520   0   0   0 # Oh
   4517    168  10  0.410000    19.431902130    15.609676700    41.531134750   0   0   0 # Ho
   4518    168   9 -0.930000    32.559785840     4.473092690    43.737736100   0   0   0 # Oh
   4519    168  10  0.410000    31.682748450     4.082679750    43.545483100   0   0   0 # Ho
   4520    168   9 -0.930000    38.617098060    17.154956150    39.413588350   0   0   0 # Oh
   4521    168  10  0.410000    37.837525060    16.562991780    39.393041370   0   0   0 # Ho
   4522    168   9 -0.930000    31.808617410     0.092500840    40.473447180   0   0   0 # Oh
   4523    168  10  0.410000    30.994713160     0.457220470    40.069569070   0   0   0 # Ho
   4524    168   9 -0.930000    38.703354220     0.817248510    40.358270680   0   0   0 # Oh
   4525    168  10  0.410000    37.778126810     0.549853600    40.182110880   0   0   0 # Ho
   4526    168   9 -0.930000    24.945201720     4.218628310    41.466789450   0   0   0 # Oh
   4527    168  10  0.410000    24.085383820     4.048442850    41.030523280   0   0   0 # Ho
   4528    168   9 -0.930000    27.680615270    11.311293610    41.428709470   0   0   0 # Oh
   4529    168  10  0.410000    26.788889850    11.333739420    41.025100710   0   0   0 # Ho
   4530    168   9 -0.930000     5.764880010     0.437543210    40.735383370   0   0   0 # Oh
   4531    168  10  0.410000     5.504617400     0.477261100    39.792375460   0   0   0 # Ho
   4532    168   9 -0.930000    27.848779220    12.339045970    43.624711910   0   0   0 # Oh
   4533    168  10  0.410000    27.495342350    11.527833240    43.205672130   0   0   0 # Ho
   4534    168   9 -0.930000    33.378492010     0.768738170    44.283442250   0   0   0 # Oh
   4535    168  10  0.410000    33.397292790     0.727750940    43.305411250   0   0   0 # Ho
   4536    168   9 -0.930000    33.410288730    28.189808660    43.731259370   0   0   0 # Oh
   4537    168  10  0.410000    32.481827830    27.879312930    43.719821590   0   0   0 # Ho
   4538    168   9 -0.930000     8.352151030    29.103893480    40.304778980   0   0   0 # Oh
   4539    168  10  0.410000     7.931207830    28.262065240    40.035130890   0   0   0 # Ho
   4540    168   9 -0.930000    25.358693850     7.301071960    43.705205970   0   0   0 # Oh
   4541    168  10  0.410000    25.483853480     7.401479100    42.739373930   0   0   0 # Ho
   4542    168   9 -0.930000     3.639121430    27.140430460    39.584898730   0   0   0 # Oh
   4543    168  10  0.410000     3.669980990    27.143208300    38.606319130   0   0   0 # Ho
   4544    168   9 -0.930000    13.887162930    26.276067240    39.653791920   0   0   0 # Oh
   4545    168  10  0.410000    14.134548450    25.548408330    39.047251750   0   0   0 # Ho
   4546    168   9 -0.930000     3.061361810    24.167892370    44.344556310   0   0   0 # Oh
   4547    168  10  0.410000     3.313703520    23.425192900    43.758638890   0   0   0 # Ho
   4548    168   9 -0.930000     2.789232710    25.246250660    39.670115370   0   0   0 # Oh
   4549    168  10  0.410000     3.100093000    24.817667880    38.846549500   0   0   0 # Ho
   4550    168   9 -0.930000    27.280039400     1.189168980    44.673635270   0   0   0 # Oh
   4551    168  10  0.410000    27.193126860     1.541084560    43.764141070   0   0   0 # Ho
   4552    168   9 -0.930000    27.856391640    26.162653150    43.656674710   0   0   0 # Oh
   4553    168  10  0.410000    26.990944300    25.709414730    43.592224010   0   0   0 # Ho
   4554    168   9 -0.930000    32.017212330    28.220754770    40.051545630   0   0   0 # Oh
   4555    168  10  0.410000    31.756040880    27.281510190    39.961062760   0   0   0 # Ho
   4556    168   9 -0.930000    33.628803840    13.718103130    40.112386170   0   0   0 # Oh
   4557    168  10  0.410000    33.068912570    14.177270330    39.453398080   0   0   0 # Ho
   4558    168   9 -0.930000    33.306890790    11.918744140    44.705968060   0   0   0 # Oh
   4559    168  10  0.410000    32.502752080    12.241389400    44.250074380   0   0   0 # Ho
   4560    168   9 -0.930000    19.846754480    20.512336320    39.519133430   0   0   0 # Oh
   4561    168  10  0.410000    19.811268050    20.220681740    38.585186750   0   0   0 # Ho
   4562    168   9 -0.930000    27.578545460    19.090124300    40.798949410   0   0   0 # Oh
   4563    168  10  0.410000    27.163447460    19.278825820    39.932541050   0   0   0 # Ho
   4564    168   9 -0.930000    10.578265430    11.001767920    41.179905780   0   0   0 # Oh
   4565    168  10  0.410000    10.480019620    10.576852580    40.303337020   0   0   0 # Ho
   4566    168   9 -0.930000    26.953807430     2.496100630    40.255603160   0   0   0 # Oh
   4567    168  10  0.410000    26.902535780     2.441904600    39.279379790   0   0   0 # Ho
   4568    168   9 -0.930000    33.626300470    21.409399660    40.920340030   0   0   0 # Oh
   4569    168  10  0.410000    33.621921720    21.350637540    39.943044830   0   0   0 # Ho
   4570    168   9 -0.930000    16.367626280    18.786104950    44.037477890   0   0   0 # Oh
   4571    168  10  0.410000    15.761238280    18.933946250    43.283147320   0   0   0 # Ho
   4572    168   9 -0.930000    -0.135165260    22.829232590    44.024704870   1   0   0 # Oh
   4573    168  10  0.410000    44.241426170    22.133570810    44.117862110   0   0   0 # Ho
   4574    168   9 -0.930000    37.145998170    27.814442590    39.477030720   0   0   0 # Oh
   4575    168  10  0.410000    36.667280990    26.960851600    39.505143910   0   0   0 # Ho
   4576    168   9 -0.930000    32.757741480     7.938992080    38.732250050   0   0   0 # Oh
   4577    168  10  0.410000    31.819902960     7.969669830    38.452793710   0   0   0 # Ho
   4578    168   9 -0.930000    10.512628150    23.641335260    44.003097520   0   0   0 # Oh
   4579    168  10  0.410000    10.874129030    23.012611650    43.345372820   0   0   0 # Ho
   4580    168   9 -0.930000    30.780757650    20.577520340    43.161991330   0   0   0 # Oh
   4581    168  10  0.410000    30.252485570    20.955300280    42.429332480   0   0   0 # Ho
   4582    168   9 -0.930000    36.934241370    18.004575950    39.390481800   0   0   0 # Oh
   4583    168  10  0.410000    36.316892900    17.250917190    39.293232580   0   0   0 # Ho
   4584    168   9 -0.930000    30.385937680    10.105167180    43.496119600   0   0   0 # Oh
   4585    168  10  0.410000    29.442314280    10.081816000    43.236104850   0   0   0 # Ho
   4586    168   9 -0.930000    29.526880200     0.130310770    42.212190750   0   0   0 # Oh
   4587    168  10  0.410000    28.633378540     0.330383300    41.865486500   0   0   0 # Ho
   4588    168   9 -0.930000    23.188814390    29.175533140    40.992806550   0   0   0 # Oh
   4589    168  10  0.410000    22.380898110    28.628759270    40.909814470   0   0   0 # Ho
   4590    168   9 -0.930000    36.142195400    21.515868720    43.657631630   0   0   0 # Oh
   4591    168  10  0.410000    35.649529940    20.685169420    43.497015660   0   0   0 # Ho
   4592    168   9 -0.930000    14.710392790    11.444409390    41.740176590   0   0   0 # Oh
   4593    168  10  0.410000    14.461565640    11.427153230    40.793410870   0   0   0 # Ho
   4594    168   9 -0.930000    27.355188740     7.344574450    45.353609230   0   0   0 # Oh
   4595    168  10  0.410000    27.089243040     6.625927320    44.744185540   0   0   0 # Ho
   4596    168   9 -0.930000     5.203070660    15.685288770    44.704144960   0   0   0 # Oh
   4597    168  10  0.410000     5.515391300    15.722068340    43.776955050   0   0   0 # Ho
   4598    168   9 -0.930000    25.501591270    14.187655130    43.027247750   0   0   0 # Oh
   4599    168  10  0.410000    24.741843840    14.386569700    42.442615460   0   0   0 # Ho
   4600    168   9 -0.930000    22.175076130    13.879257020    40.328283020   0   0   0 # Oh
   4601    168  10  0.410000    22.141708550    13.345102960    39.508439070   0   0   0 # Ho
   4602    168   9 -0.930000    32.946478400     9.680123420    39.686948350   0   0   0 # Oh
   4603    168  10  0.410000    32.023181200     9.600491360    39.371101730   0   0   0 # Ho
   4604    168   9 -0.930000    20.986919990    17.483432590    45.027543420   0   0   0 # Oh
   4605    168  10  0.410000    21.160901200    16.825984340    44.323220760   0   0   0 # Ho
   4606    168   9 -0.930000    44.126025380     4.620930720    40.200157740   0   0   0 # Oh
   4607    168  10  0.410000    43.180674310     4.867987790    40.138091450   0   0   0 # Ho
   4608    168   9 -0.930000     2.283084070     9.533012240    40.820786330   0   0   0 # Oh
   4609    168  10  0.410000     2.293715720     9.158601800    39.916197000   0   0   0 # Ho
   4610    168   9 -0.930000    14.799749190    16.176885310    44.818471090   0   0   0 # Oh
   4611    168  10  0.410000    15.106705940    15.927777110    43.922758680   0   0   0 # Ho
   4612    168   9 -0.930000    16.294989020     4.511362710    41.246018060   0   0   0 # Oh
   4613    168  10  0.410000    15.615757820     4.165460660    40.631546900   0   0   0 # Ho
   4614    168   9 -0.930000    21.880869610    25.844047960    43.771164460   0   0   0 # Oh
   4615    168  10  0.410000    20.999047760    25.791240360    43.349051150   0   0   0 # Ho
   4616    168   9 -0.930000    18.861842020    27.036197360    44.018312280   0   0   0 # Oh
   4617    168  10  0.410000    18.996193640    26.170055710    43.582048190   0   0   0 # Ho
   4618    168   9 -0.930000     0.306654820    11.712397100    42.064856880   0   0   0 # Oh
   4619    168  10  0.410000     0.234910010    11.523487220    41.106867420   0   0   0 # Ho
   4620    168   9 -0.930000    21.391497900    12.765745090    45.053903960   0   0   0 # Oh
   4621    168  10  0.410000    21.397373400    12.104220400    44.332150100   0   0   0 # Ho
   4622    168   9 -0.930000    28.628768650    16.415056720    43.433747900   0   0   0 # Oh
   4623    168  10  0.410000    28.008774970    15.701315340    43.179269710   0   0   0 # Ho
   4624    168   9 -0.930000    -0.654270580    11.457570470    42.029334220   1   0   0 # Oh
   4625    168  10  0.410000    43.630900180    10.858553210    42.054535510   0   0   0 # Ho
   4626    168   9 -0.930000    36.618924410    24.817582590    39.007239670   0   0   0 # Oh
   4627    168  10  0.410000    36.162327920    23.956265140    38.916520460   0   0   0 # Ho
   4628    168   9 -0.930000    22.349037400     7.749815910    43.800456160   0   0   0 # Oh
   4629    168  10  0.410000    21.845707280     8.099003510    43.036712170   0   0   0 # Ho
   4630    168   9 -0.930000     9.094932780    27.591529280    45.135507010   0   0   0 # Oh
   4631    168  10  0.410000     9.060442840    27.642186470    44.158356890   0   0   0 # Ho
   4632    168   9 -0.930000     5.464348810     2.579033910    41.287219660   0   0   0 # Oh
   4633    168  10  0.410000     5.263487710     2.417380000    40.342708730   0   0   0 # Ho
   4634    168   9 -0.930000    17.828520960    25.157671180    43.378981930   0   0   0 # Oh
   4635    168  10  0.410000    17.171269180    25.290051200    42.665487920   0   0   0 # Ho
   4636    168   9 -0.930000    41.972140570    13.385992550    39.065773220   0   0   0 # Oh
   4637    168  10  0.410000    41.597559060    12.600265520    38.617554770   0   0   0 # Ho
   4638    168   9 -0.930000    26.564119810    24.924785560    40.618191490   0   0   0 # Oh
   4639    168  10  0.410000    26.078845790    24.087627000    40.469017970   0   0   0 # Ho
   4640    168   9 -0.930000    20.407128540    15.060988980    39.842581170   0   0   0 # Oh
   4641    168  10  0.410000    20.337947490    14.871785920    38.884461000   0   0   0 # Ho
   4642    168   9 -0.930000    21.703230240    21.158184490    39.464251810   0   0   0 # Oh
   4643    168  10  0.410000    21.304556550    20.320466760    39.151415810   0   0   0 # Ho
   4644    168   9 -0.930000    38.991416240    24.211760010    43.783310390   0   0   0 # Oh
   4645    168  10  0.410000    38.285844920    23.534701360    43.831671100   0   0   0 # Ho
   4646    168   9 -0.930000    30.934539450    13.103970670    45.105247220   0   0   0 # Oh
   4647    168  10  0.410000    30.066563070    12.668111100    44.981871690   0   0   0 # Ho
   4648    168   9 -0.930000     3.358232740    16.110853140    44.257202190   0   0   0 # Oh
   4649    168  10  0.410000     3.254101450    15.352834690    43.646348060   0   0   0 # Ho
   4650    168   9 -0.930000    30.578973330     1.651700040    44.739230400   0   0   0 # Oh
   4651    168  10  0.410000    30.671155790     1.906869920    43.798502600   0   0   0 # Ho
   4652    168   9 -0.930000     7.498256290     0.374191120    44.937697110   0   0   0 # Oh
   4653    168  10  0.410000     6.986972160     0.529284870    44.117262750   0   0   0 # Ho
   4654    168   1  1.700000    39.279237130    11.011551330    41.315590750   0   0   0 # casl
   4655    168   1  1.700000    12.631363260    18.986762940    41.040633420   0   0   0 # casl
   4656    168   1  1.700000    -0.396967510    15.441639780    40.608218500   1   0   0 # casl
   4657    168   1  1.700000    13.407469420    28.026834580    38.926956580   0   0   0 # casl
   4658    168   1  1.700000    38.772092480    14.751287240    40.595884000   0   0   0 # casl
   4659    168   1  1.700000    25.049350160    18.973299980    42.565156200   0   0   0 # casl
   4660    168   1  1.700000    43.667171900    27.610791060    44.866592640   0   0   0 # casl
   4661    168   1  1.700000    36.515844700     6.543167900    43.041634130   0   0   0 # casl
   4662    168   1  1.700000    41.268034330    28.839633670    38.741663900   0   0   0 # casl
   4663    168   1  1.700000    26.817937630    23.543586450    43.970282030   0   0   0 # casl
   4664    168   1  1.700000    11.063102830    15.224155000    43.153284950   0   0   0 # casl
   4665    168   1  1.700000     9.125449050    13.243662550    39.426743540   0   0   0 # casl
   4666    168   1  1.700000     8.576859040    12.573519080    43.236823790   0   0   0 # casl
   4667    168   1  1.700000    25.348946320    27.823219650    43.301726800   0   0   0 # casl
   4668    168   1  1.700000     9.552730080    20.522428530    39.590726980   0   0   0 # casl
   4669    168   1  1.700000     2.922011420     7.563704310    44.514585220   0   0   0 # casl
   4670    168   1  1.700000    42.118884950    27.212909280    43.696513740   0   0   0 # casl
   4671    168   1  1.700000    32.129261890     0.459446400    38.812678020   0   0   0 # casl
   4672    168   1  1.700000    13.419944290    17.515703450    40.713027940   0   0   0 # casl
   4673    168   1  1.700000    32.268685310     1.817778920    44.014313340   0   0   0 # casl
   4674    168   1  1.700000    16.881436300    15.620731010    43.476450250   0   0   0 # casl
   4675    168   1  1.700000    36.051398170    28.544569560    40.243846780   0   0   0 # casl
   4676    168   1  1.700000     5.353446630    18.051570160    41.188502910   0   0   0 # casl
   4677    168   1  1.700000    31.390078580     5.503285890    38.941911630   0   0   0 # casl
   4678    168   1  1.700000    25.421811550    27.488253560    38.968329520   0   0   0 # casl
   4679    168   1  1.700000     0.279362680     5.786755320    43.344718290   0   0   0 # casl
   4680    168   1  1.700000    43.825575000    11.855202710    44.404488840   0   0   0 # casl
   4681    168   1  1.700000    19.311093130    13.746739470    39.155753270   0   0   0 # casl
   4682    168   1  1.700000    16.027412470    20.215549710    38.638992580   0   0   0 # casl
   4683    168   1  1.700000     2.865363350    29.466875070    43.807642150   0   0   0 # casl
   4684    168   1  1.700000    14.182926940     9.310739550    43.964997630   0   0   0 # casl
   4685    168   1  1.700000     7.841867520    16.771683190    43.091415050   0   0   0 # casl
   4686    168   1  1.700000    15.946031180     8.059802800    40.423947490   0   0   0 # casl
   4687    168   1  1.700000     8.124354810    25.617546280    42.138330260   0   0   0 # casl
   4688    168   1  1.700000    13.619003860    20.301356060    44.480375210   0   0   0 # casl
   4689    168   1  1.700000    -0.309480630    25.046776600    41.568199390   1   0   0 # casl
   4690    168   1  1.700000     4.748373010    14.601342270    43.034484020   0   0   0 # casl

Bonds

     1   1      3      5
     2   2      3      6
     3   1      3      7
     4   1      3      8
     5   2      4      6
     6   1      4     11
     7   1      4   3553
     8   1      4    955
     9   3      9     56
    10   3      9     57
    11   1    304     10
    12   3     12     58
    13   3     12     59
    14   3     14     60
    15   3     14     61
    16   1     17     19
    17   2     17     20
    18   1     17     21
    19   1     17     22
    20   2     18     20
    21   1     18     24
    22   1     18     25
    23   1     18   3559
    24   3     23     74
    25   3     23     75
    26   3     26     64
    27   3     26     65
    28   2     29     32
    29   1     29     33
    30   1     29   3560
    31   1     29    331
    32   2     30     32
    33   1     30     34
    34   1     30     35
    35   1     30     36
    36   1    972     31
    37   3     37     54
    38   3     37     55
    39   1     40     42
    40   1     40     44
    41   1     40   3561
    42   2     40   1714
    43   2     41     43
    44   1     41     46
    45   1     41     47
    46   1     41     48
    47   2    340     43
    48   3     45     62
    49   3     45     63
    50   3     49     70
    51   3     49     71
    52   3     50     68
    53   3     50     69
    54   3     51     66
    55   3     51     67
    56   3     53     72
    57   3     53     73
    58   1     78     80
    59   2     78     81
    60   1     78     82
    61   1     78     83
    62   2     79     81
    63   1     79     86
    64   1     79   3554
    65   1     79   1024
    66   3     84    131
    67   3     84    132
    68   1    379     85
    69   3     87    133
    70   3     87    134
    71   3     89    135
    72   3     89    136
    73   1     92     94
    74   2     92     95
    75   1     92     96
    76   1     92     97
    77   2     93     95
    78   1     93     99
    79   1     93    100
    80   1     93   3564
    81   3     98    149
    82   3     98    150
    83   3    101    139
    84   3    101    140
    85   2    104    107
    86   1    104    108
    87   1    104   3565
    88   1    104    406
    89   2    105    107
    90   1    105    109
    91   1    105    110
    92   1    105    111
    93   1   1041    106
    94   3    112    129
    95   3    112    130
    96   1    115    117
    97   1    115    119
    98   1    115   3566
    99   2    115   1724
   100   2    116    118
   101   1    116    121
   102   1    116    122
   103   1    116    123
   104   2    415    118
   105   3    120    137
   106   3    120    138
   107   3    124    145
   108   3    124    146
   109   3    125    143
   110   3    125    144
   111   3    126    141
   112   3    126    142
   113   3    128    147
   114   3    128    148
   115   1    153    155
   116   2    153    156
   117   1    153    157
   118   1    153    158
   119   2    154    156
   120   1    154    161
   121   1    154   3555
   122   2    154   1096
   123   3    159    206
   124   3    159    207
   125   1    455    160
   126   3    162    208
   127   3    162    209
   128   3    164    210
   129   3    164    211
   130   1    167    169
   131   2    167    170
   132   1    167    171
   133   1    167    172
   134   2    168    170
   135   2    168    174
   136   1    168    175
   137   1    168   3569
   138   3    173    224
   139   3    173    225
   140   2   1735    174
   141   3    176    214
   142   3    176    215
   143   2    179    182
   144   1    179    183
   145   1    179   3570
   146   2    179    488
   147   2    180    182
   148   1    180    184
   149   1    180    185
   150   1    180    186
   151   1   1114    181
   152   3    187    204
   153   3    187    205
   154   1    190    192
   155   1    190    194
   156   1    190   3571
   157   2    190   1740
   158   2    191    193
   159   1    191    196
   160   1    191    197
   161   1    191    198
   162   2    499    193
   163   3    195    212
   164   3    195    213
   165   3    199    220
   166   3    199    221
   167   3    200    218
   168   3    200    219
   169   3    201    216
   170   3    201    217
   171   3    203    222
   172   3    203    223
   173   1    228    230
   174   2    228    231
   175   1    228    232
   176   1    228    233
   177   2    229    231
   178   1    229    236
   179   1    229   3556
   180   1    229   1174
   181   3    234    281
   182   3    234    282
   183   1    545    235
   184   3    237    283
   185   3    237    284
   186   3    239    285
   187   3    239    286
   188   1    242    244
   189   2    242    245
   190   1    242    246
   191   1    242    247
   192   2    243    245
   193   1    243    249
   194   1    243    250
   195   1    243   3574
   196   3    248    299
   197   3    248    300
   198   3    251    289
   199   3    251    290
   200   2    254    257
   201   1    254    258
   202   1    254   3575
   203   2    254    578
   204   2    255    257
   205   1    255    259
   206   1    255    260
   207   1    255    261
   208   1   1191    256
   209   3    262    279
   210   3    262    280
   211   1    265    267
   212   1    265    269
   213   1    265   3576
   214   2    265   1752
   215   2    266    268
   216   1    266    271
   217   1    266    272
   218   1    266    273
   219   2    589    268
   220   3    270    287
   221   3    270    288
   222   3    274    295
   223   3    274    296
   224   3    275    293
   225   3    275    294
   226   3    276    291
   227   3    276    292
   228   3    278    297
   229   3    278    298
   230   1    303    305
   231   2    303    306
   232   1    303    307
   233   1    303    308
   234   2    304    306
   235   1    304    311
   236   1    304   3509
   237   3    309    356
   238   3    309    357
   239   1    634    310
   240   3    312    358
   241   3    312    359
   242   3    314    360
   243   3    314    361
   244   1    317    319
   245   2    317    320
   246   1    317    321
   247   1    317    322
   248   2    318    320
   249   1    318    324
   250   1    318    325
   251   1    318   3510
   252   3    323    374
   253   3    323    375
   254   3    326    364
   255   3    326    365
   256   2    329    332
   257   1    329    333
   258   1    329   3511
   259   1    329    661
   260   2    330    332
   261   1    330    334
   262   1    330    335
   263   1    330    336
   264   3    337    354
   265   3    337    355
   266   1    340    342
   267   1    340    344
   268   1    340   3512
   269   2    341    343
   270   1    341    346
   271   1    341    347
   272   1    341    348
   273   2    670    343
   274   3    345    362
   275   3    345    363
   276   3    349    370
   277   3    349    371
   278   3    350    368
   279   3    350    369
   280   3    351    366
   281   3    351    367
   282   3    353    372
   283   3    353    373
   284   1    378    380
   285   2    378    381
   286   1    378    382
   287   1    378    383
   288   2    379    381
   289   1    379    386
   290   1    379   3513
   291   3    384    431
   292   3    384    432
   293   1    709    385
   294   3    387    433
   295   3    387    434
   296   3    389    435
   297   3    389    436
   298   1    392    394
   299   2    392    395
   300   1    392    396
   301   1    392    397
   302   2    393    395
   303   1    393    399
   304   1    393    400
   305   1    393   3514
   306   3    398    449
   307   3    398    450
   308   3    401    439
   309   3    401    440
   310   2    404    407
   311   1    404    408
   312   1    404   3515
   313   1    404    736
   314   2    405    407
   315   1    405    409
   316   1    405    410
   317   1    405    411
   318   3    412    429
   319   3    412    430
   320   1    415    417
   321   1    415    419
   322   1    415   3516
   323   2    416    418
   324   1    416    421
   325   1    416    422
   326   1    416    423
   327   2    745    418
   328   3    420    437
   329   3    420    438
   330   3    424    445
   331   3    424    446
   332   3    425    443
   333   3    425    444
   334   3    426    441
   335   3    426    442
   336   3    428    447
   337   3    428    448
   338   2    453    456
   339   2    453    457
   340   1    453    458
   341   1    453    459
   342   2    454    456
   343   4    454    461
   344   2    454    463
   345   1    454    491
   346   2    455    457
   347   1    455    464
   348   1    455   3517
   349   1    486    460
   350   5    461    518
   351   3    462    521
   352   3    462    522
   353   2    785    463
   354   3    465    523
   355   3    465    524
   356   3    467    525
   357   3    467    526
   358   2    470    473
   359   2    470    474
   360   1    470    475
   361   1    470    476
   362   2    471    473
   363   4    471    478
   364   1    471    505
   365   2    471    810
   366   2    472    474
   367   1    472    480
   368   1    472    481
   369   1    472   3518
   370   1    500    477
   371   5    478    516
   372   3    479    539
   373   3    479    540
   374   3    482    529
   375   3    482    530
   376   2    485    489
   377   1    485    490
   378   1    485   3519
   379   2    485    818
   380   2    486    488
   381   1    486    492
   382   2    486    493
   383   2    487    489
   384   2    487    493
   385   1    487    494
   386   1    487    495
   387   3    496    519
   388   3    496    520
   389   2    499    502
   390   1    499    504
   391   1    499   3520
   392   2    500    502
   393   4    500    506
   394   2    500    508
   395   2    501    503
   396   2    501    508
   397   1    501    509
   398   1    501    510
   399   2    829    503
   400   5    506    517
   401   3    507    527
   402   3    507    528
   403   3    511    535
   404   3    511    536
   405   3    512    533
   406   3    512    534
   407   3    513    531
   408   3    513    532
   409   3    515    537
   410   3    515    538
   411   2    543    546
   412   2    543    547
   413   1    543    548
   414   1    543    549
   415   2    544    546
   416   4    544    551
   417   2    544    553
   418   1    544    581
   419   2    545    547
   420   1    545    554
   421   1    545   3521
   422   1    576    550
   423   5    551    608
   424   3    552    611
   425   3    552    612
   426   2    874    553
   427   3    555    613
   428   3    555    614
   429   3    557    615
   430   3    557    616
   431   2    560    563
   432   2    560    564
   433   1    560    565
   434   1    560    566
   435   2    561    563
   436   4    561    568
   437   1    561    595
   438   2    561    894
   439   2    562    564
   440   1    562    570
   441   1    562    571
   442   1    562   3522
   443   1    590    567
   444   5    568    606
   445   3    569    629
   446   3    569    630
   447   3    572    619
   448   3    572    620
   449   2    575    579
   450   1    575    580
   451   1    575   3523
   452   1    575    901
   453   2    576    578
   454   1    576    582
   455   2    576    583
   456   2    577    579
   457   2    577    583
   458   1    577    584
   459   1    577    585
   460   3    586    609
   461   3    586    610
   462   2    589    592
   463   1    589    594
   464   1    589   3524
   465   2    590    592
   466   4    590    596
   467   2    590    598
   468   2    591    593
   469   2    591    598
   470   1    591    599
   471   1    591    600
   472   2    910    593
   473   5    596    607
   474   3    597    617
   475   3    597    618
   476   3    601    625
   477   3    601    626
   478   3    602    623
   479   3    602    624
   480   3    603    621
   481   3    603    622
   482   3    605    627
   483   3    605    628
   484   1    633    635
   485   2    633    636
   486   1    633    637
   487   1    633    638
   488   2    634    636
   489   1    634    641
   490   1    634   3525
   491   3    639    686
   492   3    639    687
   493   1    949    640
   494   3    642    688
   495   3    642    689
   496   3    644    690
   497   3    644    691
   498   1    647    649
   499   2    647    650
   500   1    647    651
   501   1    647    652
   502   2    648    650
   503   1    648    654
   504   1    648    655
   505   1    648   3526
   506   3    653    704
   507   3    653    705
   508   3    656    694
   509   3    656    695
   510   2    659    662
   511   1    659    663
   512   1    659   3527
   513   1    659    974
   514   2    660    662
   515   1    660    664
   516   1    660    665
   517   1    660    666
   518   3    667    684
   519   3    667    685
   520   1    670    672
   521   1    670    674
   522   1    670   3528
   523   2    671    673
   524   1    671    676
   525   1    671    677
   526   1    671    678
   527   2    982    673
   528   3    675    692
   529   3    675    693
   530   3    679    700
   531   3    679    701
   532   3    680    698
   533   3    680    699
   534   3    681    696
   535   3    681    697
   536   3    683    702
   537   3    683    703
   538   1    708    710
   539   2    708    711
   540   1    708    712
   541   1    708    713
   542   2    709    711
   543   1    709    716
   544   1    709   3529
   545   3    714    761
   546   3    714    762
   547   1   1018    715
   548   3    717    763
   549   3    717    764
   550   3    719    765
   551   3    719    766
   552   1    722    724
   553   2    722    725
   554   1    722    726
   555   1    722    727
   556   2    723    725
   557   1    723    729
   558   1    723    730
   559   1    723   3530
   560   3    728    779
   561   3    728    780
   562   3    731    769
   563   3    731    770
   564   2    734    737
   565   1    734    738
   566   1    734   3531
   567   1    734   1043
   568   2    735    737
   569   1    735    739
   570   1    735    740
   571   1    735    741
   572   3    742    759
   573   3    742    760
   574   1    745    747
   575   1    745    749
   576   1    745   3532
   577   2    746    748
   578   1    746    751
   579   1    746    752
   580   1    746    753
   581   2   1051    748
   582   3    750    767
   583   3    750    768
   584   3    754    775
   585   3    754    776
   586   3    755    773
   587   3    755    774
   588   3    756    771
   589   3    756    772
   590   3    758    777
   591   3    758    778
   592   2    783    786
   593   2    783    787
   594   1    783    788
   595   1    783    789
   596   2    784    786
   597   4    784    791
   598   2    784    793
   599   1    784    821
   600   2    785    787
   601   1    785    794
   602   1    785   3533
   603   1    816    790
   604   5    791    848
   605   3    792    851
   606   3    792    852
   607   2   1088    793
   608   3    795    853
   609   3    795    854
   610   3    797    855
   611   3    797    856
   612   2    800    803
   613   2    800    804
   614   1    800    805
   615   1    800    806
   616   2    801    803
   617   4    801    808
   618   1    801    835
   619   2    801   1111
   620   2    802    804
   621   2    802    810
   622   1    802    811
   623   1    802   3534
   624   1    830    807
   625   5    808    846
   626   3    809    869
   627   3    809    870
   628   3    812    859
   629   3    812    860
   630   2    815    819
   631   1    815    820
   632   1    815   3535
   633   2    815   1117
   634   2    816    818
   635   1    816    822
   636   2    816    823
   637   2    817    819
   638   2    817    823
   639   1    817    824
   640   1    817    825
   641   3    826    849
   642   3    826    850
   643   2    829    832
   644   1    829    834
   645   1    829   3536
   646   2    830    832
   647   4    830    836
   648   2    830    838
   649   2    831    833
   650   2    831    838
   651   1    831    839
   652   1    831    840
   653   2   1127    833
   654   5    836    847
   655   3    837    857
   656   3    837    858
   657   3    841    865
   658   3    841    866
   659   3    842    863
   660   3    842    864
   661   3    843    861
   662   3    843    862
   663   3    845    867
   664   3    845    868
   665   1    873    875
   666   2    873    876
   667   1    873    877
   668   1    873    878
   669   2    874    876
   670   1    874    881
   671   1    874   3537
   672   3    879    926
   673   3    879    927
   674   1   1168    880
   675   3    882    928
   676   3    882    929
   677   3    884    930
   678   3    884    931
   679   1    887    889
   680   2    887    890
   681   1    887    891
   682   1    887    892
   683   2    888    890
   684   2    888    894
   685   1    888    895
   686   1    888   3538
   687   3    893    944
   688   3    893    945
   689   3    896    934
   690   3    896    935
   691   2    899    902
   692   1    899    903
   693   1    899   3539
   694   1    899   1193
   695   2    900    902
   696   1    900    904
   697   1    900    905
   698   1    900    906
   699   3    907    924
   700   3    907    925
   701   1    910    912
   702   1    910    914
   703   1    910   3540
   704   2    911    913
   705   1    911    916
   706   1    911    917
   707   1    911    918
   708   2   1201    913
   709   3    915    932
   710   3    915    933
   711   3    919    940
   712   3    919    941
   713   3    920    938
   714   3    920    939
   715   3    921    936
   716   3    921    937
   717   3    923    942
   718   3    923    943
   719   1    948    950
   720   2    948    951
   721   1    948    952
   722   1    948    953
   723   2    949    951
   724   1    949    956
   725   1    949   3541
   726   3    954    997
   727   3    954    998
   728   3    957    999
   729   3    957   1000
   730   3    959   1001
   731   3    959   1002
   732   1    962    964
   733   2    962    965
   734   1    962    966
   735   1    962    967
   736   2    963    965
   737   1    963    969
   738   1    963    970
   739   1    963   3542
   740   3    968   1013
   741   3    968   1014
   742   2    972    975
   743   1    972    976
   744   1    972   3598
   745   2    973    975
   746   1    973    977
   747   1    973    978
   748   1    973    979
   749   3    980    995
   750   3    980    996
   751   1    982    984
   752   1    982    985
   753   1    982   3543
   754   2    983   1714
   755   1    983    987
   756   1    983    988
   757   1    983    989
   758   3    986   1003
   759   3    986   1004
   760   3    990   1009
   761   3    990   1010
   762   3    991   1007
   763   3    991   1008
   764   3    992   1005
   765   3    992   1006
   766   3    994   1011
   767   3    994   1012
   768   1   1017   1019
   769   2   1017   1020
   770   1   1017   1021
   771   1   1017   1022
   772   2   1018   1020
   773   1   1018   1025
   774   1   1018   3544
   775   3   1023   1066
   776   3   1023   1067
   777   3   1026   1068
   778   3   1026   1069
   779   3   1028   1070
   780   3   1028   1071
   781   1   1031   1033
   782   2   1031   1034
   783   1   1031   1035
   784   1   1031   1036
   785   2   1032   1034
   786   1   1032   1038
   787   1   1032   1039
   788   1   1032   3545
   789   3   1037   1082
   790   3   1037   1083
   791   2   1041   1044
   792   1   1041   1045
   793   1   1041   3600
   794   2   1042   1044
   795   1   1042   1046
   796   1   1042   1047
   797   1   1042   1048
   798   3   1049   1064
   799   3   1049   1065
   800   1   1051   1053
   801   1   1051   1054
   802   1   1051   3546
   803   2   1052   1724
   804   1   1052   1056
   805   1   1052   1057
   806   1   1052   1058
   807   3   1055   1072
   808   3   1055   1073
   809   3   1059   1078
   810   3   1059   1079
   811   3   1060   1076
   812   3   1060   1077
   813   3   1061   1074
   814   3   1061   1075
   815   3   1063   1080
   816   3   1063   1081
   817   2   1086   1089
   818   2   1086   1090
   819   1   1086   1091
   820   1   1086   1092
   821   2   1087   1089
   822   4   1087   1094
   823   2   1087   1096
   824   1   1087   1120
   825   2   1088   1090
   826   1   1088   1097
   827   1   1088   3547
   828   1   1115   1093
   829   5   1094   1144
   830   3   1095   1147
   831   3   1095   1148
   832   3   1098   1149
   833   3   1098   1150
   834   3   1100   1151
   835   3   1100   1152
   836   2   1103   1105
   837   2   1103   1106
   838   1   1103   1107
   839   1   1103   1108
   840   2   1104   1106
   841   2   1104   1111
   842   1   1104   1112
   843   1   1104   3548
   844   2   1735   1105
   845   1   1128   1109
   846   3   1110   1163
   847   3   1110   1164
   848   2   1114   1118
   849   1   1114   1119
   850   1   1114   3602
   851   2   1115   1117
   852   4   1115   1121
   853   2   1115   1122
   854   2   1116   1118
   855   2   1116   1122
   856   1   1116   1123
   857   1   1116   1124
   858   5   1121   1142
   859   3   1125   1145
   860   3   1125   1146
   861   2   1127   1130
   862   1   1127   1131
   863   1   1127   3549
   864   2   1128   1130
   865   4   1128   1132
   866   2   1128   1134
   867   2   1129   1740
   868   2   1129   1134
   869   1   1129   1135
   870   1   1129   1136
   871   5   1132   1143
   872   3   1133   1153
   873   3   1133   1154
   874   3   1137   1159
   875   3   1137   1160
   876   3   1138   1157
   877   3   1138   1158
   878   3   1139   1155
   879   3   1139   1156
   880   3   1141   1161
   881   3   1141   1162
   882   1   1167   1169
   883   2   1167   1170
   884   1   1167   1171
   885   1   1167   1172
   886   2   1168   1170
   887   1   1168   1175
   888   1   1168   3550
   889   3   1173   1216
   890   3   1173   1217
   891   3   1176   1218
   892   3   1176   1219
   893   3   1178   1220
   894   3   1178   1221
   895   1   1181   1183
   896   2   1181   1184
   897   1   1181   1185
   898   1   1181   1186
   899   2   1182   1184
   900   1   1182   1188
   901   1   1182   1189
   902   1   1182   3551
   903   3   1187   1232
   904   3   1187   1233
   905   2   1191   1194
   906   1   1191   1195
   907   1   1191   3604
   908   2   1192   1194
   909   1   1192   1196
   910   1   1192   1197
   911   1   1192   1198
   912   3   1199   1214
   913   3   1199   1215
   914   1   1201   1203
   915   1   1201   1204
   916   1   1201   3552
   917   2   1202   1752
   918   1   1202   1206
   919   1   1202   1207
   920   1   1202   1208
   921   3   1205   1222
   922   3   1205   1223
   923   3   1209   1228
   924   3   1209   1229
   925   3   1210   1226
   926   3   1210   1227
   927   3   1211   1224
   928   3   1211   1225
   929   3   1213   1230
   930   3   1213   1231
   931   3   1234   1261
   932   3   1234   1262
   933   1   1237   1239
   934   2   1237   1240
   935   1   1237   1241
   936   1   1237   1242
   937   2   1238   1240
   938   1   1238   1243
   939   1   1238   1244
   940   1   1238   3557
   941   2   1247   1250
   942   1   1247   1251
   943   1   1247   3558
   944   1   1247   1365
   945   2   1248   1250
   946   1   1248   1253
   947   1   1248   1254
   948   1   1248   1255
   949   1   1615   1249
   950   3   1252   1257
   951   3   1252   1258
   952   3   1256   1259
   953   3   1256   1260
   954   3   1263   1290
   955   3   1263   1291
   956   1   1266   1268
   957   2   1266   1269
   958   1   1266   1270
   959   1   1266   1271
   960   2   1267   1269
   961   1   1267   1272
   962   1   1267   1273
   963   1   1267   3562
   964   2   1276   1279
   965   1   1276   1280
   966   1   1276   3563
   967   1   1276   1394
   968   2   1277   1279
   969   1   1277   1282
   970   1   1277   1283
   971   1   1277   1284
   972   1   1640   1278
   973   3   1281   1286
   974   3   1281   1287
   975   3   1285   1288
   976   3   1285   1289
   977   3   1292   1319
   978   3   1292   1320
   979   1   1295   1297
   980   2   1295   1298
   981   1   1295   1299
   982   1   1295   1300
   983   2   1296   1298
   984   2   1296   1301
   985   1   1296   1302
   986   1   1296   3567
   987   2   1727   1301
   988   2   1305   1308
   989   1   1305   1309
   990   1   1305   3568
   991   2   1305   1427
   992   2   1306   1308
   993   1   1306   1311
   994   1   1306   1312
   995   1   1306   1313
   996   1   1666   1307
   997   3   1310   1315
   998   3   1310   1316
   999   3   1314   1317
  1000   3   1314   1318
  1001   3   1321   1348
  1002   3   1321   1349
  1003   1   1324   1326
  1004   2   1324   1327
  1005   1   1324   1328
  1006   1   1324   1329
  1007   2   1325   1327
  1008   1   1325   1330
  1009   1   1325   1331
  1010   1   1325   3572
  1011   2   1334   1337
  1012   1   1334   1338
  1013   1   1334   3573
  1014   2   1334   1463
  1015   2   1335   1337
  1016   1   1335   1340
  1017   1   1335   1341
  1018   1   1335   1342
  1019   1   1694   1336
  1020   3   1339   1344
  1021   3   1339   1345
  1022   3   1343   1346
  1023   3   1343   1347
  1024   3   1350   1377
  1025   3   1350   1378
  1026   1   1353   1355
  1027   2   1353   1356
  1028   1   1353   1357
  1029   1   1353   1358
  1030   2   1354   1356
  1031   1   1354   1359
  1032   1   1354   1360
  1033   1   1354   3577
  1034   2   1363   1366
  1035   1   1363   1367
  1036   1   1363   3578
  1037   1   1363   1495
  1038   2   1364   1366
  1039   1   1364   1369
  1040   1   1364   1370
  1041   1   1364   1371
  1042   3   1368   1373
  1043   3   1368   1374
  1044   3   1372   1375
  1045   3   1372   1376
  1046   3   1379   1406
  1047   3   1379   1407
  1048   1   1382   1384
  1049   2   1382   1385
  1050   1   1382   1386
  1051   1   1382   1387
  1052   2   1383   1385
  1053   1   1383   1388
  1054   1   1383   1389
  1055   1   1383   3579
  1056   2   1392   1395
  1057   1   1392   1396
  1058   1   1392   3580
  1059   1   1392   1524
  1060   2   1393   1395
  1061   1   1393   1398
  1062   1   1393   1399
  1063   1   1393   1400
  1064   3   1397   1402
  1065   3   1397   1403
  1066   3   1401   1404
  1067   3   1401   1405
  1068   1   1425   1408
  1069   3   1409   1442
  1070   3   1409   1443
  1071   2   1412   1415
  1072   2   1412   1416
  1073   1   1412   1417
  1074   1   1412   1418
  1075   2   1413   1415
  1076   1   1413   1419
  1077   1   1413   1436
  1078   2   1413   1550
  1079   2   1414   1416
  1080   1   1414   1420
  1081   1   1414   1421
  1082   1   1414   3581
  1083   2   1424   1428
  1084   1   1424   1429
  1085   1   1424   3582
  1086   2   1424   1557
  1087   2   1425   1427
  1088   4   1425   1430
  1089   2   1425   1432
  1090   2   1426   1428
  1091   2   1426   1432
  1092   1   1426   1433
  1093   1   1426   1434
  1094   5   1430   1437
  1095   3   1431   1438
  1096   3   1431   1439
  1097   3   1435   1440
  1098   3   1435   1441
  1099   1   1461   1444
  1100   3   1445   1478
  1101   3   1445   1479
  1102   2   1448   1451
  1103   2   1448   1452
  1104   1   1448   1453
  1105   1   1448   1454
  1106   2   1449   1451
  1107   1   1449   1455
  1108   1   1449   1472
  1109   2   1449   1583
  1110   2   1450   1452
  1111   1   1450   1456
  1112   1   1450   1457
  1113   1   1450   3583
  1114   2   1460   1464
  1115   1   1460   1465
  1116   1   1460   3584
  1117   1   1460   1589
  1118   2   1461   1463
  1119   4   1461   1466
  1120   2   1461   1468
  1121   2   1462   1464
  1122   2   1462   1468
  1123   1   1462   1469
  1124   1   1462   1470
  1125   5   1466   1473
  1126   3   1467   1474
  1127   3   1467   1475
  1128   3   1471   1476
  1129   3   1471   1477
  1130   3   1480   1507
  1131   3   1480   1508
  1132   1   1483   1485
  1133   2   1483   1486
  1134   1   1483   1487
  1135   1   1483   1488
  1136   2   1484   1486
  1137   1   1484   1489
  1138   1   1484   1490
  1139   1   1484   3585
  1140   2   1493   1496
  1141   1   1493   1497
  1142   1   1493   3586
  1143   1   1493   1617
  1144   2   1494   1496
  1145   1   1494   1499
  1146   1   1494   1500
  1147   1   1494   1501
  1148   3   1498   1503
  1149   3   1498   1504
  1150   3   1502   1505
  1151   3   1502   1506
  1152   3   1509   1536
  1153   3   1509   1537
  1154   1   1512   1514
  1155   2   1512   1515
  1156   1   1512   1516
  1157   1   1512   1517
  1158   2   1513   1515
  1159   1   1513   1518
  1160   1   1513   1519
  1161   1   1513   3587
  1162   2   1522   1525
  1163   1   1522   1526
  1164   1   1522   3588
  1165   1   1522   1642
  1166   2   1523   1525
  1167   1   1523   1528
  1168   1   1523   1529
  1169   1   1523   1530
  1170   3   1527   1532
  1171   3   1527   1533
  1172   3   1531   1534
  1173   3   1531   1535
  1174   1   1555   1538
  1175   3   1539   1572
  1176   3   1539   1573
  1177   2   1542   1545
  1178   2   1542   1546
  1179   1   1542   1547
  1180   1   1542   1548
  1181   2   1543   1545
  1182   1   1543   1549
  1183   1   1543   1566
  1184   2   1543   1663
  1185   2   1544   1546
  1186   2   1544   1550
  1187   1   1544   1551
  1188   1   1544   3589
  1189   2   1554   1558
  1190   1   1554   1559
  1191   1   1554   3590
  1192   2   1554   1669
  1193   2   1555   1557
  1194   4   1555   1560
  1195   2   1555   1562
  1196   2   1556   1558
  1197   2   1556   1562
  1198   1   1556   1563
  1199   1   1556   1564
  1200   5   1560   1567
  1201   3   1561   1568
  1202   3   1561   1569
  1203   3   1565   1570
  1204   3   1565   1571
  1205   3   1574   1601
  1206   3   1574   1602
  1207   1   1577   1579
  1208   2   1577   1580
  1209   1   1577   1581
  1210   1   1577   1582
  1211   2   1578   1580
  1212   2   1578   1583
  1213   1   1578   1584
  1214   1   1578   3591
  1215   2   1587   1590
  1216   1   1587   1591
  1217   1   1587   3592
  1218   1   1587   1696
  1219   2   1588   1590
  1220   1   1588   1593
  1221   1   1588   1594
  1222   1   1588   1595
  1223   3   1592   1597
  1224   3   1592   1598
  1225   3   1596   1599
  1226   3   1596   1600
  1227   3   1603   1626
  1228   3   1603   1627
  1229   1   1606   1608
  1230   2   1606   1609
  1231   1   1606   1610
  1232   1   1606   1611
  1233   2   1607   1609
  1234   1   1607   1612
  1235   1   1607   1613
  1236   1   1607   3593
  1237   2   1615   1618
  1238   1   1615   1619
  1239   1   1615   3597
  1240   2   1616   1618
  1241   1   1616   1621
  1242   1   1616   1622
  1243   1   1616   1623
  1244   3   1620   1624
  1245   3   1620   1625
  1246   3   1628   1651
  1247   3   1628   1652
  1248   1   1631   1633
  1249   2   1631   1634
  1250   1   1631   1635
  1251   1   1631   1636
  1252   2   1632   1634
  1253   1   1632   1637
  1254   1   1632   1638
  1255   1   1632   3594
  1256   2   1640   1643
  1257   1   1640   1644
  1258   1   1640   3599
  1259   2   1641   1643
  1260   1   1641   1646
  1261   1   1641   1647
  1262   1   1641   1648
  1263   3   1645   1649
  1264   3   1645   1650
  1265   1   1667   1653
  1266   3   1654   1680
  1267   3   1654   1681
  1268   2   1657   1659
  1269   2   1657   1660
  1270   1   1657   1661
  1271   1   1657   1662
  1272   2   1658   1660
  1273   2   1658   1663
  1274   1   1658   1664
  1275   1   1658   3595
  1276   2   1727   1659
  1277   2   1666   1670
  1278   1   1666   1671
  1279   1   1666   3601
  1280   2   1667   1669
  1281   4   1667   1672
  1282   2   1667   1674
  1283   2   1668   1670
  1284   2   1668   1674
  1285   1   1668   1675
  1286   1   1668   1676
  1287   5   1672   1677
  1288   3   1673   1678
  1289   3   1673   1679
  1290   3   1682   1705
  1291   3   1682   1706
  1292   1   1685   1687
  1293   2   1685   1688
  1294   1   1685   1689
  1295   1   1685   1690
  1296   2   1686   1688
  1297   1   1686   1691
  1298   1   1686   1692
  1299   1   1686   3596
  1300   2   1694   1697
  1301   1   1694   1698
  1302   1   1694   3603
  1303   2   1695   1697
  1304   1   1695   1700
  1305   1   1695   1701
  1306   1   1695   1702
  1307   3   1699   1703
  1308   3   1699   1704
  1309   3   1708   1709
  1310   3   1708   1710
  1311   3   1711   1715
  1312   3   1711   1716
  1313   3   1718   1719
  1314   3   1718   1720
  1315   3   1721   1725
  1316   3   1721   1726
  1317   4   1727   1728
  1318   1   1727   1731
  1319   5   1728   1732
  1320   3   1730   1733
  1321   3   1730   1734
  1322   4   1735   1736
  1323   1   1735   1741
  1324   5   1736   1742
  1325   3   1737   1743
  1326   3   1737   1744
  1327   3   1746   1747
  1328   3   1746   1748
  1329   3   1749   1753
  1330   3   1749   1754
  1331   2   1757   1760
  1332   1   1757   1761
  1333   1   1757   1762
  1334   2   1757   2058
  1335   2   1758   1760
  1336   1   1758   1764
  1337   1   1758   1765
  1338   1   1758   3605
  1339   1   2670   1759
  1340   3   1763   1808
  1341   3   1763   1809
  1342   3   1766   1810
  1343   3   1766   1811
  1344   3   1768   1812
  1345   3   1768   1813
  1346   1   1771   1773
  1347   1   1771   1775
  1348   1   1771   1776
  1349   2   1771   2992
  1350   1   1772   1778
  1351   1   1772   1779
  1352   1   1772   3606
  1353   2   1772   1774
  1354   2   2072   1774
  1355   3   1777   1824
  1356   3   1777   1825
  1357   3   1780   1816
  1358   3   1780   1817
  1359   1   1783   1785
  1360   2   1783   1786
  1361   1   1783   1787
  1362   1   1783   3607
  1363   2   1784   1786
  1364   1   1784   1789
  1365   1   1784   3489
  1366   2   1784   2708
  1367   1   2089   1788
  1368   3   1790   1806
  1369   3   1790   1807
  1370   2   1793   1795
  1371   2   1793   1796
  1372   1   1793   1797
  1373   1   1793   3608
  1374   2   1794   1796
  1375   1   1794   1799
  1376   1   1794   1800
  1377   1   1794   1801
  1378   2   2102   1795
  1379   3   1798   1814
  1380   3   1798   1815
  1381   3   1802   1820
  1382   3   1802   1821
  1383   3   1803   1818
  1384   3   1803   1819
  1385   3   1805   1822
  1386   3   1805   1823
  1387   2   1828   1831
  1388   1   1828   1832
  1389   1   1828   1833
  1390   1   1828   2147
  1391   2   1829   1831
  1392   1   1829   1835
  1393   1   1829   1836
  1394   1   1829   3609
  1395   1   2759   1830
  1396   3   1834   1879
  1397   3   1834   1880
  1398   3   1837   1881
  1399   3   1837   1882
  1400   3   1839   1883
  1401   3   1839   1884
  1402   1   1842   1844
  1403   1   1842   1846
  1404   1   1842   1847
  1405   2   1842   2994
  1406   1   1843   1849
  1407   1   1843   1850
  1408   1   1843   3610
  1409   2   1843   1845
  1410   2   2159   1845
  1411   3   1848   1895
  1412   3   1848   1896
  1413   3   1851   1887
  1414   3   1851   1888
  1415   1   1854   1856
  1416   2   1854   1857
  1417   1   1854   1858
  1418   1   1854   3611
  1419   2   1855   1857
  1420   1   1855   1860
  1421   1   1855   3494
  1422   1   1855   2788
  1423   1   2172   1859
  1424   3   1861   1877
  1425   3   1861   1878
  1426   1   1864   1866
  1427   2   1864   1867
  1428   1   1864   1868
  1429   1   1864   3612
  1430   2   1865   1867
  1431   1   1865   1870
  1432   1   1865   1871
  1433   1   1865   1872
  1434   3   1869   1885
  1435   3   1869   1886
  1436   3   1873   1891
  1437   3   1873   1892
  1438   3   1874   1889
  1439   3   1874   1890
  1440   3   1876   1893
  1441   3   1876   1894
  1442   2   1899   1902
  1443   1   1899   1903
  1444   1   1899   1904
  1445   1   1899   2222
  1446   2   1900   1902
  1447   1   1900   1906
  1448   1   1900   1907
  1449   1   1900   3613
  1450   1   2832   1901
  1451   3   1905   1950
  1452   3   1905   1951
  1453   3   1908   1952
  1454   3   1908   1953
  1455   3   1910   1954
  1456   3   1910   1955
  1457   1   1913   1915
  1458   1   1913   1917
  1459   1   1913   1918
  1460   2   1913   2996
  1461   1   1914   1920
  1462   1   1914   1921
  1463   1   1914   3614
  1464   2   1914   1916
  1465   2   2234   1916
  1466   3   1919   1966
  1467   3   1919   1967
  1468   3   1922   1958
  1469   3   1922   1959
  1470   1   1925   1927
  1471   2   1925   1928
  1472   1   1925   1929
  1473   1   1925   3615
  1474   2   1926   1928
  1475   1   1926   1931
  1476   1   1926   3499
  1477   1   1926   2861
  1478   1   2247   1930
  1479   3   1932   1948
  1480   3   1932   1949
  1481   1   1935   1937
  1482   2   1935   1938
  1483   1   1935   1939
  1484   1   1935   3616
  1485   2   1936   1938
  1486   1   1936   1941
  1487   1   1936   1942
  1488   1   1936   1943
  1489   3   1940   1956
  1490   3   1940   1957
  1491   3   1944   1962
  1492   3   1944   1963
  1493   3   1945   1960
  1494   3   1945   1961
  1495   3   1947   1964
  1496   3   1947   1965
  1497   2   1970   1974
  1498   1   1970   1975
  1499   1   1970   1976
  1500   1   1970   2297
  1501   2   1971   1973
  1502   4   1971   1978
  1503   2   1971   1980
  1504   1   1971   2008
  1505   2   1972   1974
  1506   2   1972   1980
  1507   1   1972   1981
  1508   1   1972   3617
  1509   2   2905   1973
  1510   1   2003   1977
  1511   5   1978   2032
  1512   3   1979   2035
  1513   3   1979   2036
  1514   3   1982   2037
  1515   3   1982   2038
  1516   3   1984   2039
  1517   3   1984   2040
  1518   2   1987   1990
  1519   1   1987   1992
  1520   1   1987   1993
  1521   2   1987   2998
  1522   2   1988   1990
  1523   4   1988   1995
  1524   2   1988   1997
  1525   1   1988   2021
  1526   2   1989   1997
  1527   1   1989   1998
  1528   1   1989   3618
  1529   2   1989   1991
  1530   2   2309   1991
  1531   1   2016   1994
  1532   5   1995   2031
  1533   3   1996   2051
  1534   3   1996   2052
  1535   3   1999   2043
  1536   3   1999   2044
  1537   2   2002   2005
  1538   2   2002   2006
  1539   1   2002   2007
  1540   1   2002   3619
  1541   2   2003   2005
  1542   1   2003   2009
  1543   2   2003   2010
  1544   2   2004   2006
  1545   1   2004   2011
  1546   1   2004   3504
  1547   2   2004   2943
  1548   2   2322   2010
  1549   3   2012   2033
  1550   3   2012   2034
  1551   1   2015   2018
  1552   2   2015   2019
  1553   1   2015   2020
  1554   1   2015   3620
  1555   4   2016   2022
  1556   2   2016   2024
  1557   2   2016   2952
  1558   2   2017   2019
  1559   2   2017   2024
  1560   1   2017   2025
  1561   1   2017   2026
  1562   5   2022   3506
  1563   3   2023   2041
  1564   3   2023   2042
  1565   3   2027   2047
  1566   3   2027   2048
  1567   3   2028   2045
  1568   3   2028   2046
  1569   3   2030   2049
  1570   3   2030   2050
  1571   2   2055   2059
  1572   1   2055   2060
  1573   1   2055   2061
  1574   1   2055   2372
  1575   2   2056   2058
  1576   4   2056   2063
  1577   2   2056   2065
  1578   1   2056   2093
  1579   2   2057   2059
  1580   2   2057   2065
  1581   1   2057   2066
  1582   1   2057   3621
  1583   1   2088   2062
  1584   5   2063   2120
  1585   3   2064   2123
  1586   3   2064   2124
  1587   3   2067   2125
  1588   3   2067   2126
  1589   3   2069   2127
  1590   3   2069   2128
  1591   2   2072   2075
  1592   1   2072   2077
  1593   1   2072   2078
  1594   2   2073   2075
  1595   4   2073   2080
  1596   2   2073   2082
  1597   1   2073   2107
  1598   2   2074   2082
  1599   1   2074   2083
  1600   1   2074   3622
  1601   2   2074   2076
  1602   2   2384   2076
  1603   1   2102   2079
  1604   5   2080   2118
  1605   3   2081   2141
  1606   3   2081   2142
  1607   3   2084   2131
  1608   3   2084   2132
  1609   2   2087   2090
  1610   2   2087   2091
  1611   1   2087   2092
  1612   1   2087   3623
  1613   2   2088   2090
  1614   1   2088   2094
  1615   2   2088   2095
  1616   2   2089   2091
  1617   1   2089   2096
  1618   1   2089   2097
  1619   2   2397   2095
  1620   3   2098   2121
  1621   3   2098   2122
  1622   1   2101   2104
  1623   2   2101   2105
  1624   1   2101   2106
  1625   1   2101   3624
  1626   4   2102   2108
  1627   2   2102   2110
  1628   2   2103   2105
  1629   2   2103   2110
  1630   1   2103   2111
  1631   1   2103   2112
  1632   5   2108   2119
  1633   3   2109   2129
  1634   3   2109   2130
  1635   3   2113   2137
  1636   3   2113   2138
  1637   3   2114   2135
  1638   3   2114   2136
  1639   3   2115   2133
  1640   3   2115   2134
  1641   3   2117   2139
  1642   3   2117   2140
  1643   2   2145   2148
  1644   1   2145   2149
  1645   1   2145   2150
  1646   1   2145   2447
  1647   2   2146   2148
  1648   1   2146   2152
  1649   1   2146   2153
  1650   1   2146   3625
  1651   3   2151   2198
  1652   3   2151   2199
  1653   3   2154   2200
  1654   3   2154   2201
  1655   3   2156   2202
  1656   3   2156   2203
  1657   1   2159   2161
  1658   1   2159   2163
  1659   1   2159   2164
  1660   1   2160   2166
  1661   1   2160   2167
  1662   1   2160   3626
  1663   2   2160   2162
  1664   2   2459   2162
  1665   3   2165   2216
  1666   3   2165   2217
  1667   3   2168   2206
  1668   3   2168   2207
  1669   1   2171   2173
  1670   2   2171   2174
  1671   1   2171   2175
  1672   1   2171   3627
  1673   2   2172   2174
  1674   1   2172   2177
  1675   1   2172   2178
  1676   1   2472   2176
  1677   3   2179   2196
  1678   3   2179   2197
  1679   1   2182   2184
  1680   2   2182   2185
  1681   1   2182   2186
  1682   1   2182   3628
  1683   2   2183   2185
  1684   1   2183   2188
  1685   1   2183   2189
  1686   1   2183   2190
  1687   3   2187   2204
  1688   3   2187   2205
  1689   3   2191   2212
  1690   3   2191   2213
  1691   3   2192   2210
  1692   3   2192   2211
  1693   3   2193   2208
  1694   3   2193   2209
  1695   3   2195   2214
  1696   3   2195   2215
  1697   2   2220   2223
  1698   1   2220   2224
  1699   1   2220   2225
  1700   1   2220   2522
  1701   2   2221   2223
  1702   1   2221   2227
  1703   1   2221   2228
  1704   1   2221   3629
  1705   3   2226   2273
  1706   3   2226   2274
  1707   3   2229   2275
  1708   3   2229   2276
  1709   3   2231   2277
  1710   3   2231   2278
  1711   1   2234   2236
  1712   1   2234   2238
  1713   1   2234   2239
  1714   1   2235   2241
  1715   1   2235   2242
  1716   1   2235   3630
  1717   2   2235   2237
  1718   2   2534   2237
  1719   3   2240   2291
  1720   3   2240   2292
  1721   3   2243   2281
  1722   3   2243   2282
  1723   1   2246   2248
  1724   2   2246   2249
  1725   1   2246   2250
  1726   1   2246   3631
  1727   2   2247   2249
  1728   1   2247   2252
  1729   1   2247   2253
  1730   1   2547   2251
  1731   3   2254   2271
  1732   3   2254   2272
  1733   1   2257   2259
  1734   2   2257   2260
  1735   1   2257   2261
  1736   1   2257   3632
  1737   2   2258   2260
  1738   1   2258   2263
  1739   1   2258   2264
  1740   1   2258   2265
  1741   3   2262   2279
  1742   3   2262   2280
  1743   3   2266   2287
  1744   3   2266   2288
  1745   3   2267   2285
  1746   3   2267   2286
  1747   3   2268   2283
  1748   3   2268   2284
  1749   3   2270   2289
  1750   3   2270   2290
  1751   2   2295   2298
  1752   1   2295   2299
  1753   1   2295   2300
  1754   1   2295   2597
  1755   2   2296   2298
  1756   1   2296   2302
  1757   1   2296   2303
  1758   1   2296   3633
  1759   3   2301   2348
  1760   3   2301   2349
  1761   3   2304   2350
  1762   3   2304   2351
  1763   3   2306   2352
  1764   3   2306   2353
  1765   1   2309   2311
  1766   1   2309   2313
  1767   1   2309   2314
  1768   1   2310   2316
  1769   1   2310   2317
  1770   1   2310   3634
  1771   2   2310   2312
  1772   2   2609   2312
  1773   3   2315   2366
  1774   3   2315   2367
  1775   3   2318   2356
  1776   3   2318   2357
  1777   1   2321   2323
  1778   2   2321   2324
  1779   1   2321   2325
  1780   1   2321   3635
  1781   2   2322   2324
  1782   1   2322   2327
  1783   1   2322   2328
  1784   1   2622   2326
  1785   3   2329   2346
  1786   3   2329   2347
  1787   1   2332   2334
  1788   2   2332   2335
  1789   1   2332   2336
  1790   1   2332   3636
  1791   2   2333   2335
  1792   1   2333   2338
  1793   1   2333   2339
  1794   1   2333   2340
  1795   3   2337   2354
  1796   3   2337   2355
  1797   3   2341   2362
  1798   3   2341   2363
  1799   3   2342   2360
  1800   3   2342   2361
  1801   3   2343   2358
  1802   3   2343   2359
  1803   3   2345   2364
  1804   3   2345   2365
  1805   2   2370   2373
  1806   1   2370   2374
  1807   1   2370   2375
  1808   2   2370   2673
  1809   2   2371   2373
  1810   1   2371   2377
  1811   1   2371   2378
  1812   1   2371   3637
  1813   3   2376   2423
  1814   3   2376   2424
  1815   3   2379   2425
  1816   3   2379   2426
  1817   3   2381   2427
  1818   3   2381   2428
  1819   1   2384   2386
  1820   1   2384   2388
  1821   1   2384   2389
  1822   1   2385   2391
  1823   1   2385   2392
  1824   1   2385   3638
  1825   2   2385   2387
  1826   2   2686   2387
  1827   3   2390   2441
  1828   3   2390   2442
  1829   3   2393   2431
  1830   3   2393   2432
  1831   1   2396   2398
  1832   2   2396   2399
  1833   1   2396   2400
  1834   1   2396   3639
  1835   2   2397   2399
  1836   1   2397   2402
  1837   1   2397   2403
  1838   1   2702   2401
  1839   3   2404   2421
  1840   3   2404   2422
  1841   2   2407   2409
  1842   2   2407   2410
  1843   1   2407   2411
  1844   1   2407   3640
  1845   2   2408   2410
  1846   1   2408   2413
  1847   1   2408   2414
  1848   1   2408   2415
  1849   2   2715   2409
  1850   3   2412   2429
  1851   3   2412   2430
  1852   3   2416   2437
  1853   3   2416   2438
  1854   3   2417   2435
  1855   3   2417   2436
  1856   3   2418   2433
  1857   3   2418   2434
  1858   3   2420   2439
  1859   3   2420   2440
  1860   2   2445   2448
  1861   1   2445   2449
  1862   1   2445   2450
  1863   1   2445   2761
  1864   2   2446   2448
  1865   1   2446   2452
  1866   1   2446   2453
  1867   1   2446   3641
  1868   3   2451   2498
  1869   3   2451   2499
  1870   3   2454   2500
  1871   3   2454   2501
  1872   3   2456   2502
  1873   3   2456   2503
  1874   1   2459   2461
  1875   1   2459   2463
  1876   1   2459   2464
  1877   1   2460   2466
  1878   1   2460   2467
  1879   1   2460   3642
  1880   2   2460   2462
  1881   2   2772   2462
  1882   3   2465   2516
  1883   3   2465   2517
  1884   3   2468   2506
  1885   3   2468   2507
  1886   1   2471   2473
  1887   2   2471   2474
  1888   1   2471   2475
  1889   1   2471   3643
  1890   2   2472   2474
  1891   1   2472   2477
  1892   1   2472   2478
  1893   1   2784   2476
  1894   3   2479   2496
  1895   3   2479   2497
  1896   1   2482   2484
  1897   2   2482   2485
  1898   1   2482   2486
  1899   1   2482   3644
  1900   2   2483   2485
  1901   1   2483   2488
  1902   1   2483   2489
  1903   1   2483   2490
  1904   3   2487   2504
  1905   3   2487   2505
  1906   3   2491   2512
  1907   3   2491   2513
  1908   3   2492   2510
  1909   3   2492   2511
  1910   3   2493   2508
  1911   3   2493   2509
  1912   3   2495   2514
  1913   3   2495   2515
  1914   2   2520   2523
  1915   1   2520   2524
  1916   1   2520   2525
  1917   1   2520   2834
  1918   2   2521   2523
  1919   1   2521   2527
  1920   1   2521   2528
  1921   1   2521   3645
  1922   3   2526   2573
  1923   3   2526   2574
  1924   3   2529   2575
  1925   3   2529   2576
  1926   3   2531   2577
  1927   3   2531   2578
  1928   1   2534   2536
  1929   1   2534   2538
  1930   1   2534   2539
  1931   1   2535   2541
  1932   1   2535   2542
  1933   1   2535   3646
  1934   2   2535   2537
  1935   2   2845   2537
  1936   3   2540   2591
  1937   3   2540   2592
  1938   3   2543   2581
  1939   3   2543   2582
  1940   1   2546   2548
  1941   2   2546   2549
  1942   1   2546   2550
  1943   1   2546   3647
  1944   2   2547   2549
  1945   1   2547   2552
  1946   1   2547   2553
  1947   1   2857   2551
  1948   3   2554   2571
  1949   3   2554   2572
  1950   1   2557   2559
  1951   2   2557   2560
  1952   1   2557   2561
  1953   1   2557   3648
  1954   2   2558   2560
  1955   1   2558   2563
  1956   1   2558   2564
  1957   1   2558   2565
  1958   3   2562   2579
  1959   3   2562   2580
  1960   3   2566   2587
  1961   3   2566   2588
  1962   3   2567   2585
  1963   3   2567   2586
  1964   3   2568   2583
  1965   3   2568   2584
  1966   3   2570   2589
  1967   3   2570   2590
  1968   2   2595   2598
  1969   1   2595   2599
  1970   1   2595   2600
  1971   2   2595   2908
  1972   2   2596   2598
  1973   1   2596   2602
  1974   1   2596   2603
  1975   1   2596   3649
  1976   3   2601   2648
  1977   3   2601   2649
  1978   3   2604   2650
  1979   3   2604   2651
  1980   3   2606   2652
  1981   3   2606   2653
  1982   1   2609   2611
  1983   1   2609   2613
  1984   1   2609   2614
  1985   1   2610   2616
  1986   1   2610   2617
  1987   1   2610   3650
  1988   2   2610   2612
  1989   2   2921   2612
  1990   3   2615   2666
  1991   3   2615   2667
  1992   3   2618   2656
  1993   3   2618   2657
  1994   1   2621   2623
  1995   2   2621   2624
  1996   1   2621   2625
  1997   1   2621   3651
  1998   2   2622   2624
  1999   1   2622   2627
  2000   1   2622   2628
  2001   1   2937   2626
  2002   3   2629   2646
  2003   3   2629   2647
  2004   2   2632   2634
  2005   2   2632   2635
  2006   1   2632   2636
  2007   1   2632   3652
  2008   2   2633   2635
  2009   1   2633   2638
  2010   1   2633   2639
  2011   1   2633   2640
  2012   2   2950   2634
  2013   3   2637   2654
  2014   3   2637   2655
  2015   3   2641   2662
  2016   3   2641   2663
  2017   3   2642   2660
  2018   3   2642   2661
  2019   3   2643   2658
  2020   3   2643   2659
  2021   3   2645   2664
  2022   3   2645   2665
  2023   2   2670   2674
  2024   1   2670   2991
  2025   1   2670   2675
  2026   2   2671   2673
  2027   4   2671   2677
  2028   2   2671   2679
  2029   1   2671   2706
  2030   2   2672   2674
  2031   2   2672   2679
  2032   1   2672   2680
  2033   1   2672   3653
  2034   1   2701   2676
  2035   5   2677   2734
  2036   3   2678   2737
  2037   3   2678   2738
  2038   3   2681   2739
  2039   3   2681   2740
  2040   3   2683   2741
  2041   3   2683   2742
  2042   2   2686   2689
  2043   1   2686   2690
  2044   1   2686   2691
  2045   2   2687   2689
  2046   4   2687   2693
  2047   2   2687   2695
  2048   1   2687   2720
  2049   2   2688   2695
  2050   1   2688   2696
  2051   1   2688   3654
  2052   2   2688   2992
  2053   1   2715   2692
  2054   5   2693   2732
  2055   3   2694   2755
  2056   3   2694   2756
  2057   3   2697   2745
  2058   3   2697   2746
  2059   2   2700   2703
  2060   2   2700   2704
  2061   1   2700   2705
  2062   1   2700   3655
  2063   2   2701   2703
  2064   4   2701   2707
  2065   2   2701   2708
  2066   2   2702   2704
  2067   1   2702   2709
  2068   1   2702   2710
  2069   5   2707   2731
  2070   3   2711   2735
  2071   3   2711   2736
  2072   1   2714   2717
  2073   2   2714   2718
  2074   1   2714   2719
  2075   1   2714   3656
  2076   4   2715   2721
  2077   2   2715   2723
  2078   2   2716   2718
  2079   2   2716   2723
  2080   1   2716   2724
  2081   1   2716   2725
  2082   5   2721   2733
  2083   3   2722   2743
  2084   3   2722   2744
  2085   3   2726   2751
  2086   3   2726   2752
  2087   3   2727   2749
  2088   3   2727   2750
  2089   3   2728   2747
  2090   3   2728   2748
  2091   3   2730   2753
  2092   3   2730   2754
  2093   2   2759   2762
  2094   1   2759   2993
  2095   1   2759   2763
  2096   2   2760   2762
  2097   1   2760   2765
  2098   1   2760   2766
  2099   1   2760   3657
  2100   3   2764   2810
  2101   3   2764   2811
  2102   3   2767   2812
  2103   3   2767   2813
  2104   3   2769   2814
  2105   3   2769   2815
  2106   1   2772   2774
  2107   1   2772   2775
  2108   1   2772   2776
  2109   1   2773   2778
  2110   1   2773   2779
  2111   1   2773   3658
  2112   2   2773   2994
  2113   3   2777   2828
  2114   3   2777   2829
  2115   3   2780   2818
  2116   3   2780   2819
  2117   1   2783   2785
  2118   2   2783   2786
  2119   1   2783   2787
  2120   1   2783   3659
  2121   2   2784   2786
  2122   1   2784   2789
  2123   1   2784   2790
  2124   3   2791   2808
  2125   3   2791   2809
  2126   1   2794   2796
  2127   2   2794   2797
  2128   1   2794   2798
  2129   1   2794   3660
  2130   2   2795   2797
  2131   1   2795   2800
  2132   1   2795   2801
  2133   1   2795   2802
  2134   3   2799   2816
  2135   3   2799   2817
  2136   3   2803   2824
  2137   3   2803   2825
  2138   3   2804   2822
  2139   3   2804   2823
  2140   3   2805   2820
  2141   3   2805   2821
  2142   3   2807   2826
  2143   3   2807   2827
  2144   2   2832   2835
  2145   1   2832   2995
  2146   1   2832   2836
  2147   2   2833   2835
  2148   1   2833   2838
  2149   1   2833   2839
  2150   1   2833   3661
  2151   3   2837   2883
  2152   3   2837   2884
  2153   3   2840   2885
  2154   3   2840   2886
  2155   3   2842   2887
  2156   3   2842   2888
  2157   1   2845   2847
  2158   1   2845   2848
  2159   1   2845   2849
  2160   1   2846   2851
  2161   1   2846   2852
  2162   1   2846   3662
  2163   2   2846   2996
  2164   3   2850   2901
  2165   3   2850   2902
  2166   3   2853   2891
  2167   3   2853   2892
  2168   1   2856   2858
  2169   2   2856   2859
  2170   1   2856   2860
  2171   1   2856   3663
  2172   2   2857   2859
  2173   1   2857   2862
  2174   1   2857   2863
  2175   3   2864   2881
  2176   3   2864   2882
  2177   1   2867   2869
  2178   2   2867   2870
  2179   1   2867   2871
  2180   1   2867   3664
  2181   2   2868   2870
  2182   1   2868   2873
  2183   1   2868   2874
  2184   1   2868   2875
  2185   3   2872   2889
  2186   3   2872   2890
  2187   3   2876   2897
  2188   3   2876   2898
  2189   3   2877   2895
  2190   3   2877   2896
  2191   3   2878   2893
  2192   3   2878   2894
  2193   3   2880   2899
  2194   3   2880   2900
  2195   2   2905   2909
  2196   1   2905   2997
  2197   1   2905   2910
  2198   2   2906   2908
  2199   4   2906   2912
  2200   2   2906   2914
  2201   1   2906   2941
  2202   2   2907   2909
  2203   2   2907   2914
  2204   1   2907   2915
  2205   1   2907   3665
  2206   1   2936   2911
  2207   5   2912   2968
  2208   3   2913   2971
  2209   3   2913   2972
  2210   3   2916   2973
  2211   3   2916   2974
  2212   3   2918   2975
  2213   3   2918   2976
  2214   2   2921   2924
  2215   1   2921   2925
  2216   1   2921   2926
  2217   2   2922   2924
  2218   4   2922   2928
  2219   2   2922   2930
  2220   1   2922   2955
  2221   2   2923   2930
  2222   1   2923   2931
  2223   1   2923   3666
  2224   2   2923   2998
  2225   1   2950   2927
  2226   5   2928   2966
  2227   3   2929   2989
  2228   3   2929   2990
  2229   3   2932   2979
  2230   3   2932   2980
  2231   2   2935   2938
  2232   2   2935   2939
  2233   1   2935   2940
  2234   1   2935   3667
  2235   2   2936   2938
  2236   1   2936   2942
  2237   2   2936   2943
  2238   2   2937   2939
  2239   1   2937   2944
  2240   1   2937   2945
  2241   3   2946   2969
  2242   3   2946   2970
  2243   2   2949   2952
  2244   2   2949   2953
  2245   1   2949   2954
  2246   1   2949   3668
  2247   4   2950   2956
  2248   2   2950   2958
  2249   2   2951   2953
  2250   2   2951   2958
  2251   1   2951   2959
  2252   1   2951   2960
  2253   5   2956   2967
  2254   3   2957   2977
  2255   3   2957   2978
  2256   3   2961   2985
  2257   3   2961   2986
  2258   3   2962   2983
  2259   3   2962   2984
  2260   3   2963   2981
  2261   3   2963   2982
  2262   3   2965   2987
  2263   3   2965   2988
  2264   3   2999   3025
  2265   3   2999   3026
  2266   1   3002   3004
  2267   1   3002   3006
  2268   1   3002   3007
  2269   2   3002   3484
  2270   1   3003   3008
  2271   1   3003   3009
  2272   1   3003   3669
  2273   2   3003   3005
  2274   2   3122   3005
  2275   1   3012   3014
  2276   2   3012   3015
  2277   1   3012   3016
  2278   1   3012   3670
  2279   2   3013   3015
  2280   1   3013   3019
  2281   1   3013   3488
  2282   2   3013   3380
  2283   3   3017   3021
  2284   3   3017   3022
  2285   1   3136   3018
  2286   3   3020   3023
  2287   3   3020   3024
  2288   3   3027   3053
  2289   3   3027   3054
  2290   1   3030   3032
  2291   1   3030   3034
  2292   1   3030   3035
  2293   2   3030   3485
  2294   1   3031   3036
  2295   1   3031   3037
  2296   1   3031   3671
  2297   2   3031   3033
  2298   2   3157   3033
  2299   1   3040   3042
  2300   2   3040   3043
  2301   1   3040   3044
  2302   1   3040   3672
  2303   2   3041   3043
  2304   1   3041   3047
  2305   1   3041   3493
  2306   1   3041   3411
  2307   3   3045   3049
  2308   3   3045   3050
  2309   1   3168   3046
  2310   3   3048   3051
  2311   3   3048   3052
  2312   3   3055   3081
  2313   3   3055   3082
  2314   1   3058   3060
  2315   1   3058   3062
  2316   1   3058   3063
  2317   2   3058   3486
  2318   1   3059   3064
  2319   1   3059   3065
  2320   1   3059   3673
  2321   2   3059   3061
  2322   2   3186   3061
  2323   1   3068   3070
  2324   2   3068   3071
  2325   1   3068   3072
  2326   1   3068   3674
  2327   2   3069   3071
  2328   1   3069   3075
  2329   1   3069   3498
  2330   1   3069   3439
  2331   3   3073   3077
  2332   3   3073   3078
  2333   1   3197   3074
  2334   3   3076   3079
  2335   3   3076   3080
  2336   1   3100   3083
  2337   3   3084   3116
  2338   3   3084   3117
  2339   2   3087   3090
  2340   1   3087   3092
  2341   1   3087   3093
  2342   2   3087   3487
  2343   2   3088   3090
  2344   1   3088   3094
  2345   2   3088   3095
  2346   1   3088   3110
  2347   2   3089   3095
  2348   1   3089   3096
  2349   1   3089   3675
  2350   2   3089   3091
  2351   2   3215   3091
  2352   2   3099   3102
  2353   2   3099   3103
  2354   1   3099   3104
  2355   1   3099   3676
  2356   2   3100   3102
  2357   4   3100   3105
  2358   2   3100   3107
  2359   2   3101   3103
  2360   1   3101   3108
  2361   1   3101   3503
  2362   2   3101   3472
  2363   5   3105   3111
  2364   3   3106   3112
  2365   3   3106   3113
  2366   2   3226   3107
  2367   3   3109   3114
  2368   3   3109   3115
  2369   1   3135   3118
  2370   3   3119   3152
  2371   3   3119   3153
  2372   2   3122   3125
  2373   1   3122   3127
  2374   1   3122   3128
  2375   2   3123   3125
  2376   1   3123   3129
  2377   2   3123   3130
  2378   1   3123   3146
  2379   2   3124   3130
  2380   1   3124   3131
  2381   1   3124   3677
  2382   2   3124   3126
  2383   2   3244   3126
  2384   2   3134   3137
  2385   2   3134   3138
  2386   1   3134   3139
  2387   1   3134   3678
  2388   2   3135   3137
  2389   4   3135   3140
  2390   2   3135   3142
  2391   2   3136   3138
  2392   1   3136   3143
  2393   1   3136   3144
  2394   5   3140   3147
  2395   3   3141   3148
  2396   3   3141   3149
  2397   2   3255   3142
  2398   3   3145   3150
  2399   3   3145   3151
  2400   3   3154   3181
  2401   3   3154   3182
  2402   1   3157   3159
  2403   1   3157   3161
  2404   1   3157   3162
  2405   1   3158   3163
  2406   1   3158   3164
  2407   1   3158   3679
  2408   2   3158   3160
  2409   2   3273   3160
  2410   1   3167   3169
  2411   2   3167   3170
  2412   1   3167   3171
  2413   1   3167   3680
  2414   2   3168   3170
  2415   1   3168   3174
  2416   1   3168   3175
  2417   3   3172   3177
  2418   3   3172   3178
  2419   1   3284   3173
  2420   3   3176   3179
  2421   3   3176   3180
  2422   3   3183   3210
  2423   3   3183   3211
  2424   1   3186   3188
  2425   1   3186   3190
  2426   1   3186   3191
  2427   1   3187   3192
  2428   1   3187   3193
  2429   1   3187   3681
  2430   2   3187   3189
  2431   2   3302   3189
  2432   1   3196   3198
  2433   2   3196   3199
  2434   1   3196   3200
  2435   1   3196   3682
  2436   2   3197   3199
  2437   1   3197   3203
  2438   1   3197   3204
  2439   3   3201   3206
  2440   3   3201   3207
  2441   1   3313   3202
  2442   3   3205   3208
  2443   3   3205   3209
  2444   3   3212   3239
  2445   3   3212   3240
  2446   1   3215   3217
  2447   1   3215   3219
  2448   1   3215   3220
  2449   1   3216   3221
  2450   1   3216   3222
  2451   1   3216   3683
  2452   2   3216   3218
  2453   2   3331   3218
  2454   1   3225   3227
  2455   2   3225   3228
  2456   1   3225   3229
  2457   1   3225   3684
  2458   2   3226   3228
  2459   1   3226   3232
  2460   1   3226   3233
  2461   3   3230   3235
  2462   3   3230   3236
  2463   1   3342   3231
  2464   3   3234   3237
  2465   3   3234   3238
  2466   3   3241   3268
  2467   3   3241   3269
  2468   1   3244   3246
  2469   1   3244   3248
  2470   1   3244   3249
  2471   1   3245   3250
  2472   1   3245   3251
  2473   1   3245   3685
  2474   2   3245   3247
  2475   2   3361   3247
  2476   1   3254   3256
  2477   2   3254   3257
  2478   1   3254   3258
  2479   1   3254   3686
  2480   2   3255   3257
  2481   1   3255   3261
  2482   1   3255   3262
  2483   3   3259   3264
  2484   3   3259   3265
  2485   1   3374   3260
  2486   3   3263   3266
  2487   3   3263   3267
  2488   3   3270   3297
  2489   3   3270   3298
  2490   1   3273   3275
  2491   1   3273   3277
  2492   1   3273   3278
  2493   1   3274   3279
  2494   1   3274   3280
  2495   1   3274   3687
  2496   2   3274   3276
  2497   2   3396   3276
  2498   1   3283   3285
  2499   2   3283   3286
  2500   1   3283   3287
  2501   1   3283   3688
  2502   2   3284   3286
  2503   1   3284   3290
  2504   1   3284   3291
  2505   3   3288   3293
  2506   3   3288   3294
  2507   1   3406   3289
  2508   3   3292   3295
  2509   3   3292   3296
  2510   3   3299   3326
  2511   3   3299   3327
  2512   1   3302   3304
  2513   1   3302   3306
  2514   1   3302   3307
  2515   1   3303   3308
  2516   1   3303   3309
  2517   1   3303   3689
  2518   2   3303   3305
  2519   2   3424   3305
  2520   1   3312   3314
  2521   2   3312   3315
  2522   1   3312   3316
  2523   1   3312   3690
  2524   2   3313   3315
  2525   1   3313   3319
  2526   1   3313   3320
  2527   3   3317   3322
  2528   3   3317   3323
  2529   1   3434   3318
  2530   3   3321   3324
  2531   3   3321   3325
  2532   3   3328   3355
  2533   3   3328   3356
  2534   1   3331   3333
  2535   1   3331   3335
  2536   1   3331   3336
  2537   1   3332   3337
  2538   1   3332   3338
  2539   1   3332   3691
  2540   2   3332   3334
  2541   2   3453   3334
  2542   1   3341   3343
  2543   2   3341   3344
  2544   1   3341   3345
  2545   1   3341   3692
  2546   2   3342   3344
  2547   1   3342   3348
  2548   1   3342   3349
  2549   3   3346   3351
  2550   3   3346   3352
  2551   1   3466   3347
  2552   3   3350   3353
  2553   3   3350   3354
  2554   1   3373   3357
  2555   3   3358   3391
  2556   3   3358   3392
  2557   2   3361   3364
  2558   1   3361   3365
  2559   1   3361   3366
  2560   2   3362   3364
  2561   4   3362   3367
  2562   2   3362   3368
  2563   1   3362   3384
  2564   2   3363   3368
  2565   1   3363   3369
  2566   1   3363   3693
  2567   2   3363   3484
  2568   5   3367   3386
  2569   2   3372   3375
  2570   2   3372   3376
  2571   1   3372   3377
  2572   1   3372   3694
  2573   2   3373   3375
  2574   4   3373   3378
  2575   2   3373   3380
  2576   2   3374   3376
  2577   1   3374   3381
  2578   1   3374   3382
  2579   5   3378   3385
  2580   3   3379   3387
  2581   3   3379   3388
  2582   3   3383   3389
  2583   3   3383   3390
  2584   3   3393   3419
  2585   3   3393   3420
  2586   1   3396   3398
  2587   1   3396   3399
  2588   1   3396   3400
  2589   1   3397   3401
  2590   1   3397   3402
  2591   1   3397   3695
  2592   2   3397   3485
  2593   1   3405   3407
  2594   2   3405   3408
  2595   1   3405   3409
  2596   1   3405   3696
  2597   2   3406   3408
  2598   1   3406   3412
  2599   1   3406   3413
  2600   3   3410   3415
  2601   3   3410   3416
  2602   3   3414   3417
  2603   3   3414   3418
  2604   3   3421   3447
  2605   3   3421   3448
  2606   1   3424   3426
  2607   1   3424   3427
  2608   1   3424   3428
  2609   1   3425   3429
  2610   1   3425   3430
  2611   1   3425   3697
  2612   2   3425   3486
  2613   1   3433   3435
  2614   2   3433   3436
  2615   1   3433   3437
  2616   1   3433   3698
  2617   2   3434   3436
  2618   1   3434   3440
  2619   1   3434   3441
  2620   3   3438   3443
  2621   3   3438   3444
  2622   3   3442   3445
  2623   3   3442   3446
  2624   1   3465   3449
  2625   3   3450   3482
  2626   3   3450   3483
  2627   2   3453   3456
  2628   1   3453   3457
  2629   1   3453   3458
  2630   2   3454   3456
  2631   1   3454   3459
  2632   2   3454   3460
  2633   1   3454   3476
  2634   2   3455   3460
  2635   1   3455   3461
  2636   1   3455   3699
  2637   2   3455   3487
  2638   2   3464   3467
  2639   2   3464   3468
  2640   1   3464   3469
  2641   1   3464   3700
  2642   2   3465   3467
  2643   4   3465   3470
  2644   2   3465   3472
  2645   2   3466   3468
  2646   1   3466   3473
  2647   1   3466   3474
  2648   5   3470   3477
  2649   3   3471   3478
  2650   3   3471   3479
  2651   3   3475   3480
  2652   3   3475   3481
  2653   3   3490   3491
  2654   3   3490   3492
  2655   3   3495   3496
  2656   3   3495   3497
  2657   3   3500   3501
  2658   3   3500   3502
  2659   3   3505   3507
  2660   3   3505   3508
  2661   6   3845   3846
  2662   6   3847   3848
  2663   6   3849   3850
  2664   6   3851   3852
  2665   6   3853   3854
  2666   6   3855   3856
  2667   6   3857   3858
  2668   6   3859   3860
  2669   6   3861   3862
  2670   6   3863   3864
  2671   6   3865   3866
  2672   6   3867   3868
  2673   6   3869   3870
  2674   6   3871   3872
  2675   6   3873   3874
  2676   6   3875   3876
  2677   6   3877   3878
  2678   6   3879   3880
  2679   6   3881   3882
  2680   6   3883   3884
  2681   6   3885   3886
  2682   6   3887   3888
  2683   6   3889   3890
  2684   6   3891   3892
  2685   6   3893   3894
  2686   6   3895   3896
  2687   6   3897   3898
  2688   6   3899   3900
  2689   6   3901   3902
  2690   6   3903   3904
  2691   6   3905   3906
  2692   6   3907   3908
  2693   6   3909   3910
  2694   6   3911   3912
  2695   6   3913   3914
  2696   6   3915   3916
  2697   6   3917   3918
  2698   6   3919   3920
  2699   6   3921   3922
  2700   6   3923   3924
  2701   6   3925   3926
  2702   6   3927   3928
  2703   6   3929   3930
  2704   6   3931   3932
  2705   6   3933   3934
  2706   6   3935   3936
  2707   6   3937   3938
  2708   6   3939   3940
  2709   6   3941   3942
  2710   6   3943   3944
  2711   6   3945   3946
  2712   6   3947   3948
  2713   6   3949   3950
  2714   6   3951   3952
  2715   6   3987   3988
  2716   6   3989   3990
  2717   6   3991   3992
  2718   6   3993   3994
  2719   6   3995   3996
  2720   6   3997   3998
  2721   6   3999   4000
  2722   6   4001   4002
  2723   6   4003   4004
  2724   6   4005   4006
  2725   6   4007   4008
  2726   6   4009   4010
  2727   6   4011   4012
  2728   6   4013   4014
  2729   6   4015   4016
  2730   6   4017   4018
  2731   6   4019   4020
  2732   6   4021   4022
  2733   6   4023   4024
  2734   6   4025   4026
  2735   6   4027   4028
  2736   6   4029   4030
  2737   6   4031   4032
  2738   6   4033   4034
  2739   6   4035   4036
  2740   6   4037   4038
  2741   6   4039   4040
  2742   6   4041   4042
  2743   6   4043   4044
  2744   6   4045   4046
  2745   6   4047   4048
  2746   6   4049   4050
  2747   6   4051   4052
  2748   6   4053   4054
  2749   6   4055   4056
  2750   6   4057   4058
  2751   6   4059   4060
  2752   6   4061   4062
  2753   6   4063   4064
  2754   6   4065   4066
  2755   6   4067   4068
  2756   6   4069   4070
  2757   6   4071   4072
  2758   6   4073   4074
  2759   6   4075   4076
  2760   6   4077   4078
  2761   6   4079   4080
  2762   6   4081   4082
  2763   6   4083   4084
  2764   6   4085   4086
  2765   6   4087   4088
  2766   6   4089   4090
  2767   6   4091   4092
  2768   6   4093   4094
  2769   6   4129   4130
  2770   6   4131   4132
  2771   6   4133   4134
  2772   6   4135   4136
  2773   6   4137   4138
  2774   6   4139   4140
  2775   6   4141   4142
  2776   6   4143   4144
  2777   6   4145   4146
  2778   6   4147   4148
  2779   6   4149   4150
  2780   6   4151   4152
  2781   6   4153   4154
  2782   6   4155   4156
  2783   6   4157   4158
  2784   6   4159   4160
  2785   6   4161   4162
  2786   6   4163   4164
  2787   6   4165   4166
  2788   6   4167   4168
  2789   6   4169   4170
  2790   6   4171   4172
  2791   6   4173   4174
  2792   6   4175   4176
  2793   6   4177   4178
  2794   6   4179   4180
  2795   6   4181   4182
  2796   6   4183   4184
  2797   6   4185   4186
  2798   6   4187   4188
  2799   6   4189   4190
  2800   6   4191   4192
  2801   6   4193   4194
  2802   6   4195   4196
  2803   6   4197   4198
  2804   6   4199   4200
  2805   6   4201   4202
  2806   6   4203   4204
  2807   6   4205   4206
  2808   6   4207   4208
  2809   6   4209   4210
  2810   6   4211   4212
  2811   6   4213   4214
  2812   6   4215   4216
  2813   6   4217   4218
  2814   6   4219   4220
  2815   6   4221   4222
  2816   6   4223   4224
  2817   6   4225   4226
  2818   6   4227   4228
  2819   6   4229   4230
  2820   6   4231   4232
  2821   6   4233   4234
  2822   6   4235   4236
  2823   6   4237   4238
  2824   6   4239   4240
  2825   6   4241   4242
  2826   6   4243   4244
  2827   6   4245   4246
  2828   6   4247   4248
  2829   6   4249   4250
  2830   6   4251   4252
  2831   6   4253   4254
  2832   6   4255   4256
  2833   6   4257   4258
  2834   6   4259   4260
  2835   6   4261   4262
  2836   6   4263   4264
  2837   6   4265   4266
  2838   6   4267   4268
  2839   6   4269   4270
  2840   6   4271   4272
  2841   6   4273   4274
  2842   6   4275   4276
  2843   6   4277   4278
  2844   6   4279   4280
  2845   6   4281   4282
  2846   6   4283   4284
  2847   6   4285   4286
  2848   6   4287   4288
  2849   6   4289   4290
  2850   6   4291   4292
  2851   6   4293   4294
  2852   6   4295   4296
  2853   6   4297   4298
  2854   6   4299   4300
  2855   6   4301   4302
  2856   6   4303   4304
  2857   6   4305   4306
  2858   6   4307   4308
  2859   6   4309   4310
  2860   6   4311   4312
  2861   6   4313   4314
  2862   6   4315   4316
  2863   6   4317   4318
  2864   6   4319   4320
  2865   6   4321   4322
  2866   6   4323   4324
  2867   6   4325   4326
  2868   6   4327   4328
  2869   6   4329   4330
  2870   6   4331   4332
  2871   6   4333   4334
  2872   6   4335   4336
  2873   6   4337   4338
  2874   6   4339   4340
  2875   6   4341   4342
  2876   6   4343   4344
  2877   6   4345   4346
  2878   6   4347   4348
  2879   6   4349   4350
  2880   6   4351   4352
  2881   6   4353   4354
  2882   6   4355   4356
  2883   6   4357   4358
  2884   6   4359   4360
  2885   6   4361   4362
  2886   6   4363   4364
  2887   6   4365   4366
  2888   6   4367   4368
  2889   6   4369   4370
  2890   6   4371   4372
  2891   6   4410   4411
  2892   6   4412   4413
  2893   6   4414   4415
  2894   6   4416   4417
  2895   6   4418   4419
  2896   6   4420   4421
  2897   6   4422   4423
  2898   6   4424   4425
  2899   6   4426   4427
  2900   6   4428   4429
  2901   6   4430   4431
  2902   6   4432   4433
  2903   6   4434   4435
  2904   6   4436   4437
  2905   6   4438   4439
  2906   6   4440   4441
  2907   6   4442   4443
  2908   6   4444   4445
  2909   6   4446   4447
  2910   6   4448   4449
  2911   6   4450   4451
  2912   6   4452   4453
  2913   6   4454   4455
  2914   6   4456   4457
  2915   6   4458   4459
  2916   6   4460   4461
  2917   6   4462   4463
  2918   6   4464   4465
  2919   6   4466   4467
  2920   6   4468   4469
  2921   6   4470   4471
  2922   6   4472   4473
  2923   6   4474   4475
  2924   6   4476   4477
  2925   6   4478   4479
  2926   6   4480   4481
  2927   6   4482   4483
  2928   6   4484   4485
  2929   6   4486   4487
  2930   6   4488   4489
  2931   6   4490   4491
  2932   6   4492   4493
  2933   6   4494   4495
  2934   6   4496   4497
  2935   6   4498   4499
  2936   6   4500   4501
  2937   6   4502   4503
  2938   6   4504   4505
  2939   6   4506   4507
  2940   6   4508   4509
  2941   6   4510   4511
  2942   6   4512   4513
  2943   6   4514   4515
  2944   6   4516   4517
  2945   6   4518   4519
  2946   6   4520   4521
  2947   6   4522   4523
  2948   6   4524   4525
  2949   6   4526   4527
  2950   6   4528   4529
  2951   6   4530   4531
  2952   6   4532   4533
  2953   6   4534   4535
  2954   6   4536   4537
  2955   6   4538   4539
  2956   6   4540   4541
  2957   6   4542   4543
  2958   6   4544   4545
  2959   6   4546   4547
  2960   6   4548   4549
  2961   6   4550   4551
  2962   6   4552   4553
  2963   6   4554   4555
  2964   6   4556   4557
  2965   6   4558   4559
  2966   6   4560   4561
  2967   6   4562   4563
  2968   6   4564   4565
  2969   6   4566   4567
  2970   6   4568   4569
  2971   6   4570   4571
  2972   6   4572   4573
  2973   6   4574   4575
  2974   6   4576   4577
  2975   6   4578   4579
  2976   6   4580   4581
  2977   6   4582   4583
  2978   6   4584   4585
  2979   6   4586   4587
  2980   6   4588   4589
  2981   6   4590   4591
  2982   6   4592   4593
  2983   6   4594   4595
  2984   6   4596   4597
  2985   6   4598   4599
  2986   6   4600   4601
  2987   6   4602   4603
  2988   6   4604   4605
  2989   6   4606   4607
  2990   6   4608   4609
  2991   6   4610   4611
  2992   6   4612   4613
  2993   6   4614   4615
  2994   6   4616   4617
  2995   6   4618   4619
  2996   6   4620   4621
  2997   6   4622   4623
  2998   6   4624   4625
  2999   6   4626   4627
  3000   6   4628   4629
  3001   6   4630   4631
  3002   6   4632   4633
  3003   6   4634   4635
  3004   6   4636   4637
  3005   6   4638   4639
  3006   6   4640   4641
  3007   6   4642   4643
  3008   6   4644   4645
  3009   6   4646   4647
  3010   6   4648   4649
  3011   6   4650   4651
  3012   6   4652   4653

Angles

     1   1      5      3      6
     2   2      5      3      7
     3   2      5      3      8
     4   1      7      3      6
     5   1      8      3      6
     6   2      7      3      8
     7   1     11      4      6
     8   1   3553      4      6
     9   1    955      4      6
    10   2     11      4   3553
    11   2     11      4    955
    12   2   3553      4    955
    13   3      3      6      4
    14   4     56      9     57
    15   4     58     12     59
    16   4     60     14     61
    17   1     19     17     20
    18   2     19     17     21
    19   2     19     17     22
    20   1     21     17     20
    21   1     22     17     20
    22   2     21     17     22
    23   1     24     18     20
    24   1     25     18     20
    25   1   3559     18     20
    26   2     24     18     25
    27   2     24     18   3559
    28   2     25     18   3559
    29   3     17     20     18
    30   4     74     23     75
    31   4     64     26     65
    32   1     33     29     32
    33   1   3560     29     32
    34   1    331     29     32
    35   2     33     29   3560
    36   2     33     29    331
    37   2   3560     29    331
    38   1     34     30     32
    39   1     35     30     32
    40   1     36     30     32
    41   2     34     30     35
    42   2     34     30     36
    43   2     35     30     36
    44   3     29     32     30
    45   4     54     37     55
    46   2     42     40     44
    47   2     42     40   3561
    48   1     42     40   1714
    49   2     44     40   3561
    50   1     44     40   1714
    51   1   3561     40   1714
    52   1     46     41     43
    53   1     47     41     43
    54   1     48     41     43
    55   2     46     41     47
    56   2     46     41     48
    57   2     47     41     48
    58   3     41     43    340
    59   4     62     45     63
    60   4     70     49     71
    61   4     68     50     69
    62   4     66     51     67
    63   4     72     53     73
    64   1     80     78     81
    65   2     80     78     82
    66   2     80     78     83
    67   1     82     78     81
    68   1     83     78     81
    69   2     82     78     83
    70   1     86     79     81
    71   1   3554     79     81
    72   1   1024     79     81
    73   2     86     79   3554
    74   2     86     79   1024
    75   2   3554     79   1024
    76   3     78     81     79
    77   4    131     84    132
    78   4    133     87    134
    79   4    135     89    136
    80   1     94     92     95
    81   2     94     92     96
    82   2     94     92     97
    83   1     96     92     95
    84   1     97     92     95
    85   2     96     92     97
    86   1     99     93     95
    87   1    100     93     95
    88   1   3564     93     95
    89   2     99     93    100
    90   2     99     93   3564
    91   2    100     93   3564
    92   3     92     95     93
    93   4    149     98    150
    94   4    139    101    140
    95   1    108    104    107
    96   1   3565    104    107
    97   1    406    104    107
    98   2    108    104   3565
    99   2    108    104    406
   100   2   3565    104    406
   101   1    109    105    107
   102   1    110    105    107
   103   1    111    105    107
   104   2    109    105    110
   105   2    109    105    111
   106   2    110    105    111
   107   3    104    107    105
   108   4    129    112    130
   109   2    117    115    119
   110   2    117    115   3566
   111   1    117    115   1724
   112   2    119    115   3566
   113   1    119    115   1724
   114   1   3566    115   1724
   115   1    121    116    118
   116   1    122    116    118
   117   1    123    116    118
   118   2    121    116    122
   119   2    121    116    123
   120   2    122    116    123
   121   3    116    118    415
   122   4    137    120    138
   123   4    145    124    146
   124   4    143    125    144
   125   4    141    126    142
   126   4    147    128    148
   127   1    155    153    156
   128   2    155    153    157
   129   2    155    153    158
   130   1    157    153    156
   131   1    158    153    156
   132   2    157    153    158
   133   1    161    154    156
   134   1   3555    154    156
   135   5    156    154   1096
   136   2    161    154   3555
   137   1    161    154   1096
   138   1   3555    154   1096
   139   3    153    156    154
   140   4    206    159    207
   141   4    208    162    209
   142   4    210    164    211
   143   1    169    167    170
   144   2    169    167    171
   145   2    169    167    172
   146   1    171    167    170
   147   1    172    167    170
   148   2    171    167    172
   149   5    170    168    174
   150   1    175    168    170
   151   1   3569    168    170
   152   1    175    168    174
   153   1   3569    168    174
   154   2    175    168   3569
   155   3    167    170    168
   156   4    224    173    225
   157   3    168    174   1735
   158   4    214    176    215
   159   1    183    179    182
   160   1   3570    179    182
   161   5    182    179    488
   162   2    183    179   3570
   163   1    183    179    488
   164   1   3570    179    488
   165   1    184    180    182
   166   1    185    180    182
   167   1    186    180    182
   168   2    184    180    185
   169   2    184    180    186
   170   2    185    180    186
   171   3    179    182    180
   172   4    204    187    205
   173   2    192    190    194
   174   2    192    190   3571
   175   1    192    190   1740
   176   2    194    190   3571
   177   1    194    190   1740
   178   1   3571    190   1740
   179   1    196    191    193
   180   1    197    191    193
   181   1    198    191    193
   182   2    196    191    197
   183   2    196    191    198
   184   2    197    191    198
   185   3    191    193    499
   186   4    212    195    213
   187   4    220    199    221
   188   4    218    200    219
   189   4    216    201    217
   190   4    222    203    223
   191   1    230    228    231
   192   2    230    228    232
   193   2    230    228    233
   194   1    232    228    231
   195   1    233    228    231
   196   2    232    228    233
   197   1    236    229    231
   198   1   3556    229    231
   199   1   1174    229    231
   200   2    236    229   3556
   201   2    236    229   1174
   202   2   3556    229   1174
   203   3    228    231    229
   204   4    281    234    282
   205   4    283    237    284
   206   4    285    239    286
   207   1    244    242    245
   208   2    244    242    246
   209   2    244    242    247
   210   1    246    242    245
   211   1    247    242    245
   212   2    246    242    247
   213   1    249    243    245
   214   1    250    243    245
   215   1   3574    243    245
   216   2    249    243    250
   217   2    249    243   3574
   218   2    250    243   3574
   219   3    242    245    243
   220   4    299    248    300
   221   4    289    251    290
   222   1    258    254    257
   223   1   3575    254    257
   224   5    257    254    578
   225   2    258    254   3575
   226   1    258    254    578
   227   1   3575    254    578
   228   1    259    255    257
   229   1    260    255    257
   230   1    261    255    257
   231   2    259    255    260
   232   2    259    255    261
   233   2    260    255    261
   234   3    254    257    255
   235   4    279    262    280
   236   2    267    265    269
   237   2    267    265   3576
   238   1    267    265   1752
   239   2    269    265   3576
   240   1    269    265   1752
   241   1   3576    265   1752
   242   1    271    266    268
   243   1    272    266    268
   244   1    273    266    268
   245   2    271    266    272
   246   2    271    266    273
   247   2    272    266    273
   248   3    266    268    589
   249   4    287    270    288
   250   4    295    274    296
   251   4    293    275    294
   252   4    291    276    292
   253   4    297    278    298
   254   1    305    303    306
   255   2    305    303    307
   256   2    305    303    308
   257   1    307    303    306
   258   1    308    303    306
   259   2    307    303    308
   260   1    311    304    306
   261   1   3509    304    306
   262   1     10    304    306
   263   2    311    304   3509
   264   2    311    304     10
   265   2   3509    304     10
   266   3    303    306    304
   267   4    356    309    357
   268   4    358    312    359
   269   4    360    314    361
   270   1    319    317    320
   271   2    319    317    321
   272   2    319    317    322
   273   1    321    317    320
   274   1    322    317    320
   275   2    321    317    322
   276   1    324    318    320
   277   1    325    318    320
   278   1   3510    318    320
   279   2    324    318    325
   280   2    324    318   3510
   281   2    325    318   3510
   282   3    317    320    318
   283   4    374    323    375
   284   4    364    326    365
   285   1    333    329    332
   286   1   3511    329    332
   287   1    661    329    332
   288   2    333    329   3511
   289   2    333    329    661
   290   2   3511    329    661
   291   1    334    330    332
   292   1    335    330    332
   293   1    336    330    332
   294   2    334    330    335
   295   2    334    330    336
   296   2    335    330    336
   297   3    329    332    330
   298   4    354    337    355
   299   2    342    340    344
   300   2    342    340   3512
   301   1    342    340     43
   302   2    344    340   3512
   303   1    344    340     43
   304   1   3512    340     43
   305   1    346    341    343
   306   1    347    341    343
   307   1    348    341    343
   308   2    346    341    347
   309   2    346    341    348
   310   2    347    341    348
   311   3    341    343    670
   312   4    362    345    363
   313   4    370    349    371
   314   4    368    350    369
   315   4    366    351    367
   316   4    372    353    373
   317   1    380    378    381
   318   2    380    378    382
   319   2    380    378    383
   320   1    382    378    381
   321   1    383    378    381
   322   2    382    378    383
   323   1    386    379    381
   324   1   3513    379    381
   325   1     85    379    381
   326   2    386    379   3513
   327   2    386    379     85
   328   2   3513    379     85
   329   3    378    381    379
   330   4    431    384    432
   331   4    433    387    434
   332   4    435    389    436
   333   1    394    392    395
   334   2    394    392    396
   335   2    394    392    397
   336   1    396    392    395
   337   1    397    392    395
   338   2    396    392    397
   339   1    399    393    395
   340   1    400    393    395
   341   1   3514    393    395
   342   2    399    393    400
   343   2    399    393   3514
   344   2    400    393   3514
   345   3    392    395    393
   346   4    449    398    450
   347   4    439    401    440
   348   1    408    404    407
   349   1   3515    404    407
   350   1    736    404    407
   351   2    408    404   3515
   352   2    408    404    736
   353   2   3515    404    736
   354   1    409    405    407
   355   1    410    405    407
   356   1    411    405    407
   357   2    409    405    410
   358   2    409    405    411
   359   2    410    405    411
   360   3    404    407    405
   361   4    429    412    430
   362   2    417    415    419
   363   2    417    415   3516
   364   1    417    415    118
   365   2    419    415   3516
   366   1    419    415    118
   367   1   3516    415    118
   368   1    421    416    418
   369   1    422    416    418
   370   1    423    416    418
   371   2    421    416    422
   372   2    421    416    423
   373   2    422    416    423
   374   3    416    418    745
   375   4    437    420    438
   376   4    445    424    446
   377   4    443    425    444
   378   4    441    426    442
   379   4    447    428    448
   380   5    456    453    457
   381   1    458    453    456
   382   1    459    453    456
   383   1    458    453    457
   384   1    459    453    457
   385   2    458    453    459
   386   6    456    454    461
   387   5    456    454    463
   388   1    491    454    456
   389   6    463    454    461
   390   7    491    454    461
   391   1    491    454    463
   392   1    464    455    457
   393   1   3517    455    457
   394   1    160    455    457
   395   2    464    455   3517
   396   2    464    455    160
   397   2   3517    455    160
   398   3    453    456    454
   399   3    453    457    455
   400   8    454    461    518
   401   4    521    462    522
   402   3    454    463    785
   403   4    523    465    524
   404   4    525    467    526
   405   5    473    470    474
   406   1    475    470    473
   407   1    476    470    473
   408   1    475    470    474
   409   1    476    470    474
   410   2    475    470    476
   411   6    473    471    478
   412   1    505    471    473
   413   5    473    471    810
   414   7    505    471    478
   415   6    810    471    478
   416   1    505    471    810
   417   1    480    472    474
   418   1    481    472    474
   419   1   3518    472    474
   420   2    480    472    481
   421   2    480    472   3518
   422   2    481    472   3518
   423   3    470    473    471
   424   3    470    474    472
   425   8    471    478    516
   426   4    539    479    540
   427   4    529    482    530
   428   1    490    485    489
   429   1   3519    485    489
   430   5    489    485    818
   431   2    490    485   3519
   432   1    490    485    818
   433   1   3519    485    818
   434   1    460    486    488
   435   2    460    486    492
   436   1    460    486    493
   437   1    492    486    488
   438   5    488    486    493
   439   1    492    486    493
   440   5    489    487    493
   441   1    494    487    489
   442   1    495    487    489
   443   1    494    487    493
   444   1    495    487    493
   445   2    494    487    495
   446   3    486    488    179
   447   3    485    489    487
   448   3    486    493    487
   449   4    519    496    520
   450   1    504    499    502
   451   1   3520    499    502
   452   5    502    499    193
   453   2    504    499   3520
   454   1    504    499    193
   455   1   3520    499    193
   456   1    477    500    502
   457   7    477    500    506
   458   1    477    500    508
   459   6    502    500    506
   460   5    502    500    508
   461   6    508    500    506
   462   5    503    501    508
   463   1    509    501    503
   464   1    510    501    503
   465   1    509    501    508
   466   1    510    501    508
   467   2    509    501    510
   468   3    499    502    500
   469   3    501    503    829
   470   8    500    506    517
   471   4    527    507    528
   472   3    500    508    501
   473   4    535    511    536
   474   4    533    512    534
   475   4    531    513    532
   476   4    537    515    538
   477   5    546    543    547
   478   1    548    543    546
   479   1    549    543    546
   480   1    548    543    547
   481   1    549    543    547
   482   2    548    543    549
   483   6    546    544    551
   484   5    546    544    553
   485   1    581    544    546
   486   6    553    544    551
   487   7    581    544    551
   488   1    581    544    553
   489   1    554    545    547
   490   1   3521    545    547
   491   1    235    545    547
   492   2    554    545   3521
   493   2    554    545    235
   494   2   3521    545    235
   495   3    543    546    544
   496   3    543    547    545
   497   8    544    551    608
   498   4    611    552    612
   499   3    544    553    874
   500   4    613    555    614
   501   4    615    557    616
   502   5    563    560    564
   503   1    565    560    563
   504   1    566    560    563
   505   1    565    560    564
   506   1    566    560    564
   507   2    565    560    566
   508   6    563    561    568
   509   1    595    561    563
   510   5    563    561    894
   511   7    595    561    568
   512   6    894    561    568
   513   1    595    561    894
   514   1    570    562    564
   515   1    571    562    564
   516   1   3522    562    564
   517   2    570    562    571
   518   2    570    562   3522
   519   2    571    562   3522
   520   3    560    563    561
   521   3    560    564    562
   522   8    561    568    606
   523   4    629    569    630
   524   4    619    572    620
   525   1    580    575    579
   526   1   3523    575    579
   527   1    901    575    579
   528   2    580    575   3523
   529   2    580    575    901
   530   2   3523    575    901
   531   1    550    576    578
   532   2    550    576    582
   533   1    550    576    583
   534   1    582    576    578
   535   5    578    576    583
   536   1    582    576    583
   537   5    579    577    583
   538   1    584    577    579
   539   1    585    577    579
   540   1    584    577    583
   541   1    585    577    583
   542   2    584    577    585
   543   3    576    578    254
   544   3    575    579    577
   545   3    576    583    577
   546   4    609    586    610
   547   1    594    589    592
   548   1   3524    589    592
   549   5    592    589    268
   550   2    594    589   3524
   551   1    594    589    268
   552   1   3524    589    268
   553   1    567    590    592
   554   7    567    590    596
   555   1    567    590    598
   556   6    592    590    596
   557   5    592    590    598
   558   6    598    590    596
   559   5    593    591    598
   560   1    599    591    593
   561   1    600    591    593
   562   1    599    591    598
   563   1    600    591    598
   564   2    599    591    600
   565   3    589    592    590
   566   3    591    593    910
   567   8    590    596    607
   568   4    617    597    618
   569   3    590    598    591
   570   4    625    601    626
   571   4    623    602    624
   572   4    621    603    622
   573   4    627    605    628
   574   1    635    633    636
   575   2    635    633    637
   576   2    635    633    638
   577   1    637    633    636
   578   1    638    633    636
   579   2    637    633    638
   580   1    641    634    636
   581   1   3525    634    636
   582   1    310    634    636
   583   2    641    634   3525
   584   2    641    634    310
   585   2   3525    634    310
   586   3    633    636    634
   587   4    686    639    687
   588   4    688    642    689
   589   4    690    644    691
   590   1    649    647    650
   591   2    649    647    651
   592   2    649    647    652
   593   1    651    647    650
   594   1    652    647    650
   595   2    651    647    652
   596   1    654    648    650
   597   1    655    648    650
   598   1   3526    648    650
   599   2    654    648    655
   600   2    654    648   3526
   601   2    655    648   3526
   602   3    647    650    648
   603   4    704    653    705
   604   4    694    656    695
   605   1    663    659    662
   606   1   3527    659    662
   607   1    974    659    662
   608   2    663    659   3527
   609   2    663    659    974
   610   2   3527    659    974
   611   1    664    660    662
   612   1    665    660    662
   613   1    666    660    662
   614   2    664    660    665
   615   2    664    660    666
   616   2    665    660    666
   617   3    659    662    660
   618   4    684    667    685
   619   2    672    670    674
   620   2    672    670   3528
   621   1    672    670    343
   622   2    674    670   3528
   623   1    674    670    343
   624   1   3528    670    343
   625   1    676    671    673
   626   1    677    671    673
   627   1    678    671    673
   628   2    676    671    677
   629   2    676    671    678
   630   2    677    671    678
   631   3    671    673    982
   632   4    692    675    693
   633   4    700    679    701
   634   4    698    680    699
   635   4    696    681    697
   636   4    702    683    703
   637   1    710    708    711
   638   2    710    708    712
   639   2    710    708    713
   640   1    712    708    711
   641   1    713    708    711
   642   2    712    708    713
   643   1    716    709    711
   644   1   3529    709    711
   645   1    385    709    711
   646   2    716    709   3529
   647   2    716    709    385
   648   2   3529    709    385
   649   3    708    711    709
   650   4    761    714    762
   651   4    763    717    764
   652   4    765    719    766
   653   1    724    722    725
   654   2    724    722    726
   655   2    724    722    727
   656   1    726    722    725
   657   1    727    722    725
   658   2    726    722    727
   659   1    729    723    725
   660   1    730    723    725
   661   1   3530    723    725
   662   2    729    723    730
   663   2    729    723   3530
   664   2    730    723   3530
   665   3    722    725    723
   666   4    779    728    780
   667   4    769    731    770
   668   1    738    734    737
   669   1   3531    734    737
   670   1   1043    734    737
   671   2    738    734   3531
   672   2    738    734   1043
   673   2   3531    734   1043
   674   1    739    735    737
   675   1    740    735    737
   676   1    741    735    737
   677   2    739    735    740
   678   2    739    735    741
   679   2    740    735    741
   680   3    734    737    735
   681   4    759    742    760
   682   2    747    745    749
   683   2    747    745   3532
   684   1    747    745    418
   685   2    749    745   3532
   686   1    749    745    418
   687   1   3532    745    418
   688   1    751    746    748
   689   1    752    746    748
   690   1    753    746    748
   691   2    751    746    752
   692   2    751    746    753
   693   2    752    746    753
   694   3    746    748   1051
   695   4    767    750    768
   696   4    775    754    776
   697   4    773    755    774
   698   4    771    756    772
   699   4    777    758    778
   700   5    786    783    787
   701   1    788    783    786
   702   1    789    783    786
   703   1    788    783    787
   704   1    789    783    787
   705   2    788    783    789
   706   6    786    784    791
   707   5    786    784    793
   708   1    821    784    786
   709   6    793    784    791
   710   7    821    784    791
   711   1    821    784    793
   712   1    794    785    787
   713   1   3533    785    787
   714   5    787    785    463
   715   2    794    785   3533
   716   1    794    785    463
   717   1   3533    785    463
   718   3    783    786    784
   719   3    783    787    785
   720   8    784    791    848
   721   4    851    792    852
   722   3    784    793   1088
   723   4    853    795    854
   724   4    855    797    856
   725   5    803    800    804
   726   1    805    800    803
   727   1    806    800    803
   728   1    805    800    804
   729   1    806    800    804
   730   2    805    800    806
   731   6    803    801    808
   732   1    835    801    803
   733   5    803    801   1111
   734   7    835    801    808
   735   6   1111    801    808
   736   1    835    801   1111
   737   5    804    802    810
   738   1    811    802    804
   739   1   3534    802    804
   740   1    811    802    810
   741   1   3534    802    810
   742   2    811    802   3534
   743   3    800    803    801
   744   3    800    804    802
   745   8    801    808    846
   746   4    869    809    870
   747   3    802    810    471
   748   4    859    812    860
   749   1    820    815    819
   750   1   3535    815    819
   751   5    819    815   1117
   752   2    820    815   3535
   753   1    820    815   1117
   754   1   3535    815   1117
   755   1    790    816    818
   756   2    790    816    822
   757   1    790    816    823
   758   1    822    816    818
   759   5    818    816    823
   760   1    822    816    823
   761   5    819    817    823
   762   1    824    817    819
   763   1    825    817    819
   764   1    824    817    823
   765   1    825    817    823
   766   2    824    817    825
   767   3    816    818    485
   768   3    815    819    817
   769   3    816    823    817
   770   4    849    826    850
   771   1    834    829    832
   772   1   3536    829    832
   773   5    832    829    503
   774   2    834    829   3536
   775   1    834    829    503
   776   1   3536    829    503
   777   1    807    830    832
   778   7    807    830    836
   779   1    807    830    838
   780   6    832    830    836
   781   5    832    830    838
   782   6    838    830    836
   783   5    833    831    838
   784   1    839    831    833
   785   1    840    831    833
   786   1    839    831    838
   787   1    840    831    838
   788   2    839    831    840
   789   3    829    832    830
   790   3    831    833   1127
   791   8    830    836    847
   792   4    857    837    858
   793   3    830    838    831
   794   4    865    841    866
   795   4    863    842    864
   796   4    861    843    862
   797   4    867    845    868
   798   1    875    873    876
   799   2    875    873    877
   800   2    875    873    878
   801   1    877    873    876
   802   1    878    873    876
   803   2    877    873    878
   804   1    881    874    876
   805   1   3537    874    876
   806   5    876    874    553
   807   2    881    874   3537
   808   1    881    874    553
   809   1   3537    874    553
   810   3    873    876    874
   811   4    926    879    927
   812   4    928    882    929
   813   4    930    884    931
   814   1    889    887    890
   815   2    889    887    891
   816   2    889    887    892
   817   1    891    887    890
   818   1    892    887    890
   819   2    891    887    892
   820   5    890    888    894
   821   1    895    888    890
   822   1   3538    888    890
   823   1    895    888    894
   824   1   3538    888    894
   825   2    895    888   3538
   826   3    887    890    888
   827   4    944    893    945
   828   3    888    894    561
   829   4    934    896    935
   830   1    903    899    902
   831   1   3539    899    902
   832   1   1193    899    902
   833   2    903    899   3539
   834   2    903    899   1193
   835   2   3539    899   1193
   836   1    904    900    902
   837   1    905    900    902
   838   1    906    900    902
   839   2    904    900    905
   840   2    904    900    906
   841   2    905    900    906
   842   3    899    902    900
   843   4    924    907    925
   844   2    912    910    914
   845   2    912    910   3540
   846   1    912    910    593
   847   2    914    910   3540
   848   1    914    910    593
   849   1   3540    910    593
   850   1    916    911    913
   851   1    917    911    913
   852   1    918    911    913
   853   2    916    911    917
   854   2    916    911    918
   855   2    917    911    918
   856   3    911    913   1201
   857   4    932    915    933
   858   4    940    919    941
   859   4    938    920    939
   860   4    936    921    937
   861   4    942    923    943
   862   1    950    948    951
   863   2    950    948    952
   864   2    950    948    953
   865   1    952    948    951
   866   1    953    948    951
   867   2    952    948    953
   868   1    956    949    951
   869   1   3541    949    951
   870   1    640    949    951
   871   2    956    949   3541
   872   2    956    949    640
   873   2   3541    949    640
   874   3    948    951    949
   875   4    997    954    998
   876   4    999    957   1000
   877   4   1001    959   1002
   878   1    964    962    965
   879   2    964    962    966
   880   2    964    962    967
   881   1    966    962    965
   882   1    967    962    965
   883   2    966    962    967
   884   1    969    963    965
   885   1    970    963    965
   886   1   3542    963    965
   887   2    969    963    970
   888   2    969    963   3542
   889   2    970    963   3542
   890   3    962    965    963
   891   4   1013    968   1014
   892   1    976    972    975
   893   1   3598    972    975
   894   1     31    972    975
   895   2    976    972   3598
   896   2    976    972     31
   897   2   3598    972     31
   898   1    977    973    975
   899   1    978    973    975
   900   1    979    973    975
   901   2    977    973    978
   902   2    977    973    979
   903   2    978    973    979
   904   3    972    975    973
   905   4    995    980    996
   906   2    984    982    985
   907   2    984    982   3543
   908   1    984    982    673
   909   2    985    982   3543
   910   1    985    982    673
   911   1   3543    982    673
   912   1    987    983   1714
   913   1    988    983   1714
   914   1    989    983   1714
   915   2    987    983    988
   916   2    987    983    989
   917   2    988    983    989
   918   4   1003    986   1004
   919   4   1009    990   1010
   920   4   1007    991   1008
   921   4   1005    992   1006
   922   4   1011    994   1012
   923   1   1019   1017   1020
   924   2   1019   1017   1021
   925   2   1019   1017   1022
   926   1   1021   1017   1020
   927   1   1022   1017   1020
   928   2   1021   1017   1022
   929   1   1025   1018   1020
   930   1   3544   1018   1020
   931   1    715   1018   1020
   932   2   1025   1018   3544
   933   2   1025   1018    715
   934   2   3544   1018    715
   935   3   1017   1020   1018
   936   4   1066   1023   1067
   937   4   1068   1026   1069
   938   4   1070   1028   1071
   939   1   1033   1031   1034
   940   2   1033   1031   1035
   941   2   1033   1031   1036
   942   1   1035   1031   1034
   943   1   1036   1031   1034
   944   2   1035   1031   1036
   945   1   1038   1032   1034
   946   1   1039   1032   1034
   947   1   3545   1032   1034
   948   2   1038   1032   1039
   949   2   1038   1032   3545
   950   2   1039   1032   3545
   951   3   1031   1034   1032
   952   4   1082   1037   1083
   953   1   1045   1041   1044
   954   1   3600   1041   1044
   955   1    106   1041   1044
   956   2   1045   1041   3600
   957   2   1045   1041    106
   958   2   3600   1041    106
   959   1   1046   1042   1044
   960   1   1047   1042   1044
   961   1   1048   1042   1044
   962   2   1046   1042   1047
   963   2   1046   1042   1048
   964   2   1047   1042   1048
   965   3   1041   1044   1042
   966   4   1064   1049   1065
   967   2   1053   1051   1054
   968   2   1053   1051   3546
   969   1   1053   1051    748
   970   2   1054   1051   3546
   971   1   1054   1051    748
   972   1   3546   1051    748
   973   1   1056   1052   1724
   974   1   1057   1052   1724
   975   1   1058   1052   1724
   976   2   1056   1052   1057
   977   2   1056   1052   1058
   978   2   1057   1052   1058
   979   4   1072   1055   1073
   980   4   1078   1059   1079
   981   4   1076   1060   1077
   982   4   1074   1061   1075
   983   4   1080   1063   1081
   984   5   1089   1086   1090
   985   1   1091   1086   1089
   986   1   1092   1086   1089
   987   1   1091   1086   1090
   988   1   1092   1086   1090
   989   2   1091   1086   1092
   990   6   1089   1087   1094
   991   5   1089   1087   1096
   992   1   1120   1087   1089
   993   6   1096   1087   1094
   994   7   1120   1087   1094
   995   1   1120   1087   1096
   996   1   1097   1088   1090
   997   1   3547   1088   1090
   998   5   1090   1088    793
   999   2   1097   1088   3547
  1000   1   1097   1088    793
  1001   1   3547   1088    793
  1002   3   1086   1089   1087
  1003   3   1086   1090   1088
  1004   8   1087   1094   1144
  1005   4   1147   1095   1148
  1006   3   1087   1096    154
  1007   4   1149   1098   1150
  1008   4   1151   1100   1152
  1009   5   1105   1103   1106
  1010   1   1107   1103   1105
  1011   1   1108   1103   1105
  1012   1   1107   1103   1106
  1013   1   1108   1103   1106
  1014   2   1107   1103   1108
  1015   5   1106   1104   1111
  1016   1   1112   1104   1106
  1017   1   3548   1104   1106
  1018   1   1112   1104   1111
  1019   1   3548   1104   1111
  1020   2   1112   1104   3548
  1021   3   1103   1105   1735
  1022   3   1103   1106   1104
  1023   4   1163   1110   1164
  1024   3   1104   1111    801
  1025   1   1119   1114   1118
  1026   1   3602   1114   1118
  1027   1    181   1114   1118
  1028   2   1119   1114   3602
  1029   2   1119   1114    181
  1030   2   3602   1114    181
  1031   1   1093   1115   1117
  1032   7   1093   1115   1121
  1033   1   1093   1115   1122
  1034   6   1117   1115   1121
  1035   5   1117   1115   1122
  1036   6   1122   1115   1121
  1037   5   1118   1116   1122
  1038   1   1123   1116   1118
  1039   1   1124   1116   1118
  1040   1   1123   1116   1122
  1041   1   1124   1116   1122
  1042   2   1123   1116   1124
  1043   3   1115   1117    815
  1044   3   1114   1118   1116
  1045   8   1115   1121   1142
  1046   3   1115   1122   1116
  1047   4   1145   1125   1146
  1048   1   1131   1127   1130
  1049   1   3549   1127   1130
  1050   5   1130   1127    833
  1051   2   1131   1127   3549
  1052   1   1131   1127    833
  1053   1   3549   1127    833
  1054   1   1109   1128   1130
  1055   7   1109   1128   1132
  1056   1   1109   1128   1134
  1057   6   1130   1128   1132
  1058   5   1130   1128   1134
  1059   6   1134   1128   1132
  1060   5   1740   1129   1134
  1061   1   1135   1129   1740
  1062   1   1136   1129   1740
  1063   1   1135   1129   1134
  1064   1   1136   1129   1134
  1065   2   1135   1129   1136
  1066   3   1127   1130   1128
  1067   8   1128   1132   1143
  1068   4   1153   1133   1154
  1069   3   1128   1134   1129
  1070   4   1159   1137   1160
  1071   4   1157   1138   1158
  1072   4   1155   1139   1156
  1073   4   1161   1141   1162
  1074   1   1169   1167   1170
  1075   2   1169   1167   1171
  1076   2   1169   1167   1172
  1077   1   1171   1167   1170
  1078   1   1172   1167   1170
  1079   2   1171   1167   1172
  1080   1   1175   1168   1170
  1081   1   3550   1168   1170
  1082   1    880   1168   1170
  1083   2   1175   1168   3550
  1084   2   1175   1168    880
  1085   2   3550   1168    880
  1086   3   1167   1170   1168
  1087   4   1216   1173   1217
  1088   4   1218   1176   1219
  1089   4   1220   1178   1221
  1090   1   1183   1181   1184
  1091   2   1183   1181   1185
  1092   2   1183   1181   1186
  1093   1   1185   1181   1184
  1094   1   1186   1181   1184
  1095   2   1185   1181   1186
  1096   1   1188   1182   1184
  1097   1   1189   1182   1184
  1098   1   3551   1182   1184
  1099   2   1188   1182   1189
  1100   2   1188   1182   3551
  1101   2   1189   1182   3551
  1102   3   1181   1184   1182
  1103   4   1232   1187   1233
  1104   1   1195   1191   1194
  1105   1   3604   1191   1194
  1106   1    256   1191   1194
  1107   2   1195   1191   3604
  1108   2   1195   1191    256
  1109   2   3604   1191    256
  1110   1   1196   1192   1194
  1111   1   1197   1192   1194
  1112   1   1198   1192   1194
  1113   2   1196   1192   1197
  1114   2   1196   1192   1198
  1115   2   1197   1192   1198
  1116   3   1191   1194   1192
  1117   4   1214   1199   1215
  1118   2   1203   1201   1204
  1119   2   1203   1201   3552
  1120   1   1203   1201    913
  1121   2   1204   1201   3552
  1122   1   1204   1201    913
  1123   1   3552   1201    913
  1124   1   1206   1202   1752
  1125   1   1207   1202   1752
  1126   1   1208   1202   1752
  1127   2   1206   1202   1207
  1128   2   1206   1202   1208
  1129   2   1207   1202   1208
  1130   4   1222   1205   1223
  1131   4   1228   1209   1229
  1132   4   1226   1210   1227
  1133   4   1224   1211   1225
  1134   4   1230   1213   1231
  1135   4   1261   1234   1262
  1136   1   1239   1237   1240
  1137   2   1239   1237   1241
  1138   2   1239   1237   1242
  1139   1   1241   1237   1240
  1140   1   1242   1237   1240
  1141   2   1241   1237   1242
  1142   1   1243   1238   1240
  1143   1   1244   1238   1240
  1144   1   3557   1238   1240
  1145   2   1243   1238   1244
  1146   2   1243   1238   3557
  1147   2   1244   1238   3557
  1148   3   1237   1240   1238
  1149   1   1251   1247   1250
  1150   1   3558   1247   1250
  1151   1   1365   1247   1250
  1152   2   1251   1247   3558
  1153   2   1251   1247   1365
  1154   2   3558   1247   1365
  1155   1   1253   1248   1250
  1156   1   1254   1248   1250
  1157   1   1255   1248   1250
  1158   2   1253   1248   1254
  1159   2   1253   1248   1255
  1160   2   1254   1248   1255
  1161   3   1247   1250   1248
  1162   4   1257   1252   1258
  1163   4   1259   1256   1260
  1164   4   1290   1263   1291
  1165   1   1268   1266   1269
  1166   2   1268   1266   1270
  1167   2   1268   1266   1271
  1168   1   1270   1266   1269
  1169   1   1271   1266   1269
  1170   2   1270   1266   1271
  1171   1   1272   1267   1269
  1172   1   1273   1267   1269
  1173   1   3562   1267   1269
  1174   2   1272   1267   1273
  1175   2   1272   1267   3562
  1176   2   1273   1267   3562
  1177   3   1266   1269   1267
  1178   1   1280   1276   1279
  1179   1   3563   1276   1279
  1180   1   1394   1276   1279
  1181   2   1280   1276   3563
  1182   2   1280   1276   1394
  1183   2   3563   1276   1394
  1184   1   1282   1277   1279
  1185   1   1283   1277   1279
  1186   1   1284   1277   1279
  1187   2   1282   1277   1283
  1188   2   1282   1277   1284
  1189   2   1283   1277   1284
  1190   3   1276   1279   1277
  1191   4   1286   1281   1287
  1192   4   1288   1285   1289
  1193   4   1319   1292   1320
  1194   1   1297   1295   1298
  1195   2   1297   1295   1299
  1196   2   1297   1295   1300
  1197   1   1299   1295   1298
  1198   1   1300   1295   1298
  1199   2   1299   1295   1300
  1200   5   1298   1296   1301
  1201   1   1302   1296   1298
  1202   1   3567   1296   1298
  1203   1   1302   1296   1301
  1204   1   3567   1296   1301
  1205   2   1302   1296   3567
  1206   3   1295   1298   1296
  1207   3   1296   1301   1727
  1208   1   1309   1305   1308
  1209   1   3568   1305   1308
  1210   5   1308   1305   1427
  1211   2   1309   1305   3568
  1212   1   1309   1305   1427
  1213   1   3568   1305   1427
  1214   1   1311   1306   1308
  1215   1   1312   1306   1308
  1216   1   1313   1306   1308
  1217   2   1311   1306   1312
  1218   2   1311   1306   1313
  1219   2   1312   1306   1313
  1220   3   1305   1308   1306
  1221   4   1315   1310   1316
  1222   4   1317   1314   1318
  1223   4   1348   1321   1349
  1224   1   1326   1324   1327
  1225   2   1326   1324   1328
  1226   2   1326   1324   1329
  1227   1   1328   1324   1327
  1228   1   1329   1324   1327
  1229   2   1328   1324   1329
  1230   1   1330   1325   1327
  1231   1   1331   1325   1327
  1232   1   3572   1325   1327
  1233   2   1330   1325   1331
  1234   2   1330   1325   3572
  1235   2   1331   1325   3572
  1236   3   1324   1327   1325
  1237   1   1338   1334   1337
  1238   1   3573   1334   1337
  1239   5   1337   1334   1463
  1240   2   1338   1334   3573
  1241   1   1338   1334   1463
  1242   1   3573   1334   1463
  1243   1   1340   1335   1337
  1244   1   1341   1335   1337
  1245   1   1342   1335   1337
  1246   2   1340   1335   1341
  1247   2   1340   1335   1342
  1248   2   1341   1335   1342
  1249   3   1334   1337   1335
  1250   4   1344   1339   1345
  1251   4   1346   1343   1347
  1252   4   1377   1350   1378
  1253   1   1355   1353   1356
  1254   2   1355   1353   1357
  1255   2   1355   1353   1358
  1256   1   1357   1353   1356
  1257   1   1358   1353   1356
  1258   2   1357   1353   1358
  1259   1   1359   1354   1356
  1260   1   1360   1354   1356
  1261   1   3577   1354   1356
  1262   2   1359   1354   1360
  1263   2   1359   1354   3577
  1264   2   1360   1354   3577
  1265   3   1353   1356   1354
  1266   1   1367   1363   1366
  1267   1   3578   1363   1366
  1268   1   1495   1363   1366
  1269   2   1367   1363   3578
  1270   2   1367   1363   1495
  1271   2   3578   1363   1495
  1272   1   1369   1364   1366
  1273   1   1370   1364   1366
  1274   1   1371   1364   1366
  1275   2   1369   1364   1370
  1276   2   1369   1364   1371
  1277   2   1370   1364   1371
  1278   3   1363   1366   1364
  1279   4   1373   1368   1374
  1280   4   1375   1372   1376
  1281   4   1406   1379   1407
  1282   1   1384   1382   1385
  1283   2   1384   1382   1386
  1284   2   1384   1382   1387
  1285   1   1386   1382   1385
  1286   1   1387   1382   1385
  1287   2   1386   1382   1387
  1288   1   1388   1383   1385
  1289   1   1389   1383   1385
  1290   1   3579   1383   1385
  1291   2   1388   1383   1389
  1292   2   1388   1383   3579
  1293   2   1389   1383   3579
  1294   3   1382   1385   1383
  1295   1   1396   1392   1395
  1296   1   3580   1392   1395
  1297   1   1524   1392   1395
  1298   2   1396   1392   3580
  1299   2   1396   1392   1524
  1300   2   3580   1392   1524
  1301   1   1398   1393   1395
  1302   1   1399   1393   1395
  1303   1   1400   1393   1395
  1304   2   1398   1393   1399
  1305   2   1398   1393   1400
  1306   2   1399   1393   1400
  1307   3   1392   1395   1393
  1308   4   1402   1397   1403
  1309   4   1404   1401   1405
  1310   4   1442   1409   1443
  1311   5   1415   1412   1416
  1312   1   1417   1412   1415
  1313   1   1418   1412   1415
  1314   1   1417   1412   1416
  1315   1   1418   1412   1416
  1316   2   1417   1412   1418
  1317   1   1419   1413   1415
  1318   1   1436   1413   1415
  1319   5   1415   1413   1550
  1320   2   1419   1413   1436
  1321   1   1419   1413   1550
  1322   1   1436   1413   1550
  1323   1   1420   1414   1416
  1324   1   1421   1414   1416
  1325   1   3581   1414   1416
  1326   2   1420   1414   1421
  1327   2   1420   1414   3581
  1328   2   1421   1414   3581
  1329   3   1412   1415   1413
  1330   3   1412   1416   1414
  1331   1   1429   1424   1428
  1332   1   3582   1424   1428
  1333   5   1428   1424   1557
  1334   2   1429   1424   3582
  1335   1   1429   1424   1557
  1336   1   3582   1424   1557
  1337   1   1408   1425   1427
  1338   7   1408   1425   1430
  1339   1   1408   1425   1432
  1340   6   1427   1425   1430
  1341   5   1427   1425   1432
  1342   6   1432   1425   1430
  1343   5   1428   1426   1432
  1344   1   1433   1426   1428
  1345   1   1434   1426   1428
  1346   1   1433   1426   1432
  1347   1   1434   1426   1432
  1348   2   1433   1426   1434
  1349   3   1425   1427   1305
  1350   3   1424   1428   1426
  1351   8   1425   1430   1437
  1352   4   1438   1431   1439
  1353   3   1425   1432   1426
  1354   4   1440   1435   1441
  1355   4   1478   1445   1479
  1356   5   1451   1448   1452
  1357   1   1453   1448   1451
  1358   1   1454   1448   1451
  1359   1   1453   1448   1452
  1360   1   1454   1448   1452
  1361   2   1453   1448   1454
  1362   1   1455   1449   1451
  1363   1   1472   1449   1451
  1364   5   1451   1449   1583
  1365   2   1455   1449   1472
  1366   1   1455   1449   1583
  1367   1   1472   1449   1583
  1368   1   1456   1450   1452
  1369   1   1457   1450   1452
  1370   1   3583   1450   1452
  1371   2   1456   1450   1457
  1372   2   1456   1450   3583
  1373   2   1457   1450   3583
  1374   3   1448   1451   1449
  1375   3   1448   1452   1450
  1376   1   1465   1460   1464
  1377   1   3584   1460   1464
  1378   1   1589   1460   1464
  1379   2   1465   1460   3584
  1380   2   1465   1460   1589
  1381   2   3584   1460   1589
  1382   1   1444   1461   1463
  1383   7   1444   1461   1466
  1384   1   1444   1461   1468
  1385   6   1463   1461   1466
  1386   5   1463   1461   1468
  1387   6   1468   1461   1466
  1388   5   1464   1462   1468
  1389   1   1469   1462   1464
  1390   1   1470   1462   1464
  1391   1   1469   1462   1468
  1392   1   1470   1462   1468
  1393   2   1469   1462   1470
  1394   3   1461   1463   1334
  1395   3   1460   1464   1462
  1396   8   1461   1466   1473
  1397   4   1474   1467   1475
  1398   3   1461   1468   1462
  1399   4   1476   1471   1477
  1400   4   1507   1480   1508
  1401   1   1485   1483   1486
  1402   2   1485   1483   1487
  1403   2   1485   1483   1488
  1404   1   1487   1483   1486
  1405   1   1488   1483   1486
  1406   2   1487   1483   1488
  1407   1   1489   1484   1486
  1408   1   1490   1484   1486
  1409   1   3585   1484   1486
  1410   2   1489   1484   1490
  1411   2   1489   1484   3585
  1412   2   1490   1484   3585
  1413   3   1483   1486   1484
  1414   1   1497   1493   1496
  1415   1   3586   1493   1496
  1416   1   1617   1493   1496
  1417   2   1497   1493   3586
  1418   2   1497   1493   1617
  1419   2   3586   1493   1617
  1420   1   1499   1494   1496
  1421   1   1500   1494   1496
  1422   1   1501   1494   1496
  1423   2   1499   1494   1500
  1424   2   1499   1494   1501
  1425   2   1500   1494   1501
  1426   3   1493   1496   1494
  1427   4   1503   1498   1504
  1428   4   1505   1502   1506
  1429   4   1536   1509   1537
  1430   1   1514   1512   1515
  1431   2   1514   1512   1516
  1432   2   1514   1512   1517
  1433   1   1516   1512   1515
  1434   1   1517   1512   1515
  1435   2   1516   1512   1517
  1436   1   1518   1513   1515
  1437   1   1519   1513   1515
  1438   1   3587   1513   1515
  1439   2   1518   1513   1519
  1440   2   1518   1513   3587
  1441   2   1519   1513   3587
  1442   3   1512   1515   1513
  1443   1   1526   1522   1525
  1444   1   3588   1522   1525
  1445   1   1642   1522   1525
  1446   2   1526   1522   3588
  1447   2   1526   1522   1642
  1448   2   3588   1522   1642
  1449   1   1528   1523   1525
  1450   1   1529   1523   1525
  1451   1   1530   1523   1525
  1452   2   1528   1523   1529
  1453   2   1528   1523   1530
  1454   2   1529   1523   1530
  1455   3   1522   1525   1523
  1456   4   1532   1527   1533
  1457   4   1534   1531   1535
  1458   4   1572   1539   1573
  1459   5   1545   1542   1546
  1460   1   1547   1542   1545
  1461   1   1548   1542   1545
  1462   1   1547   1542   1546
  1463   1   1548   1542   1546
  1464   2   1547   1542   1548
  1465   1   1549   1543   1545
  1466   1   1566   1543   1545
  1467   5   1545   1543   1663
  1468   2   1549   1543   1566
  1469   1   1549   1543   1663
  1470   1   1566   1543   1663
  1471   5   1546   1544   1550
  1472   1   1551   1544   1546
  1473   1   3589   1544   1546
  1474   1   1551   1544   1550
  1475   1   3589   1544   1550
  1476   2   1551   1544   3589
  1477   3   1542   1545   1543
  1478   3   1542   1546   1544
  1479   3   1544   1550   1413
  1480   1   1559   1554   1558
  1481   1   3590   1554   1558
  1482   5   1558   1554   1669
  1483   2   1559   1554   3590
  1484   1   1559   1554   1669
  1485   1   3590   1554   1669
  1486   1   1538   1555   1557
  1487   7   1538   1555   1560
  1488   1   1538   1555   1562
  1489   6   1557   1555   1560
  1490   5   1557   1555   1562
  1491   6   1562   1555   1560
  1492   5   1558   1556   1562
  1493   1   1563   1556   1558
  1494   1   1564   1556   1558
  1495   1   1563   1556   1562
  1496   1   1564   1556   1562
  1497   2   1563   1556   1564
  1498   3   1555   1557   1424
  1499   3   1554   1558   1556
  1500   8   1555   1560   1567
  1501   4   1568   1561   1569
  1502   3   1555   1562   1556
  1503   4   1570   1565   1571
  1504   4   1601   1574   1602
  1505   1   1579   1577   1580
  1506   2   1579   1577   1581
  1507   2   1579   1577   1582
  1508   1   1581   1577   1580
  1509   1   1582   1577   1580
  1510   2   1581   1577   1582
  1511   5   1580   1578   1583
  1512   1   1584   1578   1580
  1513   1   3591   1578   1580
  1514   1   1584   1578   1583
  1515   1   3591   1578   1583
  1516   2   1584   1578   3591
  1517   3   1577   1580   1578
  1518   3   1578   1583   1449
  1519   1   1591   1587   1590
  1520   1   3592   1587   1590
  1521   1   1696   1587   1590
  1522   2   1591   1587   3592
  1523   2   1591   1587   1696
  1524   2   3592   1587   1696
  1525   1   1593   1588   1590
  1526   1   1594   1588   1590
  1527   1   1595   1588   1590
  1528   2   1593   1588   1594
  1529   2   1593   1588   1595
  1530   2   1594   1588   1595
  1531   3   1587   1590   1588
  1532   4   1597   1592   1598
  1533   4   1599   1596   1600
  1534   4   1626   1603   1627
  1535   1   1608   1606   1609
  1536   2   1608   1606   1610
  1537   2   1608   1606   1611
  1538   1   1610   1606   1609
  1539   1   1611   1606   1609
  1540   2   1610   1606   1611
  1541   1   1612   1607   1609
  1542   1   1613   1607   1609
  1543   1   3593   1607   1609
  1544   2   1612   1607   1613
  1545   2   1612   1607   3593
  1546   2   1613   1607   3593
  1547   3   1606   1609   1607
  1548   1   1619   1615   1618
  1549   1   3597   1615   1618
  1550   1   1249   1615   1618
  1551   2   1619   1615   3597
  1552   2   1619   1615   1249
  1553   2   3597   1615   1249
  1554   1   1621   1616   1618
  1555   1   1622   1616   1618
  1556   1   1623   1616   1618
  1557   2   1621   1616   1622
  1558   2   1621   1616   1623
  1559   2   1622   1616   1623
  1560   3   1615   1618   1616
  1561   4   1624   1620   1625
  1562   4   1651   1628   1652
  1563   1   1633   1631   1634
  1564   2   1633   1631   1635
  1565   2   1633   1631   1636
  1566   1   1635   1631   1634
  1567   1   1636   1631   1634
  1568   2   1635   1631   1636
  1569   1   1637   1632   1634
  1570   1   1638   1632   1634
  1571   1   3594   1632   1634
  1572   2   1637   1632   1638
  1573   2   1637   1632   3594
  1574   2   1638   1632   3594
  1575   3   1631   1634   1632
  1576   1   1644   1640   1643
  1577   1   3599   1640   1643
  1578   1   1278   1640   1643
  1579   2   1644   1640   3599
  1580   2   1644   1640   1278
  1581   2   3599   1640   1278
  1582   1   1646   1641   1643
  1583   1   1647   1641   1643
  1584   1   1648   1641   1643
  1585   2   1646   1641   1647
  1586   2   1646   1641   1648
  1587   2   1647   1641   1648
  1588   3   1640   1643   1641
  1589   4   1649   1645   1650
  1590   4   1680   1654   1681
  1591   5   1659   1657   1660
  1592   1   1661   1657   1659
  1593   1   1662   1657   1659
  1594   1   1661   1657   1660
  1595   1   1662   1657   1660
  1596   2   1661   1657   1662
  1597   5   1660   1658   1663
  1598   1   1664   1658   1660
  1599   1   3595   1658   1660
  1600   1   1664   1658   1663
  1601   1   3595   1658   1663
  1602   2   1664   1658   3595
  1603   3   1657   1659   1727
  1604   3   1657   1660   1658
  1605   3   1658   1663   1543
  1606   1   1671   1666   1670
  1607   1   3601   1666   1670
  1608   1   1307   1666   1670
  1609   2   1671   1666   3601
  1610   2   1671   1666   1307
  1611   2   3601   1666   1307
  1612   1   1653   1667   1669
  1613   7   1653   1667   1672
  1614   1   1653   1667   1674
  1615   6   1669   1667   1672
  1616   5   1669   1667   1674
  1617   6   1674   1667   1672
  1618   5   1670   1668   1674
  1619   1   1675   1668   1670
  1620   1   1676   1668   1670
  1621   1   1675   1668   1674
  1622   1   1676   1668   1674
  1623   2   1675   1668   1676
  1624   3   1667   1669   1554
  1625   3   1666   1670   1668
  1626   8   1667   1672   1677
  1627   4   1678   1673   1679
  1628   3   1667   1674   1668
  1629   4   1705   1682   1706
  1630   1   1687   1685   1688
  1631   2   1687   1685   1689
  1632   2   1687   1685   1690
  1633   1   1689   1685   1688
  1634   1   1690   1685   1688
  1635   2   1689   1685   1690
  1636   1   1691   1686   1688
  1637   1   1692   1686   1688
  1638   1   3596   1686   1688
  1639   2   1691   1686   1692
  1640   2   1691   1686   3596
  1641   2   1692   1686   3596
  1642   3   1685   1688   1686
  1643   1   1698   1694   1697
  1644   1   3603   1694   1697
  1645   1   1336   1694   1697
  1646   2   1698   1694   3603
  1647   2   1698   1694   1336
  1648   2   3603   1694   1336
  1649   1   1700   1695   1697
  1650   1   1701   1695   1697
  1651   1   1702   1695   1697
  1652   2   1700   1695   1701
  1653   2   1700   1695   1702
  1654   2   1701   1695   1702
  1655   3   1694   1697   1695
  1656   4   1703   1699   1704
  1657   4   1709   1708   1710
  1658   4   1715   1711   1716
  1659   3    983   1714     40
  1660   4   1719   1718   1720
  1661   4   1725   1721   1726
  1662   3   1052   1724    115
  1663   6   1659   1727   1728
  1664   1   1731   1727   1659
  1665   5   1659   1727   1301
  1666   7   1731   1727   1728
  1667   6   1301   1727   1728
  1668   1   1731   1727   1301
  1669   8   1727   1728   1732
  1670   4   1733   1730   1734
  1671   6   1105   1735   1736
  1672   1   1741   1735   1105
  1673   5   1105   1735    174
  1674   7   1741   1735   1736
  1675   6    174   1735   1736
  1676   1   1741   1735    174
  1677   8   1735   1736   1742
  1678   4   1743   1737   1744
  1679   3   1129   1740    190
  1680   4   1747   1746   1748
  1681   4   1753   1749   1754
  1682   3   1202   1752    265
  1683   1   1761   1757   1760
  1684   1   1762   1757   1760
  1685   5   1760   1757   2058
  1686   2   1761   1757   1762
  1687   1   1761   1757   2058
  1688   1   1762   1757   2058
  1689   1   1764   1758   1760
  1690   1   1765   1758   1760
  1691   1   3605   1758   1760
  1692   2   1764   1758   1765
  1693   2   1764   1758   3605
  1694   2   1765   1758   3605
  1695   3   1757   1760   1758
  1696   4   1808   1763   1809
  1697   4   1810   1766   1811
  1698   4   1812   1768   1813
  1699   2   1773   1771   1775
  1700   2   1773   1771   1776
  1701   1   1773   1771   2992
  1702   2   1775   1771   1776
  1703   1   1775   1771   2992
  1704   1   1776   1771   2992
  1705   2   1778   1772   1779
  1706   2   1778   1772   3606
  1707   1   1778   1772   1774
  1708   2   1779   1772   3606
  1709   1   1779   1772   1774
  1710   1   3606   1772   1774
  1711   3   1772   1774   2072
  1712   4   1824   1777   1825
  1713   4   1816   1780   1817
  1714   1   1785   1783   1786
  1715   2   1785   1783   1787
  1716   2   1785   1783   3607
  1717   1   1787   1783   1786
  1718   1   3607   1783   1786
  1719   2   1787   1783   3607
  1720   1   1789   1784   1786
  1721   1   3489   1784   1786
  1722   5   1786   1784   2708
  1723   2   1789   1784   3489
  1724   1   1789   1784   2708
  1725   1   3489   1784   2708
  1726   3   1783   1786   1784
  1727   4   1806   1790   1807
  1728   5   1795   1793   1796
  1729   1   1797   1793   1795
  1730   1   3608   1793   1795
  1731   1   1797   1793   1796
  1732   1   3608   1793   1796
  1733   2   1797   1793   3608
  1734   1   1799   1794   1796
  1735   1   1800   1794   1796
  1736   1   1801   1794   1796
  1737   2   1799   1794   1800
  1738   2   1799   1794   1801
  1739   2   1800   1794   1801
  1740   3   1793   1795   2102
  1741   3   1793   1796   1794
  1742   4   1814   1798   1815
  1743   4   1820   1802   1821
  1744   4   1818   1803   1819
  1745   4   1822   1805   1823
  1746   1   1832   1828   1831
  1747   1   1833   1828   1831
  1748   1   2147   1828   1831
  1749   2   1832   1828   1833
  1750   2   1832   1828   2147
  1751   2   1833   1828   2147
  1752   1   1835   1829   1831
  1753   1   1836   1829   1831
  1754   1   3609   1829   1831
  1755   2   1835   1829   1836
  1756   2   1835   1829   3609
  1757   2   1836   1829   3609
  1758   3   1828   1831   1829
  1759   4   1879   1834   1880
  1760   4   1881   1837   1882
  1761   4   1883   1839   1884
  1762   2   1844   1842   1846
  1763   2   1844   1842   1847
  1764   1   1844   1842   2994
  1765   2   1846   1842   1847
  1766   1   1846   1842   2994
  1767   1   1847   1842   2994
  1768   2   1849   1843   1850
  1769   2   1849   1843   3610
  1770   1   1849   1843   1845
  1771   2   1850   1843   3610
  1772   1   1850   1843   1845
  1773   1   3610   1843   1845
  1774   3   1843   1845   2159
  1775   4   1895   1848   1896
  1776   4   1887   1851   1888
  1777   1   1856   1854   1857
  1778   2   1856   1854   1858
  1779   2   1856   1854   3611
  1780   1   1858   1854   1857
  1781   1   3611   1854   1857
  1782   2   1858   1854   3611
  1783   1   1860   1855   1857
  1784   1   3494   1855   1857
  1785   1   2788   1855   1857
  1786   2   1860   1855   3494
  1787   2   1860   1855   2788
  1788   2   3494   1855   2788
  1789   3   1854   1857   1855
  1790   4   1877   1861   1878
  1791   1   1866   1864   1867
  1792   2   1866   1864   1868
  1793   2   1866   1864   3612
  1794   1   1868   1864   1867
  1795   1   3612   1864   1867
  1796   2   1868   1864   3612
  1797   1   1870   1865   1867
  1798   1   1871   1865   1867
  1799   1   1872   1865   1867
  1800   2   1870   1865   1871
  1801   2   1870   1865   1872
  1802   2   1871   1865   1872
  1803   3   1864   1867   1865
  1804   4   1885   1869   1886
  1805   4   1891   1873   1892
  1806   4   1889   1874   1890
  1807   4   1893   1876   1894
  1808   1   1903   1899   1902
  1809   1   1904   1899   1902
  1810   1   2222   1899   1902
  1811   2   1903   1899   1904
  1812   2   1903   1899   2222
  1813   2   1904   1899   2222
  1814   1   1906   1900   1902
  1815   1   1907   1900   1902
  1816   1   3613   1900   1902
  1817   2   1906   1900   1907
  1818   2   1906   1900   3613
  1819   2   1907   1900   3613
  1820   3   1899   1902   1900
  1821   4   1950   1905   1951
  1822   4   1952   1908   1953
  1823   4   1954   1910   1955
  1824   2   1915   1913   1917
  1825   2   1915   1913   1918
  1826   1   1915   1913   2996
  1827   2   1917   1913   1918
  1828   1   1917   1913   2996
  1829   1   1918   1913   2996
  1830   2   1920   1914   1921
  1831   2   1920   1914   3614
  1832   1   1920   1914   1916
  1833   2   1921   1914   3614
  1834   1   1921   1914   1916
  1835   1   3614   1914   1916
  1836   3   1914   1916   2234
  1837   4   1966   1919   1967
  1838   4   1958   1922   1959
  1839   1   1927   1925   1928
  1840   2   1927   1925   1929
  1841   2   1927   1925   3615
  1842   1   1929   1925   1928
  1843   1   3615   1925   1928
  1844   2   1929   1925   3615
  1845   1   1931   1926   1928
  1846   1   3499   1926   1928
  1847   1   2861   1926   1928
  1848   2   1931   1926   3499
  1849   2   1931   1926   2861
  1850   2   3499   1926   2861
  1851   3   1925   1928   1926
  1852   4   1948   1932   1949
  1853   1   1937   1935   1938
  1854   2   1937   1935   1939
  1855   2   1937   1935   3616
  1856   1   1939   1935   1938
  1857   1   3616   1935   1938
  1858   2   1939   1935   3616
  1859   1   1941   1936   1938
  1860   1   1942   1936   1938
  1861   1   1943   1936   1938
  1862   2   1941   1936   1942
  1863   2   1941   1936   1943
  1864   2   1942   1936   1943
  1865   3   1935   1938   1936
  1866   4   1956   1940   1957
  1867   4   1962   1944   1963
  1868   4   1960   1945   1961
  1869   4   1964   1947   1965
  1870   1   1975   1970   1974
  1871   1   1976   1970   1974
  1872   1   2297   1970   1974
  1873   2   1975   1970   1976
  1874   2   1975   1970   2297
  1875   2   1976   1970   2297
  1876   6   1973   1971   1978
  1877   5   1973   1971   1980
  1878   1   2008   1971   1973
  1879   6   1980   1971   1978
  1880   7   2008   1971   1978
  1881   1   2008   1971   1980
  1882   5   1974   1972   1980
  1883   1   1981   1972   1974
  1884   1   3617   1972   1974
  1885   1   1981   1972   1980
  1886   1   3617   1972   1980
  1887   2   1981   1972   3617
  1888   3   1971   1973   2905
  1889   3   1970   1974   1972
  1890   8   1971   1978   2032
  1891   4   2035   1979   2036
  1892   3   1971   1980   1972
  1893   4   2037   1982   2038
  1894   4   2039   1984   2040
  1895   1   1992   1987   1990
  1896   1   1993   1987   1990
  1897   5   1990   1987   2998
  1898   2   1992   1987   1993
  1899   1   1992   1987   2998
  1900   1   1993   1987   2998
  1901   6   1990   1988   1995
  1902   5   1990   1988   1997
  1903   1   2021   1988   1990
  1904   6   1997   1988   1995
  1905   7   2021   1988   1995
  1906   1   2021   1988   1997
  1907   1   1998   1989   1997
  1908   1   3618   1989   1997
  1909   5   1997   1989   1991
  1910   2   1998   1989   3618
  1911   1   1998   1989   1991
  1912   1   3618   1989   1991
  1913   3   1987   1990   1988
  1914   3   1989   1991   2309
  1915   8   1988   1995   2031
  1916   4   2051   1996   2052
  1917   3   1988   1997   1989
  1918   4   2043   1999   2044
  1919   5   2005   2002   2006
  1920   1   2007   2002   2005
  1921   1   3619   2002   2005
  1922   1   2007   2002   2006
  1923   1   3619   2002   2006
  1924   2   2007   2002   3619
  1925   1   1977   2003   2005
  1926   2   1977   2003   2009
  1927   1   1977   2003   2010
  1928   1   2009   2003   2005
  1929   5   2005   2003   2010
  1930   1   2009   2003   2010
  1931   1   2011   2004   2006
  1932   1   3504   2004   2006
  1933   5   2006   2004   2943
  1934   2   2011   2004   3504
  1935   1   2011   2004   2943
  1936   1   3504   2004   2943
  1937   3   2002   2005   2003
  1938   3   2002   2006   2004
  1939   3   2003   2010   2322
  1940   4   2033   2012   2034
  1941   1   2018   2015   2019
  1942   2   2018   2015   2020
  1943   2   2018   2015   3620
  1944   1   2020   2015   2019
  1945   1   3620   2015   2019
  1946   2   2020   2015   3620
  1947   7   1994   2016   2022
  1948   1   1994   2016   2024
  1949   1   1994   2016   2952
  1950   6   2024   2016   2022
  1951   6   2952   2016   2022
  1952   5   2024   2016   2952
  1953   5   2019   2017   2024
  1954   1   2025   2017   2019
  1955   1   2026   2017   2019
  1956   1   2025   2017   2024
  1957   1   2026   2017   2024
  1958   2   2025   2017   2026
  1959   3   2015   2019   2017
  1960   8   2016   2022   3506
  1961   4   2041   2023   2042
  1962   3   2016   2024   2017
  1963   4   2047   2027   2048
  1964   4   2045   2028   2046
  1965   4   2049   2030   2050
  1966   1   2060   2055   2059
  1967   1   2061   2055   2059
  1968   1   2372   2055   2059
  1969   2   2060   2055   2061
  1970   2   2060   2055   2372
  1971   2   2061   2055   2372
  1972   6   2058   2056   2063
  1973   5   2058   2056   2065
  1974   1   2093   2056   2058
  1975   6   2065   2056   2063
  1976   7   2093   2056   2063
  1977   1   2093   2056   2065
  1978   5   2059   2057   2065
  1979   1   2066   2057   2059
  1980   1   3621   2057   2059
  1981   1   2066   2057   2065
  1982   1   3621   2057   2065
  1983   2   2066   2057   3621
  1984   3   2056   2058   1757
  1985   3   2055   2059   2057
  1986   8   2056   2063   2120
  1987   4   2123   2064   2124
  1988   3   2056   2065   2057
  1989   4   2125   2067   2126
  1990   4   2127   2069   2128
  1991   1   2077   2072   2075
  1992   1   2078   2072   2075
  1993   5   2075   2072   1774
  1994   2   2077   2072   2078
  1995   1   2077   2072   1774
  1996   1   2078   2072   1774
  1997   6   2075   2073   2080
  1998   5   2075   2073   2082
  1999   1   2107   2073   2075
  2000   6   2082   2073   2080
  2001   7   2107   2073   2080
  2002   1   2107   2073   2082
  2003   1   2083   2074   2082
  2004   1   3622   2074   2082
  2005   5   2082   2074   2076
  2006   2   2083   2074   3622
  2007   1   2083   2074   2076
  2008   1   3622   2074   2076
  2009   3   2072   2075   2073
  2010   3   2074   2076   2384
  2011   8   2073   2080   2118
  2012   4   2141   2081   2142
  2013   3   2073   2082   2074
  2014   4   2131   2084   2132
  2015   5   2090   2087   2091
  2016   1   2092   2087   2090
  2017   1   3623   2087   2090
  2018   1   2092   2087   2091
  2019   1   3623   2087   2091
  2020   2   2092   2087   3623
  2021   1   2062   2088   2090
  2022   2   2062   2088   2094
  2023   1   2062   2088   2095
  2024   1   2094   2088   2090
  2025   5   2090   2088   2095
  2026   1   2094   2088   2095
  2027   1   2096   2089   2091
  2028   1   2097   2089   2091
  2029   1   1788   2089   2091
  2030   2   2096   2089   2097
  2031   2   2096   2089   1788
  2032   2   2097   2089   1788
  2033   3   2087   2090   2088
  2034   3   2087   2091   2089
  2035   3   2088   2095   2397
  2036   4   2121   2098   2122
  2037   1   2104   2101   2105
  2038   2   2104   2101   2106
  2039   2   2104   2101   3624
  2040   1   2106   2101   2105
  2041   1   3624   2101   2105
  2042   2   2106   2101   3624
  2043   7   2079   2102   2108
  2044   1   2079   2102   2110
  2045   1   2079   2102   1795
  2046   6   2110   2102   2108
  2047   6   1795   2102   2108
  2048   5   2110   2102   1795
  2049   5   2105   2103   2110
  2050   1   2111   2103   2105
  2051   1   2112   2103   2105
  2052   1   2111   2103   2110
  2053   1   2112   2103   2110
  2054   2   2111   2103   2112
  2055   3   2101   2105   2103
  2056   8   2102   2108   2119
  2057   4   2129   2109   2130
  2058   3   2102   2110   2103
  2059   4   2137   2113   2138
  2060   4   2135   2114   2136
  2061   4   2133   2115   2134
  2062   4   2139   2117   2140
  2063   1   2149   2145   2148
  2064   1   2150   2145   2148
  2065   1   2447   2145   2148
  2066   2   2149   2145   2150
  2067   2   2149   2145   2447
  2068   2   2150   2145   2447
  2069   1   2152   2146   2148
  2070   1   2153   2146   2148
  2071   1   3625   2146   2148
  2072   2   2152   2146   2153
  2073   2   2152   2146   3625
  2074   2   2153   2146   3625
  2075   3   2145   2148   2146
  2076   4   2198   2151   2199
  2077   4   2200   2154   2201
  2078   4   2202   2156   2203
  2079   2   2161   2159   2163
  2080   2   2161   2159   2164
  2081   1   2161   2159   1845
  2082   2   2163   2159   2164
  2083   1   2163   2159   1845
  2084   1   2164   2159   1845
  2085   2   2166   2160   2167
  2086   2   2166   2160   3626
  2087   1   2166   2160   2162
  2088   2   2167   2160   3626
  2089   1   2167   2160   2162
  2090   1   3626   2160   2162
  2091   3   2160   2162   2459
  2092   4   2216   2165   2217
  2093   4   2206   2168   2207
  2094   1   2173   2171   2174
  2095   2   2173   2171   2175
  2096   2   2173   2171   3627
  2097   1   2175   2171   2174
  2098   1   3627   2171   2174
  2099   2   2175   2171   3627
  2100   1   2177   2172   2174
  2101   1   2178   2172   2174
  2102   1   1859   2172   2174
  2103   2   2177   2172   2178
  2104   2   2177   2172   1859
  2105   2   2178   2172   1859
  2106   3   2171   2174   2172
  2107   4   2196   2179   2197
  2108   1   2184   2182   2185
  2109   2   2184   2182   2186
  2110   2   2184   2182   3628
  2111   1   2186   2182   2185
  2112   1   3628   2182   2185
  2113   2   2186   2182   3628
  2114   1   2188   2183   2185
  2115   1   2189   2183   2185
  2116   1   2190   2183   2185
  2117   2   2188   2183   2189
  2118   2   2188   2183   2190
  2119   2   2189   2183   2190
  2120   3   2182   2185   2183
  2121   4   2204   2187   2205
  2122   4   2212   2191   2213
  2123   4   2210   2192   2211
  2124   4   2208   2193   2209
  2125   4   2214   2195   2215
  2126   1   2224   2220   2223
  2127   1   2225   2220   2223
  2128   1   2522   2220   2223
  2129   2   2224   2220   2225
  2130   2   2224   2220   2522
  2131   2   2225   2220   2522
  2132   1   2227   2221   2223
  2133   1   2228   2221   2223
  2134   1   3629   2221   2223
  2135   2   2227   2221   2228
  2136   2   2227   2221   3629
  2137   2   2228   2221   3629
  2138   3   2220   2223   2221
  2139   4   2273   2226   2274
  2140   4   2275   2229   2276
  2141   4   2277   2231   2278
  2142   2   2236   2234   2238
  2143   2   2236   2234   2239
  2144   1   2236   2234   1916
  2145   2   2238   2234   2239
  2146   1   2238   2234   1916
  2147   1   2239   2234   1916
  2148   2   2241   2235   2242
  2149   2   2241   2235   3630
  2150   1   2241   2235   2237
  2151   2   2242   2235   3630
  2152   1   2242   2235   2237
  2153   1   3630   2235   2237
  2154   3   2235   2237   2534
  2155   4   2291   2240   2292
  2156   4   2281   2243   2282
  2157   1   2248   2246   2249
  2158   2   2248   2246   2250
  2159   2   2248   2246   3631
  2160   1   2250   2246   2249
  2161   1   3631   2246   2249
  2162   2   2250   2246   3631
  2163   1   2252   2247   2249
  2164   1   2253   2247   2249
  2165   1   1930   2247   2249
  2166   2   2252   2247   2253
  2167   2   2252   2247   1930
  2168   2   2253   2247   1930
  2169   3   2246   2249   2247
  2170   4   2271   2254   2272
  2171   1   2259   2257   2260
  2172   2   2259   2257   2261
  2173   2   2259   2257   3632
  2174   1   2261   2257   2260
  2175   1   3632   2257   2260
  2176   2   2261   2257   3632
  2177   1   2263   2258   2260
  2178   1   2264   2258   2260
  2179   1   2265   2258   2260
  2180   2   2263   2258   2264
  2181   2   2263   2258   2265
  2182   2   2264   2258   2265
  2183   3   2257   2260   2258
  2184   4   2279   2262   2280
  2185   4   2287   2266   2288
  2186   4   2285   2267   2286
  2187   4   2283   2268   2284
  2188   4   2289   2270   2290
  2189   1   2299   2295   2298
  2190   1   2300   2295   2298
  2191   1   2597   2295   2298
  2192   2   2299   2295   2300
  2193   2   2299   2295   2597
  2194   2   2300   2295   2597
  2195   1   2302   2296   2298
  2196   1   2303   2296   2298
  2197   1   3633   2296   2298
  2198   2   2302   2296   2303
  2199   2   2302   2296   3633
  2200   2   2303   2296   3633
  2201   3   2295   2298   2296
  2202   4   2348   2301   2349
  2203   4   2350   2304   2351
  2204   4   2352   2306   2353
  2205   2   2311   2309   2313
  2206   2   2311   2309   2314
  2207   1   2311   2309   1991
  2208   2   2313   2309   2314
  2209   1   2313   2309   1991
  2210   1   2314   2309   1991
  2211   2   2316   2310   2317
  2212   2   2316   2310   3634
  2213   1   2316   2310   2312
  2214   2   2317   2310   3634
  2215   1   2317   2310   2312
  2216   1   3634   2310   2312
  2217   3   2310   2312   2609
  2218   4   2366   2315   2367
  2219   4   2356   2318   2357
  2220   1   2323   2321   2324
  2221   2   2323   2321   2325
  2222   2   2323   2321   3635
  2223   1   2325   2321   2324
  2224   1   3635   2321   2324
  2225   2   2325   2321   3635
  2226   1   2327   2322   2324
  2227   1   2328   2322   2324
  2228   5   2324   2322   2010
  2229   2   2327   2322   2328
  2230   1   2327   2322   2010
  2231   1   2328   2322   2010
  2232   3   2321   2324   2322
  2233   4   2346   2329   2347
  2234   1   2334   2332   2335
  2235   2   2334   2332   2336
  2236   2   2334   2332   3636
  2237   1   2336   2332   2335
  2238   1   3636   2332   2335
  2239   2   2336   2332   3636
  2240   1   2338   2333   2335
  2241   1   2339   2333   2335
  2242   1   2340   2333   2335
  2243   2   2338   2333   2339
  2244   2   2338   2333   2340
  2245   2   2339   2333   2340
  2246   3   2332   2335   2333
  2247   4   2354   2337   2355
  2248   4   2362   2341   2363
  2249   4   2360   2342   2361
  2250   4   2358   2343   2359
  2251   4   2364   2345   2365
  2252   1   2374   2370   2373
  2253   1   2375   2370   2373
  2254   5   2373   2370   2673
  2255   2   2374   2370   2375
  2256   1   2374   2370   2673
  2257   1   2375   2370   2673
  2258   1   2377   2371   2373
  2259   1   2378   2371   2373
  2260   1   3637   2371   2373
  2261   2   2377   2371   2378
  2262   2   2377   2371   3637
  2263   2   2378   2371   3637
  2264   3   2370   2373   2371
  2265   4   2423   2376   2424
  2266   4   2425   2379   2426
  2267   4   2427   2381   2428
  2268   2   2386   2384   2388
  2269   2   2386   2384   2389
  2270   1   2386   2384   2076
  2271   2   2388   2384   2389
  2272   1   2388   2384   2076
  2273   1   2389   2384   2076
  2274   2   2391   2385   2392
  2275   2   2391   2385   3638
  2276   1   2391   2385   2387
  2277   2   2392   2385   3638
  2278   1   2392   2385   2387
  2279   1   3638   2385   2387
  2280   3   2385   2387   2686
  2281   4   2441   2390   2442
  2282   4   2431   2393   2432
  2283   1   2398   2396   2399
  2284   2   2398   2396   2400
  2285   2   2398   2396   3639
  2286   1   2400   2396   2399
  2287   1   3639   2396   2399
  2288   2   2400   2396   3639
  2289   1   2402   2397   2399
  2290   1   2403   2397   2399
  2291   5   2399   2397   2095
  2292   2   2402   2397   2403
  2293   1   2402   2397   2095
  2294   1   2403   2397   2095
  2295   3   2396   2399   2397
  2296   4   2421   2404   2422
  2297   5   2409   2407   2410
  2298   1   2411   2407   2409
  2299   1   3640   2407   2409
  2300   1   2411   2407   2410
  2301   1   3640   2407   2410
  2302   2   2411   2407   3640
  2303   1   2413   2408   2410
  2304   1   2414   2408   2410
  2305   1   2415   2408   2410
  2306   2   2413   2408   2414
  2307   2   2413   2408   2415
  2308   2   2414   2408   2415
  2309   3   2407   2409   2715
  2310   3   2407   2410   2408
  2311   4   2429   2412   2430
  2312   4   2437   2416   2438
  2313   4   2435   2417   2436
  2314   4   2433   2418   2434
  2315   4   2439   2420   2440
  2316   1   2449   2445   2448
  2317   1   2450   2445   2448
  2318   1   2761   2445   2448
  2319   2   2449   2445   2450
  2320   2   2449   2445   2761
  2321   2   2450   2445   2761
  2322   1   2452   2446   2448
  2323   1   2453   2446   2448
  2324   1   3641   2446   2448
  2325   2   2452   2446   2453
  2326   2   2452   2446   3641
  2327   2   2453   2446   3641
  2328   3   2445   2448   2446
  2329   4   2498   2451   2499
  2330   4   2500   2454   2501
  2331   4   2502   2456   2503
  2332   2   2461   2459   2463
  2333   2   2461   2459   2464
  2334   1   2461   2459   2162
  2335   2   2463   2459   2464
  2336   1   2463   2459   2162
  2337   1   2464   2459   2162
  2338   2   2466   2460   2467
  2339   2   2466   2460   3642
  2340   1   2466   2460   2462
  2341   2   2467   2460   3642
  2342   1   2467   2460   2462
  2343   1   3642   2460   2462
  2344   3   2460   2462   2772
  2345   4   2516   2465   2517
  2346   4   2506   2468   2507
  2347   1   2473   2471   2474
  2348   2   2473   2471   2475
  2349   2   2473   2471   3643
  2350   1   2475   2471   2474
  2351   1   3643   2471   2474
  2352   2   2475   2471   3643
  2353   1   2477   2472   2474
  2354   1   2478   2472   2474
  2355   1   2176   2472   2474
  2356   2   2477   2472   2478
  2357   2   2477   2472   2176
  2358   2   2478   2472   2176
  2359   3   2471   2474   2472
  2360   4   2496   2479   2497
  2361   1   2484   2482   2485
  2362   2   2484   2482   2486
  2363   2   2484   2482   3644
  2364   1   2486   2482   2485
  2365   1   3644   2482   2485
  2366   2   2486   2482   3644
  2367   1   2488   2483   2485
  2368   1   2489   2483   2485
  2369   1   2490   2483   2485
  2370   2   2488   2483   2489
  2371   2   2488   2483   2490
  2372   2   2489   2483   2490
  2373   3   2482   2485   2483
  2374   4   2504   2487   2505
  2375   4   2512   2491   2513
  2376   4   2510   2492   2511
  2377   4   2508   2493   2509
  2378   4   2514   2495   2515
  2379   1   2524   2520   2523
  2380   1   2525   2520   2523
  2381   1   2834   2520   2523
  2382   2   2524   2520   2525
  2383   2   2524   2520   2834
  2384   2   2525   2520   2834
  2385   1   2527   2521   2523
  2386   1   2528   2521   2523
  2387   1   3645   2521   2523
  2388   2   2527   2521   2528
  2389   2   2527   2521   3645
  2390   2   2528   2521   3645
  2391   3   2520   2523   2521
  2392   4   2573   2526   2574
  2393   4   2575   2529   2576
  2394   4   2577   2531   2578
  2395   2   2536   2534   2538
  2396   2   2536   2534   2539
  2397   1   2536   2534   2237
  2398   2   2538   2534   2539
  2399   1   2538   2534   2237
  2400   1   2539   2534   2237
  2401   2   2541   2535   2542
  2402   2   2541   2535   3646
  2403   1   2541   2535   2537
  2404   2   2542   2535   3646
  2405   1   2542   2535   2537
  2406   1   3646   2535   2537
  2407   3   2535   2537   2845
  2408   4   2591   2540   2592
  2409   4   2581   2543   2582
  2410   1   2548   2546   2549
  2411   2   2548   2546   2550
  2412   2   2548   2546   3647
  2413   1   2550   2546   2549
  2414   1   3647   2546   2549
  2415   2   2550   2546   3647
  2416   1   2552   2547   2549
  2417   1   2553   2547   2549
  2418   1   2251   2547   2549
  2419   2   2552   2547   2553
  2420   2   2552   2547   2251
  2421   2   2553   2547   2251
  2422   3   2546   2549   2547
  2423   4   2571   2554   2572
  2424   1   2559   2557   2560
  2425   2   2559   2557   2561
  2426   2   2559   2557   3648
  2427   1   2561   2557   2560
  2428   1   3648   2557   2560
  2429   2   2561   2557   3648
  2430   1   2563   2558   2560
  2431   1   2564   2558   2560
  2432   1   2565   2558   2560
  2433   2   2563   2558   2564
  2434   2   2563   2558   2565
  2435   2   2564   2558   2565
  2436   3   2557   2560   2558
  2437   4   2579   2562   2580
  2438   4   2587   2566   2588
  2439   4   2585   2567   2586
  2440   4   2583   2568   2584
  2441   4   2589   2570   2590
  2442   1   2599   2595   2598
  2443   1   2600   2595   2598
  2444   5   2598   2595   2908
  2445   2   2599   2595   2600
  2446   1   2599   2595   2908
  2447   1   2600   2595   2908
  2448   1   2602   2596   2598
  2449   1   2603   2596   2598
  2450   1   3649   2596   2598
  2451   2   2602   2596   2603
  2452   2   2602   2596   3649
  2453   2   2603   2596   3649
  2454   3   2595   2598   2596
  2455   4   2648   2601   2649
  2456   4   2650   2604   2651
  2457   4   2652   2606   2653
  2458   2   2611   2609   2613
  2459   2   2611   2609   2614
  2460   1   2611   2609   2312
  2461   2   2613   2609   2614
  2462   1   2613   2609   2312
  2463   1   2614   2609   2312
  2464   2   2616   2610   2617
  2465   2   2616   2610   3650
  2466   1   2616   2610   2612
  2467   2   2617   2610   3650
  2468   1   2617   2610   2612
  2469   1   3650   2610   2612
  2470   3   2610   2612   2921
  2471   4   2666   2615   2667
  2472   4   2656   2618   2657
  2473   1   2623   2621   2624
  2474   2   2623   2621   2625
  2475   2   2623   2621   3651
  2476   1   2625   2621   2624
  2477   1   3651   2621   2624
  2478   2   2625   2621   3651
  2479   1   2627   2622   2624
  2480   1   2628   2622   2624
  2481   1   2326   2622   2624
  2482   2   2627   2622   2628
  2483   2   2627   2622   2326
  2484   2   2628   2622   2326
  2485   3   2621   2624   2622
  2486   4   2646   2629   2647
  2487   5   2634   2632   2635
  2488   1   2636   2632   2634
  2489   1   3652   2632   2634
  2490   1   2636   2632   2635
  2491   1   3652   2632   2635
  2492   2   2636   2632   3652
  2493   1   2638   2633   2635
  2494   1   2639   2633   2635
  2495   1   2640   2633   2635
  2496   2   2638   2633   2639
  2497   2   2638   2633   2640
  2498   2   2639   2633   2640
  2499   3   2632   2634   2950
  2500   3   2632   2635   2633
  2501   4   2654   2637   2655
  2502   4   2662   2641   2663
  2503   4   2660   2642   2661
  2504   4   2658   2643   2659
  2505   4   2664   2645   2665
  2506   1   2991   2670   2674
  2507   1   2675   2670   2674
  2508   1   1759   2670   2674
  2509   2   2991   2670   2675
  2510   2   2991   2670   1759
  2511   2   2675   2670   1759
  2512   6   2673   2671   2677
  2513   5   2673   2671   2679
  2514   1   2706   2671   2673
  2515   6   2679   2671   2677
  2516   7   2706   2671   2677
  2517   1   2706   2671   2679
  2518   5   2674   2672   2679
  2519   1   2680   2672   2674
  2520   1   3653   2672   2674
  2521   1   2680   2672   2679
  2522   1   3653   2672   2679
  2523   2   2680   2672   3653
  2524   3   2671   2673   2370
  2525   3   2670   2674   2672
  2526   8   2671   2677   2734
  2527   4   2737   2678   2738
  2528   3   2671   2679   2672
  2529   4   2739   2681   2740
  2530   4   2741   2683   2742
  2531   1   2690   2686   2689
  2532   1   2691   2686   2689
  2533   5   2689   2686   2387
  2534   2   2690   2686   2691
  2535   1   2690   2686   2387
  2536   1   2691   2686   2387
  2537   6   2689   2687   2693
  2538   5   2689   2687   2695
  2539   1   2720   2687   2689
  2540   6   2695   2687   2693
  2541   7   2720   2687   2693
  2542   1   2720   2687   2695
  2543   1   2696   2688   2695
  2544   1   3654   2688   2695
  2545   5   2695   2688   2992
  2546   2   2696   2688   3654
  2547   1   2696   2688   2992
  2548   1   3654   2688   2992
  2549   3   2686   2689   2687
  2550   8   2687   2693   2732
  2551   4   2755   2694   2756
  2552   3   2687   2695   2688
  2553   4   2745   2697   2746
  2554   5   2703   2700   2704
  2555   1   2705   2700   2703
  2556   1   3655   2700   2703
  2557   1   2705   2700   2704
  2558   1   3655   2700   2704
  2559   2   2705   2700   3655
  2560   1   2676   2701   2703
  2561   7   2676   2701   2707
  2562   1   2676   2701   2708
  2563   6   2703   2701   2707
  2564   5   2703   2701   2708
  2565   6   2708   2701   2707
  2566   1   2709   2702   2704
  2567   1   2710   2702   2704
  2568   1   2401   2702   2704
  2569   2   2709   2702   2710
  2570   2   2709   2702   2401
  2571   2   2710   2702   2401
  2572   3   2700   2703   2701
  2573   3   2700   2704   2702
  2574   8   2701   2707   2731
  2575   3   2701   2708   1784
  2576   4   2735   2711   2736
  2577   1   2717   2714   2718
  2578   2   2717   2714   2719
  2579   2   2717   2714   3656
  2580   1   2719   2714   2718
  2581   1   3656   2714   2718
  2582   2   2719   2714   3656
  2583   7   2692   2715   2721
  2584   1   2692   2715   2723
  2585   1   2692   2715   2409
  2586   6   2723   2715   2721
  2587   6   2409   2715   2721
  2588   5   2723   2715   2409
  2589   5   2718   2716   2723
  2590   1   2724   2716   2718
  2591   1   2725   2716   2718
  2592   1   2724   2716   2723
  2593   1   2725   2716   2723
  2594   2   2724   2716   2725
  2595   3   2714   2718   2716
  2596   8   2715   2721   2733
  2597   4   2743   2722   2744
  2598   3   2715   2723   2716
  2599   4   2751   2726   2752
  2600   4   2749   2727   2750
  2601   4   2747   2728   2748
  2602   4   2753   2730   2754
  2603   1   2993   2759   2762
  2604   1   2763   2759   2762
  2605   1   1830   2759   2762
  2606   2   2993   2759   2763
  2607   2   2993   2759   1830
  2608   2   2763   2759   1830
  2609   1   2765   2760   2762
  2610   1   2766   2760   2762
  2611   1   3657   2760   2762
  2612   2   2765   2760   2766
  2613   2   2765   2760   3657
  2614   2   2766   2760   3657
  2615   3   2759   2762   2760
  2616   4   2810   2764   2811
  2617   4   2812   2767   2813
  2618   4   2814   2769   2815
  2619   2   2774   2772   2775
  2620   2   2774   2772   2776
  2621   1   2774   2772   2462
  2622   2   2775   2772   2776
  2623   1   2775   2772   2462
  2624   1   2776   2772   2462
  2625   2   2778   2773   2779
  2626   2   2778   2773   3658
  2627   1   2778   2773   2994
  2628   2   2779   2773   3658
  2629   1   2779   2773   2994
  2630   1   3658   2773   2994
  2631   4   2828   2777   2829
  2632   4   2818   2780   2819
  2633   1   2785   2783   2786
  2634   2   2785   2783   2787
  2635   2   2785   2783   3659
  2636   1   2787   2783   2786
  2637   1   3659   2783   2786
  2638   2   2787   2783   3659
  2639   1   2789   2784   2786
  2640   1   2790   2784   2786
  2641   1   2476   2784   2786
  2642   2   2789   2784   2790
  2643   2   2789   2784   2476
  2644   2   2790   2784   2476
  2645   3   2783   2786   2784
  2646   4   2808   2791   2809
  2647   1   2796   2794   2797
  2648   2   2796   2794   2798
  2649   2   2796   2794   3660
  2650   1   2798   2794   2797
  2651   1   3660   2794   2797
  2652   2   2798   2794   3660
  2653   1   2800   2795   2797
  2654   1   2801   2795   2797
  2655   1   2802   2795   2797
  2656   2   2800   2795   2801
  2657   2   2800   2795   2802
  2658   2   2801   2795   2802
  2659   3   2794   2797   2795
  2660   4   2816   2799   2817
  2661   4   2824   2803   2825
  2662   4   2822   2804   2823
  2663   4   2820   2805   2821
  2664   4   2826   2807   2827
  2665   1   2995   2832   2835
  2666   1   2836   2832   2835
  2667   1   1901   2832   2835
  2668   2   2995   2832   2836
  2669   2   2995   2832   1901
  2670   2   2836   2832   1901
  2671   1   2838   2833   2835
  2672   1   2839   2833   2835
  2673   1   3661   2833   2835
  2674   2   2838   2833   2839
  2675   2   2838   2833   3661
  2676   2   2839   2833   3661
  2677   3   2832   2835   2833
  2678   4   2883   2837   2884
  2679   4   2885   2840   2886
  2680   4   2887   2842   2888
  2681   2   2847   2845   2848
  2682   2   2847   2845   2849
  2683   1   2847   2845   2537
  2684   2   2848   2845   2849
  2685   1   2848   2845   2537
  2686   1   2849   2845   2537
  2687   2   2851   2846   2852
  2688   2   2851   2846   3662
  2689   1   2851   2846   2996
  2690   2   2852   2846   3662
  2691   1   2852   2846   2996
  2692   1   3662   2846   2996
  2693   4   2901   2850   2902
  2694   4   2891   2853   2892
  2695   1   2858   2856   2859
  2696   2   2858   2856   2860
  2697   2   2858   2856   3663
  2698   1   2860   2856   2859
  2699   1   3663   2856   2859
  2700   2   2860   2856   3663
  2701   1   2862   2857   2859
  2702   1   2863   2857   2859
  2703   1   2551   2857   2859
  2704   2   2862   2857   2863
  2705   2   2862   2857   2551
  2706   2   2863   2857   2551
  2707   3   2856   2859   2857
  2708   4   2881   2864   2882
  2709   1   2869   2867   2870
  2710   2   2869   2867   2871
  2711   2   2869   2867   3664
  2712   1   2871   2867   2870
  2713   1   3664   2867   2870
  2714   2   2871   2867   3664
  2715   1   2873   2868   2870
  2716   1   2874   2868   2870
  2717   1   2875   2868   2870
  2718   2   2873   2868   2874
  2719   2   2873   2868   2875
  2720   2   2874   2868   2875
  2721   3   2867   2870   2868
  2722   4   2889   2872   2890
  2723   4   2897   2876   2898
  2724   4   2895   2877   2896
  2725   4   2893   2878   2894
  2726   4   2899   2880   2900
  2727   1   2997   2905   2909
  2728   1   2910   2905   2909
  2729   5   2909   2905   1973
  2730   2   2997   2905   2910
  2731   1   2997   2905   1973
  2732   1   2910   2905   1973
  2733   6   2908   2906   2912
  2734   5   2908   2906   2914
  2735   1   2941   2906   2908
  2736   6   2914   2906   2912
  2737   7   2941   2906   2912
  2738   1   2941   2906   2914
  2739   5   2909   2907   2914
  2740   1   2915   2907   2909
  2741   1   3665   2907   2909
  2742   1   2915   2907   2914
  2743   1   3665   2907   2914
  2744   2   2915   2907   3665
  2745   3   2906   2908   2595
  2746   3   2905   2909   2907
  2747   8   2906   2912   2968
  2748   4   2971   2913   2972
  2749   3   2906   2914   2907
  2750   4   2973   2916   2974
  2751   4   2975   2918   2976
  2752   1   2925   2921   2924
  2753   1   2926   2921   2924
  2754   5   2924   2921   2612
  2755   2   2925   2921   2926
  2756   1   2925   2921   2612
  2757   1   2926   2921   2612
  2758   6   2924   2922   2928
  2759   5   2924   2922   2930
  2760   1   2955   2922   2924
  2761   6   2930   2922   2928
  2762   7   2955   2922   2928
  2763   1   2955   2922   2930
  2764   1   2931   2923   2930
  2765   1   3666   2923   2930
  2766   5   2930   2923   2998
  2767   2   2931   2923   3666
  2768   1   2931   2923   2998
  2769   1   3666   2923   2998
  2770   3   2921   2924   2922
  2771   8   2922   2928   2966
  2772   4   2989   2929   2990
  2773   3   2922   2930   2923
  2774   4   2979   2932   2980
  2775   5   2938   2935   2939
  2776   1   2940   2935   2938
  2777   1   3667   2935   2938
  2778   1   2940   2935   2939
  2779   1   3667   2935   2939
  2780   2   2940   2935   3667
  2781   1   2911   2936   2938
  2782   2   2911   2936   2942
  2783   1   2911   2936   2943
  2784   1   2942   2936   2938
  2785   5   2938   2936   2943
  2786   1   2942   2936   2943
  2787   1   2944   2937   2939
  2788   1   2945   2937   2939
  2789   1   2626   2937   2939
  2790   2   2944   2937   2945
  2791   2   2944   2937   2626
  2792   2   2945   2937   2626
  2793   3   2935   2938   2936
  2794   3   2935   2939   2937
  2795   3   2936   2943   2004
  2796   4   2969   2946   2970
  2797   5   2952   2949   2953
  2798   1   2954   2949   2952
  2799   1   3668   2949   2952
  2800   1   2954   2949   2953
  2801   1   3668   2949   2953
  2802   2   2954   2949   3668
  2803   7   2927   2950   2956
  2804   1   2927   2950   2958
  2805   1   2927   2950   2634
  2806   6   2958   2950   2956
  2807   6   2634   2950   2956
  2808   5   2958   2950   2634
  2809   5   2953   2951   2958
  2810   1   2959   2951   2953
  2811   1   2960   2951   2953
  2812   1   2959   2951   2958
  2813   1   2960   2951   2958
  2814   2   2959   2951   2960
  2815   3   2949   2952   2016
  2816   3   2949   2953   2951
  2817   8   2950   2956   2967
  2818   4   2977   2957   2978
  2819   3   2950   2958   2951
  2820   4   2985   2961   2986
  2821   4   2983   2962   2984
  2822   4   2981   2963   2982
  2823   4   2987   2965   2988
  2824   3   2688   2992   1771
  2825   3   2773   2994   1842
  2826   3   2846   2996   1913
  2827   3   2923   2998   1987
  2828   4   3025   2999   3026
  2829   2   3004   3002   3006
  2830   2   3004   3002   3007
  2831   1   3004   3002   3484
  2832   2   3006   3002   3007
  2833   1   3006   3002   3484
  2834   1   3007   3002   3484
  2835   2   3008   3003   3009
  2836   2   3008   3003   3669
  2837   1   3008   3003   3005
  2838   2   3009   3003   3669
  2839   1   3009   3003   3005
  2840   1   3669   3003   3005
  2841   3   3003   3005   3122
  2842   1   3014   3012   3015
  2843   2   3014   3012   3016
  2844   2   3014   3012   3670
  2845   1   3016   3012   3015
  2846   1   3670   3012   3015
  2847   2   3016   3012   3670
  2848   1   3019   3013   3015
  2849   1   3488   3013   3015
  2850   5   3015   3013   3380
  2851   2   3019   3013   3488
  2852   1   3019   3013   3380
  2853   1   3488   3013   3380
  2854   3   3012   3015   3013
  2855   4   3021   3017   3022
  2856   4   3023   3020   3024
  2857   4   3053   3027   3054
  2858   2   3032   3030   3034
  2859   2   3032   3030   3035
  2860   1   3032   3030   3485
  2861   2   3034   3030   3035
  2862   1   3034   3030   3485
  2863   1   3035   3030   3485
  2864   2   3036   3031   3037
  2865   2   3036   3031   3671
  2866   1   3036   3031   3033
  2867   2   3037   3031   3671
  2868   1   3037   3031   3033
  2869   1   3671   3031   3033
  2870   3   3031   3033   3157
  2871   1   3042   3040   3043
  2872   2   3042   3040   3044
  2873   2   3042   3040   3672
  2874   1   3044   3040   3043
  2875   1   3672   3040   3043
  2876   2   3044   3040   3672
  2877   1   3047   3041   3043
  2878   1   3493   3041   3043
  2879   1   3411   3041   3043
  2880   2   3047   3041   3493
  2881   2   3047   3041   3411
  2882   2   3493   3041   3411
  2883   3   3040   3043   3041
  2884   4   3049   3045   3050
  2885   4   3051   3048   3052
  2886   4   3081   3055   3082
  2887   2   3060   3058   3062
  2888   2   3060   3058   3063
  2889   1   3060   3058   3486
  2890   2   3062   3058   3063
  2891   1   3062   3058   3486
  2892   1   3063   3058   3486
  2893   2   3064   3059   3065
  2894   2   3064   3059   3673
  2895   1   3064   3059   3061
  2896   2   3065   3059   3673
  2897   1   3065   3059   3061
  2898   1   3673   3059   3061
  2899   3   3059   3061   3186
  2900   1   3070   3068   3071
  2901   2   3070   3068   3072
  2902   2   3070   3068   3674
  2903   1   3072   3068   3071
  2904   1   3674   3068   3071
  2905   2   3072   3068   3674
  2906   1   3075   3069   3071
  2907   1   3498   3069   3071
  2908   1   3439   3069   3071
  2909   2   3075   3069   3498
  2910   2   3075   3069   3439
  2911   2   3498   3069   3439
  2912   3   3068   3071   3069
  2913   4   3077   3073   3078
  2914   4   3079   3076   3080
  2915   4   3116   3084   3117
  2916   1   3092   3087   3090
  2917   1   3093   3087   3090
  2918   5   3090   3087   3487
  2919   2   3092   3087   3093
  2920   1   3092   3087   3487
  2921   1   3093   3087   3487
  2922   1   3094   3088   3090
  2923   5   3090   3088   3095
  2924   1   3110   3088   3090
  2925   1   3094   3088   3095
  2926   2   3094   3088   3110
  2927   1   3110   3088   3095
  2928   1   3096   3089   3095
  2929   1   3675   3089   3095
  2930   5   3095   3089   3091
  2931   2   3096   3089   3675
  2932   1   3096   3089   3091
  2933   1   3675   3089   3091
  2934   3   3087   3090   3088
  2935   3   3089   3091   3215
  2936   3   3088   3095   3089
  2937   5   3102   3099   3103
  2938   1   3104   3099   3102
  2939   1   3676   3099   3102
  2940   1   3104   3099   3103
  2941   1   3676   3099   3103
  2942   2   3104   3099   3676
  2943   1   3083   3100   3102
  2944   7   3083   3100   3105
  2945   1   3083   3100   3107
  2946   6   3102   3100   3105
  2947   5   3102   3100   3107
  2948   6   3107   3100   3105
  2949   1   3108   3101   3103
  2950   1   3503   3101   3103
  2951   5   3103   3101   3472
  2952   2   3108   3101   3503
  2953   1   3108   3101   3472
  2954   1   3503   3101   3472
  2955   3   3099   3102   3100
  2956   3   3099   3103   3101
  2957   8   3100   3105   3111
  2958   4   3112   3106   3113
  2959   3   3100   3107   3226
  2960   4   3114   3109   3115
  2961   4   3152   3119   3153
  2962   1   3127   3122   3125
  2963   1   3128   3122   3125
  2964   5   3125   3122   3005
  2965   2   3127   3122   3128
  2966   1   3127   3122   3005
  2967   1   3128   3122   3005
  2968   1   3129   3123   3125
  2969   5   3125   3123   3130
  2970   1   3146   3123   3125
  2971   1   3129   3123   3130
  2972   2   3129   3123   3146
  2973   1   3146   3123   3130
  2974   1   3131   3124   3130
  2975   1   3677   3124   3130
  2976   5   3130   3124   3126
  2977   2   3131   3124   3677
  2978   1   3131   3124   3126
  2979   1   3677   3124   3126
  2980   3   3122   3125   3123
  2981   3   3124   3126   3244
  2982   3   3123   3130   3124
  2983   5   3137   3134   3138
  2984   1   3139   3134   3137
  2985   1   3678   3134   3137
  2986   1   3139   3134   3138
  2987   1   3678   3134   3138
  2988   2   3139   3134   3678
  2989   1   3118   3135   3137
  2990   7   3118   3135   3140
  2991   1   3118   3135   3142
  2992   6   3137   3135   3140
  2993   5   3137   3135   3142
  2994   6   3142   3135   3140
  2995   1   3143   3136   3138
  2996   1   3144   3136   3138
  2997   1   3018   3136   3138
  2998   2   3143   3136   3144
  2999   2   3143   3136   3018
  3000   2   3144   3136   3018
  3001   3   3134   3137   3135
  3002   3   3134   3138   3136
  3003   8   3135   3140   3147
  3004   4   3148   3141   3149
  3005   3   3135   3142   3255
  3006   4   3150   3145   3151
  3007   4   3181   3154   3182
  3008   2   3159   3157   3161
  3009   2   3159   3157   3162
  3010   1   3159   3157   3033
  3011   2   3161   3157   3162
  3012   1   3161   3157   3033
  3013   1   3162   3157   3033
  3014   2   3163   3158   3164
  3015   2   3163   3158   3679
  3016   1   3163   3158   3160
  3017   2   3164   3158   3679
  3018   1   3164   3158   3160
  3019   1   3679   3158   3160
  3020   3   3158   3160   3273
  3021   1   3169   3167   3170
  3022   2   3169   3167   3171
  3023   2   3169   3167   3680
  3024   1   3171   3167   3170
  3025   1   3680   3167   3170
  3026   2   3171   3167   3680
  3027   1   3174   3168   3170
  3028   1   3175   3168   3170
  3029   1   3046   3168   3170
  3030   2   3174   3168   3175
  3031   2   3174   3168   3046
  3032   2   3175   3168   3046
  3033   3   3167   3170   3168
  3034   4   3177   3172   3178
  3035   4   3179   3176   3180
  3036   4   3210   3183   3211
  3037   2   3188   3186   3190
  3038   2   3188   3186   3191
  3039   1   3188   3186   3061
  3040   2   3190   3186   3191
  3041   1   3190   3186   3061
  3042   1   3191   3186   3061
  3043   2   3192   3187   3193
  3044   2   3192   3187   3681
  3045   1   3192   3187   3189
  3046   2   3193   3187   3681
  3047   1   3193   3187   3189
  3048   1   3681   3187   3189
  3049   3   3187   3189   3302
  3050   1   3198   3196   3199
  3051   2   3198   3196   3200
  3052   2   3198   3196   3682
  3053   1   3200   3196   3199
  3054   1   3682   3196   3199
  3055   2   3200   3196   3682
  3056   1   3203   3197   3199
  3057   1   3204   3197   3199
  3058   1   3074   3197   3199
  3059   2   3203   3197   3204
  3060   2   3203   3197   3074
  3061   2   3204   3197   3074
  3062   3   3196   3199   3197
  3063   4   3206   3201   3207
  3064   4   3208   3205   3209
  3065   4   3239   3212   3240
  3066   2   3217   3215   3219
  3067   2   3217   3215   3220
  3068   1   3217   3215   3091
  3069   2   3219   3215   3220
  3070   1   3219   3215   3091
  3071   1   3220   3215   3091
  3072   2   3221   3216   3222
  3073   2   3221   3216   3683
  3074   1   3221   3216   3218
  3075   2   3222   3216   3683
  3076   1   3222   3216   3218
  3077   1   3683   3216   3218
  3078   3   3216   3218   3331
  3079   1   3227   3225   3228
  3080   2   3227   3225   3229
  3081   2   3227   3225   3684
  3082   1   3229   3225   3228
  3083   1   3684   3225   3228
  3084   2   3229   3225   3684
  3085   1   3232   3226   3228
  3086   1   3233   3226   3228
  3087   5   3228   3226   3107
  3088   2   3232   3226   3233
  3089   1   3232   3226   3107
  3090   1   3233   3226   3107
  3091   3   3225   3228   3226
  3092   4   3235   3230   3236
  3093   4   3237   3234   3238
  3094   4   3268   3241   3269
  3095   2   3246   3244   3248
  3096   2   3246   3244   3249
  3097   1   3246   3244   3126
  3098   2   3248   3244   3249
  3099   1   3248   3244   3126
  3100   1   3249   3244   3126
  3101   2   3250   3245   3251
  3102   2   3250   3245   3685
  3103   1   3250   3245   3247
  3104   2   3251   3245   3685
  3105   1   3251   3245   3247
  3106   1   3685   3245   3247
  3107   3   3245   3247   3361
  3108   1   3256   3254   3257
  3109   2   3256   3254   3258
  3110   2   3256   3254   3686
  3111   1   3258   3254   3257
  3112   1   3686   3254   3257
  3113   2   3258   3254   3686
  3114   1   3261   3255   3257
  3115   1   3262   3255   3257
  3116   5   3257   3255   3142
  3117   2   3261   3255   3262
  3118   1   3261   3255   3142
  3119   1   3262   3255   3142
  3120   3   3254   3257   3255
  3121   4   3264   3259   3265
  3122   4   3266   3263   3267
  3123   4   3297   3270   3298
  3124   2   3275   3273   3277
  3125   2   3275   3273   3278
  3126   1   3275   3273   3160
  3127   2   3277   3273   3278
  3128   1   3277   3273   3160
  3129   1   3278   3273   3160
  3130   2   3279   3274   3280
  3131   2   3279   3274   3687
  3132   1   3279   3274   3276
  3133   2   3280   3274   3687
  3134   1   3280   3274   3276
  3135   1   3687   3274   3276
  3136   3   3274   3276   3396
  3137   1   3285   3283   3286
  3138   2   3285   3283   3287
  3139   2   3285   3283   3688
  3140   1   3287   3283   3286
  3141   1   3688   3283   3286
  3142   2   3287   3283   3688
  3143   1   3290   3284   3286
  3144   1   3291   3284   3286
  3145   1   3173   3284   3286
  3146   2   3290   3284   3291
  3147   2   3290   3284   3173
  3148   2   3291   3284   3173
  3149   3   3283   3286   3284
  3150   4   3293   3288   3294
  3151   4   3295   3292   3296
  3152   4   3326   3299   3327
  3153   2   3304   3302   3306
  3154   2   3304   3302   3307
  3155   1   3304   3302   3189
  3156   2   3306   3302   3307
  3157   1   3306   3302   3189
  3158   1   3307   3302   3189
  3159   2   3308   3303   3309
  3160   2   3308   3303   3689
  3161   1   3308   3303   3305
  3162   2   3309   3303   3689
  3163   1   3309   3303   3305
  3164   1   3689   3303   3305
  3165   3   3303   3305   3424
  3166   1   3314   3312   3315
  3167   2   3314   3312   3316
  3168   2   3314   3312   3690
  3169   1   3316   3312   3315
  3170   1   3690   3312   3315
  3171   2   3316   3312   3690
  3172   1   3319   3313   3315
  3173   1   3320   3313   3315
  3174   1   3202   3313   3315
  3175   2   3319   3313   3320
  3176   2   3319   3313   3202
  3177   2   3320   3313   3202
  3178   3   3312   3315   3313
  3179   4   3322   3317   3323
  3180   4   3324   3321   3325
  3181   4   3355   3328   3356
  3182   2   3333   3331   3335
  3183   2   3333   3331   3336
  3184   1   3333   3331   3218
  3185   2   3335   3331   3336
  3186   1   3335   3331   3218
  3187   1   3336   3331   3218
  3188   2   3337   3332   3338
  3189   2   3337   3332   3691
  3190   1   3337   3332   3334
  3191   2   3338   3332   3691
  3192   1   3338   3332   3334
  3193   1   3691   3332   3334
  3194   3   3332   3334   3453
  3195   1   3343   3341   3344
  3196   2   3343   3341   3345
  3197   2   3343   3341   3692
  3198   1   3345   3341   3344
  3199   1   3692   3341   3344
  3200   2   3345   3341   3692
  3201   1   3348   3342   3344
  3202   1   3349   3342   3344
  3203   1   3231   3342   3344
  3204   2   3348   3342   3349
  3205   2   3348   3342   3231
  3206   2   3349   3342   3231
  3207   3   3341   3344   3342
  3208   4   3351   3346   3352
  3209   4   3353   3350   3354
  3210   4   3391   3358   3392
  3211   1   3365   3361   3364
  3212   1   3366   3361   3364
  3213   5   3364   3361   3247
  3214   2   3365   3361   3366
  3215   1   3365   3361   3247
  3216   1   3366   3361   3247
  3217   6   3364   3362   3367
  3218   5   3364   3362   3368
  3219   1   3384   3362   3364
  3220   6   3368   3362   3367
  3221   7   3384   3362   3367
  3222   1   3384   3362   3368
  3223   1   3369   3363   3368
  3224   1   3693   3363   3368
  3225   5   3368   3363   3484
  3226   2   3369   3363   3693
  3227   1   3369   3363   3484
  3228   1   3693   3363   3484
  3229   3   3361   3364   3362
  3230   8   3362   3367   3386
  3231   3   3362   3368   3363
  3232   5   3375   3372   3376
  3233   1   3377   3372   3375
  3234   1   3694   3372   3375
  3235   1   3377   3372   3376
  3236   1   3694   3372   3376
  3237   2   3377   3372   3694
  3238   1   3357   3373   3375
  3239   7   3357   3373   3378
  3240   1   3357   3373   3380
  3241   6   3375   3373   3378
  3242   5   3375   3373   3380
  3243   6   3380   3373   3378
  3244   1   3381   3374   3376
  3245   1   3382   3374   3376
  3246   1   3260   3374   3376
  3247   2   3381   3374   3382
  3248   2   3381   3374   3260
  3249   2   3382   3374   3260
  3250   3   3372   3375   3373
  3251   3   3372   3376   3374
  3252   8   3373   3378   3385
  3253   4   3387   3379   3388
  3254   3   3373   3380   3013
  3255   4   3389   3383   3390
  3256   4   3419   3393   3420
  3257   2   3398   3396   3399
  3258   2   3398   3396   3400
  3259   1   3398   3396   3276
  3260   2   3399   3396   3400
  3261   1   3399   3396   3276
  3262   1   3400   3396   3276
  3263   2   3401   3397   3402
  3264   2   3401   3397   3695
  3265   1   3401   3397   3485
  3266   2   3402   3397   3695
  3267   1   3402   3397   3485
  3268   1   3695   3397   3485
  3269   1   3407   3405   3408
  3270   2   3407   3405   3409
  3271   2   3407   3405   3696
  3272   1   3409   3405   3408
  3273   1   3696   3405   3408
  3274   2   3409   3405   3696
  3275   1   3412   3406   3408
  3276   1   3413   3406   3408
  3277   1   3289   3406   3408
  3278   2   3412   3406   3413
  3279   2   3412   3406   3289
  3280   2   3413   3406   3289
  3281   3   3405   3408   3406
  3282   4   3415   3410   3416
  3283   4   3417   3414   3418
  3284   4   3447   3421   3448
  3285   2   3426   3424   3427
  3286   2   3426   3424   3428
  3287   1   3426   3424   3305
  3288   2   3427   3424   3428
  3289   1   3427   3424   3305
  3290   1   3428   3424   3305
  3291   2   3429   3425   3430
  3292   2   3429   3425   3697
  3293   1   3429   3425   3486
  3294   2   3430   3425   3697
  3295   1   3430   3425   3486
  3296   1   3697   3425   3486
  3297   1   3435   3433   3436
  3298   2   3435   3433   3437
  3299   2   3435   3433   3698
  3300   1   3437   3433   3436
  3301   1   3698   3433   3436
  3302   2   3437   3433   3698
  3303   1   3440   3434   3436
  3304   1   3441   3434   3436
  3305   1   3318   3434   3436
  3306   2   3440   3434   3441
  3307   2   3440   3434   3318
  3308   2   3441   3434   3318
  3309   3   3433   3436   3434
  3310   4   3443   3438   3444
  3311   4   3445   3442   3446
  3312   4   3482   3450   3483
  3313   1   3457   3453   3456
  3314   1   3458   3453   3456
  3315   5   3456   3453   3334
  3316   2   3457   3453   3458
  3317   1   3457   3453   3334
  3318   1   3458   3453   3334
  3319   1   3459   3454   3456
  3320   5   3456   3454   3460
  3321   1   3476   3454   3456
  3322   1   3459   3454   3460
  3323   2   3459   3454   3476
  3324   1   3476   3454   3460
  3325   1   3461   3455   3460
  3326   1   3699   3455   3460
  3327   5   3460   3455   3487
  3328   2   3461   3455   3699
  3329   1   3461   3455   3487
  3330   1   3699   3455   3487
  3331   3   3453   3456   3454
  3332   3   3454   3460   3455
  3333   5   3467   3464   3468
  3334   1   3469   3464   3467
  3335   1   3700   3464   3467
  3336   1   3469   3464   3468
  3337   1   3700   3464   3468
  3338   2   3469   3464   3700
  3339   1   3449   3465   3467
  3340   7   3449   3465   3470
  3341   1   3449   3465   3472
  3342   6   3467   3465   3470
  3343   5   3467   3465   3472
  3344   6   3472   3465   3470
  3345   1   3473   3466   3468
  3346   1   3474   3466   3468
  3347   1   3347   3466   3468
  3348   2   3473   3466   3474
  3349   2   3473   3466   3347
  3350   2   3474   3466   3347
  3351   3   3464   3467   3465
  3352   3   3464   3468   3466
  3353   8   3465   3470   3477
  3354   4   3478   3471   3479
  3355   3   3465   3472   3101
  3356   4   3480   3475   3481
  3357   3   3363   3484   3002
  3358   3   3397   3485   3030
  3359   3   3425   3486   3058
  3360   3   3455   3487   3087
  3361   4   3491   3490   3492
  3362   4   3496   3495   3497
  3363   4   3501   3500   3502
  3364   4   3507   3505   3508



