!BIOSYM archive 3
PBC=ON
Materials Studio Generated CAR File
!DATE Wed Apr  2 11:50:07 2025
PBC   13.4700   14.7700   22.4870   90.0000   90.0000  123.2500 (P1)
Si1      3.542023420    2.385160923    3.539004087 XXX  1      sc2     Si  1.000
Si2      3.542023420    2.385160923   -3.539004087 XXX  1      sc2     Si  1.000
Si3      3.070683002    4.651125431    1.600174904 XXX  1      sc3     Si  1.000
Si4      3.070683002    4.651125431   -1.600174904 XXX  1      sc3     Si  1.000
Si5      1.186755657    5.988841057    3.546874523 XXX  1      sc2     Si  1.000
Si6      1.186755657    5.988841057   -3.546874523 XXX  1      sc2     Si  1.000
O1       3.144222260    3.124424934    2.118275404 XXX  1      oc12    O  -0.580
O2       3.144222260    3.124424934   -2.118275404 XXX  1      oc12    O  -0.580
O3       4.391117096    1.099323273    2.984025002 XXX  1      oc12    O  -0.580
O4       4.391117096    1.099323273   -2.984025002 XXX  1      oc12    O  -0.580
O5       4.459988594    3.315880060    4.456923485 XXX  1      oc13    O  -0.930
O6       4.459988594    3.315880060   -4.456923485 XXX  1      oc13    O  -0.930
O7       2.255211830    1.891700625    4.366975307 XXX  1      oc13    O  -0.930
O8       2.255211830    1.891700625   -4.366975307 XXX  1      oc13    O  -0.930
O9       3.000427485    4.607275963    0.000000000 XXX  1      ocx     O  -0.500
O10      0.061120853    2.680372477    2.111529350 XXX  1      o*      O  -0.820
O11      1.703684926    5.311336994    2.138513803 XXX  1      oc12    O  -0.580
O12      1.703684926    5.311336994   -2.138513803 XXX  1      oc12    O  -0.580
O13      0.238547996    5.008714199    4.387213707 XXX  1      oc13    O  -0.930
O14      0.238547996    5.008714199   -4.387213707 XXX  1      oc13    O  -0.930
O15      2.412449360    6.459450245    4.463669300 XXX  1      oc13    O  -0.930
O16      2.412449360    6.459450245   -4.463669300 XXX  1      oc13    O  -0.930
Ca1      0.032978326    2.672961235    4.622652531 XXX  1      ca+t    Ca  1.500
Ca2      1.314025044    5.699188232    6.599484921 XXX  1      ca+t    Ca  1.500
O17      1.989082098    1.352538109    0.000000000 XXX  1      o*      O  -0.820
O18      4.960417747    1.463705659    0.000000000 XXX  1      o*      O  -0.820
H1       1.368269810    1.199847858    0.744801153 XXX  1      h*      H   0.410
H2       2.498266706    2.100215540    0.385659309 XXX  1      h*      H   0.410
H3       4.258629316    1.416658415   -0.686388152 XXX  1      h*      H   0.410
H4       4.517919635    1.015714339    0.753295351 XXX  1      h*      H   0.410
H7      -0.630454533    2.312291639    1.512613695 XXX  1      h*      H   0.410
H8       0.240148851    3.535318289    1.657337928 XXX  1      h*      H   0.410
Si1     10.277023420    2.385160923    3.539004087 XXX  2      sc2     Si  1.000
Si2     10.277023420    2.385160923   -3.539004087 XXX  2      sc2     Si  1.000
Si3      9.805683002    4.651125431    1.600174904 XXX  2      sc3     Si  1.000
Si4      9.805683002    4.651125431   -1.600174904 XXX  2      sc3     Si  1.000
Si5      7.921755657    5.988841057    3.546874523 XXX  2      sc2     Si  1.000
Si6      7.921755657    5.988841057   -3.546874523 XXX  2      sc2     Si  1.000
O1       9.879222260    3.124424934    2.118275404 XXX  2      oc12    O  -0.580
O2       9.879222260    3.124424934   -2.118275404 XXX  2      oc12    O  -0.580
O3      11.126117096    1.099323273    2.984025002 XXX  2      oc12    O  -0.580
O4      11.126117096    1.099323273   -2.984025002 XXX  2      oc12    O  -0.580
O5      11.194988594    3.315880060    4.456923485 XXX  2      oc13    O  -0.930
O6      11.194988594    3.315880060   -4.456923485 XXX  2      oc13    O  -0.930
O7       8.990211830    1.891700625    4.366975307 XXX  2      oc13    O  -0.930
O8       8.990211830    1.891700625   -4.366975307 XXX  2      oc13    O  -0.930
O9       9.735427485    4.607275963    0.000000000 XXX  2      ocx     O  -0.500
O10      6.796120853    2.680372477    2.111529350 XXX  2      o*      O  -0.820
O11      8.438684926    5.311336994    2.138513803 XXX  2      oc12    O  -0.580
O12      8.438684926    5.311336994   -2.138513803 XXX  2      oc12    O  -0.580
O13      6.973547996    5.008714199    4.387213707 XXX  2      oc13    O  -0.930
O14      6.973547996    5.008714199   -4.387213707 XXX  2      oc13    O  -0.930
O15      9.147449360    6.459450245    4.463669300 XXX  2      oc13    O  -0.930
O16      9.147449360    6.459450245   -4.463669300 XXX  2      oc13    O  -0.930
Ca1      6.767978326    2.672961235    4.622652531 XXX  2      ca+t    Ca  1.500
Ca2      8.049025044    5.699188232    6.599484921 XXX  2      ca+t    Ca  1.500
O17      8.724082098    1.352538109    0.000000000 XXX  2      o*      O  -0.820
O18     11.695417747    1.463705659    0.000000000 XXX  2      o*      O  -0.820
H1       8.103269810    1.199847858    0.744801153 XXX  2      h*      H   0.410
H2       9.233266706    2.100215540    0.385659309 XXX  2      h*      H   0.410
H3      10.993629316    1.416658415   -0.686388152 XXX  2      h*      H   0.410
H4      11.252919635    1.015714339    0.753295351 XXX  2      h*      H   0.410
H7       6.104545467    2.312291639    1.512613695 XXX  2      h*      H   0.410
H8       6.975148851    3.535318289    1.657337928 XXX  2      h*      H   0.410
Si1     -0.507122080    8.561134184    3.539004087 XXX  3      sc2     Si  1.000
Si2     -0.507122080    8.561134184   -3.539004087 XXX  3      sc2     Si  1.000
Si3     -0.978462498   10.827098692    1.600174904 XXX  3      sc3     Si  1.000
Si4     -0.978462498   10.827098692   -1.600174904 XXX  3      sc3     Si  1.000
Si5     -2.862389843   12.164814318    3.546874523 XXX  3      sc2     Si  1.000
Si6     -2.862389843   12.164814318   -3.546874523 XXX  3      sc2     Si  1.000
O1      -0.904923240    9.300398195    2.118275404 XXX  3      oc12    O  -0.580
O2      -0.904923240    9.300398195   -2.118275404 XXX  3      oc12    O  -0.580
O3       0.341971596    7.275296534    2.984025002 XXX  3      oc12    O  -0.580
O4       0.341971596    7.275296534   -2.984025002 XXX  3      oc12    O  -0.580
O5       0.410843094    9.491853321    4.456923485 XXX  3      oc13    O  -0.930
O6       0.410843094    9.491853321   -4.456923485 XXX  3      oc13    O  -0.930
O7      -1.793933670    8.067673886    4.366975307 XXX  3      oc13    O  -0.930
O8      -1.793933670    8.067673886   -4.366975307 XXX  3      oc13    O  -0.930
O9      -1.048718015   10.783249224    0.000000000 XXX  3      ocx     O  -0.500
O10     -3.988024647    8.856345738    2.111529350 XXX  3      o*      O  -0.820
O11     -2.345460574   11.487310255    2.138513803 XXX  3      oc12    O  -0.580
O12     -2.345460574   11.487310255   -2.138513803 XXX  3      oc12    O  -0.580
O13     -3.810597504   11.184687460    4.387213707 XXX  3      oc13    O  -0.930
O14     -3.810597504   11.184687460   -4.387213707 XXX  3      oc13    O  -0.930
Ca1     -4.016167174    8.848934496    4.622652531 XXX  3      ca+t    Ca  1.500
Ca2     -2.735120456   11.875161493    6.599484921 XXX  3      ca+t    Ca  1.500
O17     -2.060063402    7.528511370    0.000000000 XXX  3      o*      O  -0.820
O18      0.911272247    7.639678920    0.000000000 XXX  3      o*      O  -0.820
H1      -2.680875690    7.375821119    0.744801153 XXX  3      h*      H   0.410
H2      -1.550878794    8.276188801    0.385659309 XXX  3      h*      H   0.410
H3       0.209483816    7.592631676   -0.686388152 XXX  3      h*      H   0.410
H4       0.468774135    7.191687600    0.753295351 XXX  3      h*      H   0.410
H7      -4.679600033    8.488264900    1.512613695 XXX  3      h*      H   0.410
H8      -3.808996649    9.711291550    1.657337928 XXX  3      h*      H   0.410
Si1      6.227877920    8.561134184    3.539004087 XXX  4      sc2     Si  1.000
Si2      6.227877920    8.561134184   -3.539004087 XXX  4      sc2     Si  1.000
Si3      5.756537502   10.827098692    1.600174904 XXX  4      sc3     Si  1.000
Si4      5.756537502   10.827098692   -1.600174904 XXX  4      sc3     Si  1.000
Si5      3.872610157   12.164814318    3.546874523 XXX  4      sc2     Si  1.000
Si6      3.872610157   12.164814318   -3.546874523 XXX  4      sc2     Si  1.000
O1       5.830076760    9.300398195    2.118275404 XXX  4      oc12    O  -0.580
O2       5.830076760    9.300398195   -2.118275404 XXX  4      oc12    O  -0.580
O3       7.076971596    7.275296534    2.984025002 XXX  4      oc12    O  -0.580
O4       7.076971596    7.275296534   -2.984025002 XXX  4      oc12    O  -0.580
O5       7.145843094    9.491853321    4.456923485 XXX  4      oc13    O  -0.930
O6       7.145843094    9.491853321   -4.456923485 XXX  4      oc13    O  -0.930
O7       4.941066330    8.067673886    4.366975307 XXX  4      oc13    O  -0.930
O8       4.941066330    8.067673886   -4.366975307 XXX  4      oc13    O  -0.930
O9       5.686281985   10.783249224    0.000000000 XXX  4      ocx     O  -0.500
O10      2.746975353    8.856345738    2.111529350 XXX  4      o*      O  -0.820
O11      4.389539426   11.487310255    2.138513803 XXX  4      oc12    O  -0.580
O12      4.389539426   11.487310255   -2.138513803 XXX  4      oc12    O  -0.580
O13      2.924402496   11.184687460    4.387213707 XXX  4      oc13    O  -0.930
O14      2.924402496   11.184687460   -4.387213707 XXX  4      oc13    O  -0.930
Ca1      2.718832826    8.848934496    4.622652531 XXX  4      ca+t    Ca  1.500
Ca2      3.999879544   11.875161493    6.599484921 XXX  4      ca+t    Ca  1.500
O17      4.674936598    7.528511370    0.000000000 XXX  4      o*      O  -0.820
O18      7.646272247    7.639678920    0.000000000 XXX  4      o*      O  -0.820
H1       4.054124310    7.375821119    0.744801153 XXX  4      h*      H   0.410
H2       5.184121206    8.276188801    0.385659309 XXX  4      h*      H   0.410
H3       6.944483816    7.592631676   -0.686388152 XXX  4      h*      H   0.410
H4       7.203774135    7.191687600    0.753295351 XXX  4      h*      H   0.410
H7       2.055399967    8.488264900    1.512613695 XXX  4      h*      H   0.410
H8       2.926003351    9.711291550    1.657337928 XXX  4      h*      H   0.410
O15      6.461594860    0.283476984    4.463669300 XXX  5      oc13    O  -0.930
O16      6.461594860    0.283476984   -4.463669300 XXX  5      oc13    O  -0.930
O15     13.196594860    0.283476984    4.463669300 XXX  6      oc13    O  -0.930
O16     13.196594860    0.283476984   -4.463669300 XXX  6      oc13    O  -0.930
O19     -0.397146404    4.940778732   22.487000000 XXX  7      o*      O  -0.820
H5      -0.609713782    4.412493928   21.686107938 XXX  7      h*      H   0.410
H6       0.472627697    5.299041938   22.200487597 XXX  7      h*      H   0.410
O19      6.337853596    4.940778732   22.487000000 XXX  8      o*      O  -0.820
H5       6.125286218    4.412493928   21.686107938 XXX  8      h*      H   0.410
H6       7.207627697    5.299041938   22.200487597 XXX  8      h*      H   0.410
O19     -4.446291904   11.116751993   22.487000000 XXX  9      o*      O  -0.820
H5      -4.658859282   10.588467189   21.686107938 XXX  9      h*      H   0.410
H6      -3.576517803   11.475015199   22.200487597 XXX  9      h*      H   0.410
O19      2.288708096   11.116751993   22.487000000 XXX  10     o*      O  -0.820
H5       2.076140718   10.588467189   21.686107938 XXX  10     h*      H   0.410
H6       3.158482197   11.475015199   22.200487597 XXX  10     h*      H   0.410
Si1      0.174523413    2.385160923   14.782504082 XXX  11     sc2     Si  1.000
Si2      0.174523413    2.385160923    7.704495907 XXX  11     sc2     Si  1.000
Si3     -0.296817005    4.651125431   12.843674660 XXX  11     sc3     Si  1.000
Si4     -0.296817005    4.651125431    9.643324852 XXX  11     sc3     Si  1.000
Si5     -2.180744410    5.988841057   14.790374756 XXX  11     sc2     Si  1.000
Si6     -2.180744410    5.988841057    7.696625710 XXX  11     sc2     Si  1.000
O1      -0.223277733    3.124424934   13.361775398 XXX  11     oc12    O  -0.580
O2      -0.223277733    3.124424934    9.125225067 XXX  11     oc12    O  -0.580
O3       1.023617148    1.099323273   14.227524757 XXX  11     oc12    O  -0.580
O4       1.023617148    1.099323273    8.259474754 XXX  11     oc12    O  -0.580
O5       1.092488647    3.315880060   15.700423241 XXX  11     oc13    O  -0.930
O6       1.092488647    3.315880060    6.786576748 XXX  11     oc13    O  -0.930
O7      -1.112288117    1.891700625   15.610475540 XXX  11     oc13    O  -0.930
O8      -1.112288117    1.891700625    6.876524925 XXX  11     oc13    O  -0.930
O9      -0.367072523    4.607275963   11.243499756 XXX  11     ocx     O  -0.500
O10     -1.663815022    5.311336994   13.382014275 XXX  11     oc12    O  -0.580
O11     -1.663815022    5.311336994    9.104986191 XXX  11     oc12    O  -0.580
O12     -3.128952026    5.008714199   15.630713463 XXX  11     oc13    O  -0.930
O13     -3.128952026    5.008714199    6.856286526 XXX  11     oc13    O  -0.930
O14     -0.955050647    6.459450245   15.707169533 XXX  11     oc13    O  -0.930
O15     -0.955050647    6.459450245    6.779830933 XXX  11     oc13    O  -0.930
Ca2     -2.053474903    5.699188232    4.644015312 XXX  11     ca+t    Ca  1.500
O16      1.592917800    1.463705659   11.243499756 XXX  11     o*      O  -0.820
H1       1.150422284    1.015709886   11.996794996 XXX  11     h*      H   0.410
H2       0.891123907    1.416671285   10.557116527 XXX  11     h*      H   0.410
Si1      6.909523413    2.385160923   14.782504082 XXX  12     sc2     Si  1.000
Si2      6.909523413    2.385160923    7.704495907 XXX  12     sc2     Si  1.000
Si3      6.438182995    4.651125431   12.843674660 XXX  12     sc3     Si  1.000
Si4      6.438182995    4.651125431    9.643324852 XXX  12     sc3     Si  1.000
Si5      4.554255590    5.988841057   14.790374756 XXX  12     sc2     Si  1.000
Si6      4.554255590    5.988841057    7.696625710 XXX  12     sc2     Si  1.000
O1       6.511722267    3.124424934   13.361775398 XXX  12     oc12    O  -0.580
O2       6.511722267    3.124424934    9.125225067 XXX  12     oc12    O  -0.580
O3       7.758617148    1.099323273   14.227524757 XXX  12     oc12    O  -0.580
O4       7.758617148    1.099323273    8.259474754 XXX  12     oc12    O  -0.580
O5       7.827488647    3.315880060   15.700423241 XXX  12     oc13    O  -0.930
O6       7.827488647    3.315880060    6.786576748 XXX  12     oc13    O  -0.930
O7       5.622711883    1.891700625   15.610475540 XXX  12     oc13    O  -0.930
O8       5.622711883    1.891700625    6.876524925 XXX  12     oc13    O  -0.930
O9       6.367927477    4.607275963   11.243499756 XXX  12     ocx     O  -0.500
O10      5.071184978    5.311336994   13.382014275 XXX  12     oc12    O  -0.580
O11      5.071184978    5.311336994    9.104986191 XXX  12     oc12    O  -0.580
O12      3.606047974    5.008714199   15.630713463 XXX  12     oc13    O  -0.930
O13      3.606047974    5.008714199    6.856286526 XXX  12     oc13    O  -0.930
O14      5.779949353    6.459450245   15.707169533 XXX  12     oc13    O  -0.930
O15      5.779949353    6.459450245    6.779830933 XXX  12     oc13    O  -0.930
Ca2      4.681525097    5.699188232    4.644015312 XXX  12     ca+t    Ca  1.500
O16      8.327917800    1.463705659   11.243499756 XXX  12     o*      O  -0.820
H1       7.885422284    1.015709886   11.996794996 XXX  12     h*      H   0.410
H2       7.626123907    1.416671285   10.557116527 XXX  12     h*      H   0.410
Si1     -3.874622087    8.561134184   14.782504082 XXX  13     sc2     Si  1.000
Si2     -3.874622087    8.561134184    7.704495907 XXX  13     sc2     Si  1.000
Si3     -4.345962505   10.827098692   12.843674660 XXX  13     sc3     Si  1.000
Si4     -4.345962505   10.827098692    9.643324852 XXX  13     sc3     Si  1.000
Si5     -6.229889910   12.164814318   14.790374756 XXX  13     sc2     Si  1.000
Si6     -6.229889910   12.164814318    7.696625710 XXX  13     sc2     Si  1.000
O1      -4.272423233    9.300398195   13.361775398 XXX  13     oc12    O  -0.580
O2      -4.272423233    9.300398195    9.125225067 XXX  13     oc12    O  -0.580
O3      -3.025528352    7.275296534   14.227524757 XXX  13     oc12    O  -0.580
O4      -3.025528352    7.275296534    8.259474754 XXX  13     oc12    O  -0.580
O5      -2.956656853    9.491853321   15.700423241 XXX  13     oc13    O  -0.930
O6      -2.956656853    9.491853321    6.786576748 XXX  13     oc13    O  -0.930
O7      -5.161433617    8.067673886   15.610475540 XXX  13     oc13    O  -0.930
O8      -5.161433617    8.067673886    6.876524925 XXX  13     oc13    O  -0.930
O9      -4.416218023   10.783249224   11.243499756 XXX  13     ocx     O  -0.500
O10     -5.712960522   11.487310255   13.382014275 XXX  13     oc12    O  -0.580
O11     -5.712960522   11.487310255    9.104986191 XXX  13     oc12    O  -0.580
O12     -7.178097526   11.184687460   15.630713463 XXX  13     oc13    O  -0.930
O13     -7.178097526   11.184687460    6.856286526 XXX  13     oc13    O  -0.930
Ca2     -6.102620403   11.875161493    4.644015312 XXX  13     ca+t    Ca  1.500
O16     -2.456227700    7.639678920   11.243499756 XXX  13     o*      O  -0.820
H1      -2.898723216    7.191683147   11.996794996 XXX  13     h*      H   0.410
H2      -3.158021593    7.592644546   10.557116527 XXX  13     h*      H   0.410
Si1      2.860377913    8.561134184   14.782504082 XXX  14     sc2     Si  1.000
Si2      2.860377913    8.561134184    7.704495907 XXX  14     sc2     Si  1.000
Si3      2.389037495   10.827098692   12.843674660 XXX  14     sc3     Si  1.000
Si4      2.389037495   10.827098692    9.643324852 XXX  14     sc3     Si  1.000
Si5      0.505110090   12.164814318   14.790374756 XXX  14     sc2     Si  1.000
Si6      0.505110090   12.164814318    7.696625710 XXX  14     sc2     Si  1.000
O1       2.462576767    9.300398195   13.361775398 XXX  14     oc12    O  -0.580
O2       2.462576767    9.300398195    9.125225067 XXX  14     oc12    O  -0.580
O3       3.709471648    7.275296534   14.227524757 XXX  14     oc12    O  -0.580
O4       3.709471648    7.275296534    8.259474754 XXX  14     oc12    O  -0.580
O5       3.778343147    9.491853321   15.700423241 XXX  14     oc13    O  -0.930
O6       3.778343147    9.491853321    6.786576748 XXX  14     oc13    O  -0.930
O7       1.573566383    8.067673886   15.610475540 XXX  14     oc13    O  -0.930
O8       1.573566383    8.067673886    6.876524925 XXX  14     oc13    O  -0.930
O9       2.318781977   10.783249224   11.243499756 XXX  14     ocx     O  -0.500
O10      1.022039478   11.487310255   13.382014275 XXX  14     oc12    O  -0.580
O11      1.022039478   11.487310255    9.104986191 XXX  14     oc12    O  -0.580
O12     -0.443097526   11.184687460   15.630713463 XXX  14     oc13    O  -0.930
O13     -0.443097526   11.184687460    6.856286526 XXX  14     oc13    O  -0.930
Ca2      0.632379597   11.875161493    4.644015312 XXX  14     ca+t    Ca  1.500
O16      4.278772300    7.639678920   11.243499756 XXX  14     o*      O  -0.820
H1       3.836276784    7.191683147   11.996794996 XXX  14     h*      H   0.410
H2       3.576978407    7.592644546   10.557116527 XXX  14     h*      H   0.410
O14      3.094094853    0.283476984   15.707169533 XXX  15     oc13    O  -0.930
O15      3.094094853    0.283476984    6.779830933 XXX  15     oc13    O  -0.930
O14      9.829094853    0.283476984   15.707169533 XXX  16     oc13    O  -0.930
O15      9.829094853    0.283476984    6.779830933 XXX  16     oc13    O  -0.930
Ca1     -2.053474903    5.699188232   17.842984688 XXX  17     ca+t    Ca  1.500
Ca1      4.681525097    5.699188232   17.842984688 XXX  18     ca+t    Ca  1.500
Ca1     -6.102620403   11.875161493   17.842984688 XXX  19     ca+t    Ca  1.500
Ca1      0.632379597   11.875161493   17.842984688 XXX  20     ca+t    Ca  1.500
O1       4.385293007    5.515144348    2.113778114 XXX  21     oc14    O  -0.710
O2       4.385293007    5.515144348   -2.113778114 XXX  21     oc14    O  -0.710
O1      11.120293007    5.515144348    2.113778114 XXX  22     oc14    O  -0.710
O2      11.120293007    5.515144348   -2.113778114 XXX  22     oc14    O  -0.710
O1       0.336147507   11.691117609    2.113778114 XXX  23     oc14    O  -0.710
O2       0.336147507   11.691117609   -2.113778114 XXX  23     oc14    O  -0.710
O1       7.071147507   11.691117609    2.113778114 XXX  24     oc14    O  -0.710
O2       7.071147507   11.691117609   -2.113778114 XXX  24     oc14    O  -0.710
O1       1.017793059    5.515144348   13.357277870 XXX  25     oc14    O  -0.710
O2       1.017793059    5.515144348    9.129721642 XXX  25     oc14    O  -0.710
O3       3.428620815    2.680372477   13.355029106 XXX  25     o*      O  -0.820
O4       3.428620815    2.680372477    9.131970406 XXX  25     o*      O  -0.820
Ca1      3.400478363    2.672961235   15.866152763 XXX  25     ca+t    Ca  1.500
Ca2      3.400478363    2.672961235    6.620847702 XXX  25     ca+t    Ca  1.500
O5       5.356582165    1.352538109   11.243499756 XXX  25     o*      O  -0.820
O6       2.970353603    4.940778732   11.243499756 XXX  25     o*      O  -0.820
H1       5.865760518    2.100209946   11.629180212 XXX  25     h*      H   0.410
H2       4.735759712    1.199834268   11.988289546 XXX  25     h*      H   0.410
H3       2.757783819    4.412492244   10.442609809 XXX  25     h*      H   0.410
H4       3.840123988    5.299044923   10.956980714 XXX  25     h*      H   0.410
H5       2.737044773    2.312292917   12.756113500 XXX  25     h*      H   0.410
H6       2.823973673    2.152509766    9.706188690 XXX  25     h*      H   0.410
H7       3.607651348    3.535317478   12.900837023 XXX  25     h*      H   0.410
H8       4.291139122    2.485935090    9.564956998 XXX  25     h*      H   0.410
O1       7.752793059    5.515144348   13.357277870 XXX  26     oc14    O  -0.710
O2       7.752793059    5.515144348    9.129721642 XXX  26     oc14    O  -0.710
O3      10.163620815    2.680372477   13.355029106 XXX  26     o*      O  -0.820
O4      10.163620815    2.680372477    9.131970406 XXX  26     o*      O  -0.820
Ca1     10.135478363    2.672961235   15.866152763 XXX  26     ca+t    Ca  1.500
Ca2     10.135478363    2.672961235    6.620847702 XXX  26     ca+t    Ca  1.500
O5      12.091582165    1.352538109   11.243499756 XXX  26     o*      O  -0.820
O6       9.705353603    4.940778732   11.243499756 XXX  26     o*      O  -0.820
H1      12.600760518    2.100209946   11.629180212 XXX  26     h*      H   0.410
H2      11.470759712    1.199834268   11.988289546 XXX  26     h*      H   0.410
H3       9.492783819    4.412492244   10.442609809 XXX  26     h*      H   0.410
H4      10.575123988    5.299044923   10.956980714 XXX  26     h*      H   0.410
H5       9.472044773    2.312292917   12.756113500 XXX  26     h*      H   0.410
H6       9.558973673    2.152509766    9.706188690 XXX  26     h*      H   0.410
H7      10.342651348    3.535317478   12.900837023 XXX  26     h*      H   0.410
H8      11.026139122    2.485935090    9.564956998 XXX  26     h*      H   0.410
O1      -3.031352441   11.691117609   13.357277870 XXX  27     oc14    O  -0.710
O2      -3.031352441   11.691117609    9.129721642 XXX  27     oc14    O  -0.710
O3      -0.620524685    8.856345738   13.355029106 XXX  27     o*      O  -0.820
O4      -0.620524685    8.856345738    9.131970406 XXX  27     o*      O  -0.820
Ca1     -0.648667137    8.848934496   15.866152763 XXX  27     ca+t    Ca  1.500
Ca2     -0.648667137    8.848934496    6.620847702 XXX  27     ca+t    Ca  1.500
O5       1.307436665    7.528511370   11.243499756 XXX  27     o*      O  -0.820
O6      -1.078791897   11.116751993   11.243499756 XXX  27     o*      O  -0.820
H1       1.816615018    8.276183207   11.629180212 XXX  27     h*      H   0.410
H2       0.686614212    7.375807529   11.988289546 XXX  27     h*      H   0.410
H3      -1.291361681   10.588465505   10.442609809 XXX  27     h*      H   0.410
H4      -0.209021512   11.475018184   10.956980714 XXX  27     h*      H   0.410
H5      -1.312100727    8.488266178   12.756113500 XXX  27     h*      H   0.410
H6      -1.225171827    8.328483027    9.706188690 XXX  27     h*      H   0.410
H7      -0.441494152    9.711290739   12.900837023 XXX  27     h*      H   0.410
H8       0.241993622    8.661908351    9.564956998 XXX  27     h*      H   0.410
O1       3.703647559   11.691117609   13.357277870 XXX  28     oc14    O  -0.710
O2       3.703647559   11.691117609    9.129721642 XXX  28     oc14    O  -0.710
O3       6.114475315    8.856345738   13.355029106 XXX  28     o*      O  -0.820
O4       6.114475315    8.856345738    9.131970406 XXX  28     o*      O  -0.820
Ca1      6.086332863    8.848934496   15.866152763 XXX  28     ca+t    Ca  1.500
Ca2      6.086332863    8.848934496    6.620847702 XXX  28     ca+t    Ca  1.500
O5       8.042436665    7.528511370   11.243499756 XXX  28     o*      O  -0.820
O6       5.656208103   11.116751993   11.243499756 XXX  28     o*      O  -0.820
H1       8.551615018    8.276183207   11.629180212 XXX  28     h*      H   0.410
H2       7.421614212    7.375807529   11.988289546 XXX  28     h*      H   0.410
H3       5.443638319   10.588465505   10.442609809 XXX  28     h*      H   0.410
H4       6.525978488   11.475018184   10.956980714 XXX  28     h*      H   0.410
H5       5.422899273    8.488266178   12.756113500 XXX  28     h*      H   0.410
H6       5.509828173    8.328483027    9.706188690 XXX  28     h*      H   0.410
H7       6.293505848    9.711290739   12.900837023 XXX  28     h*      H   0.410
H8       6.976993622    8.661908351    9.564956998 XXX  28     h*      H   0.410
O7       0.061120853    2.680372477   20.375470650 XXX  29     o*      O  -0.820
CA1      0.032978326    2.672961235   17.864347469 XXX  29     ca+t    Ca  1.500
H7       0.923638996    2.485933679   20.808456929 XXX  29     h*      H   0.410
H8      -0.543526684    2.152511540   20.949690226 XXX  29     h*      H   0.410
O7       6.796120853    2.680372477   20.375470650 XXX  30     o*      O  -0.820
CA1      6.767978326    2.672961235   17.864347469 XXX  30     ca+t    Ca  1.500
H7       7.658638996    2.485933679   20.808456929 XXX  30     h*      H   0.410
H8       6.191473316    2.152511540   20.949690226 XXX  30     h*      H   0.410
O7      -3.988024647    8.856345738   20.375470650 XXX  31     o*      O  -0.820
CA1     -4.016167174    8.848934496   17.864347469 XXX  31     ca+t    Ca  1.500
H7      -3.125506504    8.661906940   20.808456929 XXX  31     h*      H   0.410
H8      -4.592672184    8.328484801   20.949690226 XXX  31     h*      H   0.410
O7       2.746975353    8.856345738   20.375470650 XXX  32     o*      O  -0.820
CA1      2.718832826    8.848934496   17.864347469 XXX  32     ca+t    Ca  1.500
H7       3.609493496    8.661906940   20.808456929 XXX  32     h*      H   0.410
H8       2.142327816    8.328484801   20.949690226 XXX  32     h*      H   0.410
CA2      1.314025044    5.699188232   15.887515068 XXX  33     ca+t    Ca  1.500
CA2      8.049025044    5.699188232   15.887515068 XXX  34     ca+t    Ca  1.500
CA2     -2.735120456   11.875161493   15.887515068 XXX  35     ca+t    Ca  1.500
CA2      3.999879544   11.875161493   15.887515068 XXX  36     ca+t    Ca  1.500
H1       5.124993649    5.538105765    1.510513884 XXX  37     hoy     H   0.420
H1      11.859993649    5.538105765    1.510513884 XXX  38     hoy     H   0.420
H1       1.075848149   11.714079026    1.510513884 XXX  39     hoy     H   0.420
H1       7.810848149   11.714079026    1.510513884 XXX  40     hoy     H   0.420
H1       1.757495097    5.538103289   12.754015240 XXX  41     hoy     H   0.420
H1       8.492495097    5.538103289   12.754015240 XXX  42     hoy     H   0.420
H1      -2.291650403   11.714076550   12.754015240 XXX  43     hoy     H   0.420
H1       4.443349597   11.714076550   12.754015240 XXX  44     hoy     H   0.420
H1       4.739242509    6.146774924   -1.492438584 XXX  45     hoy     H   0.420
H1      11.474242509    6.146774924   -1.492438584 XXX  46     hoy     H   0.420
H1       0.690097009   12.322748185   -1.492438584 XXX  47     hoy     H   0.420
H1       7.425097009   12.322748185   -1.492438584 XXX  48     hoy     H   0.420
H1       1.371743197    6.146775049    9.751060494 XXX  49     hoy     H   0.420
H1       8.106743197    6.146775049    9.751060494 XXX  50     hoy     H   0.420
H1      -2.677402303   12.322748310    9.751060494 XXX  51     hoy     H   0.420
H1       4.057597697   12.322748310    9.751060494 XXX  52     hoy     H   0.420
end
end
