LAMMPS data file. msi2lmp v3.9.6 / 11 Sep 2014 / CGCMM for Tob14_001_water_cV07_r00

   4896 atoms
   3520 bonds
   3248 angles
   2016 dihedrals
      0 impropers

  11 atom types
   7 bond types
  11 angle types
   9 dihedral types

     0.448854227    22.978454227 xlo xhi
    -0.538485708    21.736514292 ylo yhi
    -1.206599236   102.383400764 zlo zhi

Masses

   1  15.999400 # o*
   2   1.007970 # h*
   3  15.999400 # oc22
   4  40.080000 # ca+t
   5  28.086000 # sc2
   6  28.086000 # sc3
   7  15.999400 # oc12
   8  15.999400 # oc13
   9  15.999400 # oc14
  10   1.008000 # hoy
  11  40.080000 # casl

Pair Coeffs # lj/cut/coul/long

   1   0.1554164124   3.1655200879 # o*
   2   0.0000000000   0.0000000000 # h*
   3   0.1900000014   3.3854151269 # oc22
   4   0.2899999992   3.0290556424 # ca+t
   5   0.5099999995   4.0535891679 # sc2
   6   0.5099999995   4.0535891679 # sc3
   7   0.1599999980   3.0290556449 # oc12
   8   0.1400000021   2.7796039973 # oc13
   9   0.1199999991   3.0914185538 # oc14
  10   0.0159969724   0.9666649776 # hoy
  11   0.2900000032   2.8954208313 # casl

Bond Coeffs # harmonic

   1   540.6336     0.9600 # o*-h*
   2   430.0000     1.5900 # oc22-sc3
   3   300.0000     1.7100 # sc2-oc12
   4   300.0000     1.6200 # sc2-oc13
   5   300.0000     1.6700 # sc3-oc12
   6   430.0000     1.6800 # sc3-oc14
   7   495.0000     0.9450 # oc14-hoy

Angle Coeffs # harmonic

   1    50.0000   104.5000 # h*-o*-h*
   2   170.0000   111.5000 # oc12-sc2-oc13
   3   170.0000   100.2000 # oc12-sc2-oc12
   4   170.0000   112.5000 # oc13-sc2-oc13
   5   170.0000   107.0000 # oc22-sc3-oc12
   6   170.0000   111.0000 # oc22-sc3-oc14
   7   170.0000   111.0000 # oc12-sc3-oc14
   8   170.0000   107.0000 # oc12-sc3-oc12
   9   170.0000   139.0000 # sc2-oc12-sc3
  10   170.0000   144.0000 # sc2-oc12-sc2
  11    50.0000   115.0000 # sc3-oc14-hoy

Dihedral Coeffs # harmonic

  1     0.0000   1   3 # oc13-sc2-oc12-sc2
  2     0.0000   1   3 # oc12-sc2-oc12-sc2
  3     0.0000   1   3 # oc12-sc2-oc12-sc3
  4     0.0000   1   3 # oc13-sc2-oc12-sc3
  5     0.0000   1   3 # oc22-sc3-oc12-sc2
  6     0.0000   1   3 # oc14-sc3-oc12-sc2
  7     0.0000   1   3 # oc12-sc3-oc12-sc2
  8     0.0000   1   3 # oc22-sc3-oc14-hoy
  9     0.0000   1   3 # oc12-sc3-oc14-hoy

Atoms # full

      1      1   1 -0.820000    14.046526961    15.182384711    28.203450061   0   0   0 # o*
      2      1   2  0.410000    13.445319390    15.864309759    28.530876857   0   0   0 # h*
      3      1   2  0.410000    13.943971876    15.400154704    27.220674935   0   0   0 # h*
      4      1   3 -1.080000    21.132846297     5.687004852     5.546975860  -1   0   0 # oc22
      5      1   1 -0.820000    21.525501084     9.653684845     5.616893119  -1   0   0 # o*
      6      1   4  1.500000    17.660279242     9.359850027     1.071418371  -1   0   0 # ca+t
      7      1   4  1.500000    17.795122058     5.690572774     1.127283200  -1   0   0 # ca+t
      8      1   5  1.000000    20.617803968    10.920416843     2.022623957  -1   0   0 # sc2
      9      1   6  1.000000    21.411076970     5.740845828     3.967446167  -1   0   0 # sc3
     10      1   5  1.000000    20.616951813     7.850748829     2.065901062  -1   0   0 # sc2
     11      1   7 -0.580000    20.647117958     4.401200839     3.462516027  -1   0   0 # oc12
     12      1   7 -0.580000    20.723671569     9.408361267     2.590850179  -1   0   0 # oc12
     13      1   8 -0.940000    19.277137644    11.170333493     1.149913500  -1   0   0 # oc13
     14      1   9 -0.670000     0.552562933     5.682359197     3.634710906   0   0   0 # oc14
     15      1   1 -0.820000    17.875030550     6.321016745     3.860751472  -1   0   0 # o*
     16      1   7 -0.580000    20.635691170     7.036621413     3.473313808  -1   0   0 # oc12
     17      1   8 -0.940000    19.201672515     7.590886941     1.296203073  -1   0   0 # oc13
     18      1   8 -0.940000    21.838795696     7.449153818     1.171599357  -1   0   0 # oc13
     19      1   1 -0.820000    18.304067816    11.488695791     5.719678305  -1   0   0 # o*
     20      1  10  0.400000     0.898237357     5.094502811     4.259744497   0   0   0 # hoy
     21      1   2  0.410000    18.689643484     6.648974529     4.267329020  -1   0   0 # h*
     22      1   2  0.410000    17.295053437     6.689928389     4.598489567  -1   0   0 # h*
     23      1   2  0.410000    18.083676053    10.879941575     4.951985901  -1   0   0 # h*
     24      1   2  0.410000    17.353221789    11.388821401     6.122170486  -1   0   0 # h*
     25      1   2  0.410000    20.891317374     9.161202728     5.062605322  -1   0   0 # h*
     26      1   2  0.410000    22.189754273    10.011345614     4.905644511  -1   0   0 # h*
     27      2   3 -1.080000     9.661553865     5.616154900     5.616860755   0   0   0 # oc22
     28      2   1 -0.820000     9.991721161     9.270708823     5.607308298   0   0   0 # o*
     29      2   4  1.500000     6.293593429     9.381363472     0.858565282   0   0   0 # ca+t
     30      2   4  1.500000     6.541956147     5.805780662     0.985575698   0   0   0 # ca+t
     31      2   5  1.000000     9.286542448    11.020543329     1.954199796   0   0   0 # sc2
     32      2   6  1.000000     9.966097533     5.704092370     4.080073433   0   0   0 # sc3
     33      2   5  1.000000     9.408059996     7.928367044     2.073234046   0   0   0 # sc2
     34      2   7 -0.580000     9.141345807     4.447218555     3.556288615   0   0   0 # oc12
     35      2   7 -0.580000     9.452287004     9.454767014     2.537382190   0   0   0 # oc12
     36      2   8 -0.940000     7.975848733    11.248581262     1.095377484   0   0   0 # oc13
     37      2   9 -0.670000    11.636444893     5.550959389     3.987901762   0   0   0 # oc14
     38      2   1 -0.820000     6.666165538     5.915077358     3.655828102   0   0   0 # o*
     39      2   7 -0.580000     9.361977867     7.128467952     3.495096325   0   0   0 # oc12
     40      2   8 -0.940000     8.118484821     7.566217250     1.140182275   0   0   0 # oc13
     41      2   8 -0.940000    10.759933158     7.532631723     1.252317659   0   0   0 # oc13
     42      2   1 -0.820000     6.945493009    11.008903234     5.671433882   0   0   0 # o*
     43      2  10  0.400000    11.881315374     5.317121942     4.830676120   0   0   0 # hoy
     44      2   2  0.410000     7.253153152     5.170256791     3.602898855   0   0   0 # h*
     45      2   2  0.410000     7.238395999     6.626686429     3.882123688   0   0   0 # h*
     46      2   2  0.410000     6.775663097    11.197102582     4.684439376   0   0   0 # h*
     47      2   2  0.410000     6.257206008    10.352977215     5.851216418   0   0   0 # h*
     48      2   2  0.410000    10.728197392     8.706930992     5.972278159   0   0   0 # h*
     49      2   2  0.410000    10.232675499     9.046395558     4.668389682   0   0   0 # h*
     50      3   3 -1.080000    21.130970610    13.214916704     5.574649293  -1   0   0 # oc22
     51      3   1 -0.820000    21.451283188    16.958050415     5.755643925  -1   0   0 # o*
     52      3   4  1.500000    17.572802863    16.823800432     1.114365789  -1   0   0 # ca+t
     53      3   4  1.500000    17.910646214    13.079464939     1.236907143  -1   0   0 # ca+t
     54      3   5  1.000000    20.429666848    18.309219421     1.995605850  -1   0   0 # sc2
     55      3   6  1.000000    21.316951492    13.134834848     3.986618312  -1   0   0 # sc3
     56      3   5  1.000000    20.503848937    15.286930685     2.026443164  -1   0   0 # sc2
     57      3   7 -0.580000    20.577974815    11.835100855     3.413896332  -1   0   0 # oc12
     58      3   7 -0.580000    20.631013445    16.785140624     2.576590465  -1   0   0 # oc12
     59      3   8 -0.940000    19.142594110    18.533730848     1.187946025  -1   0   0 # oc13
     60      3   9 -0.670000    22.922004318    13.094307716     3.488507645  -1   0   0 # oc14
     61      3   1 -0.820000    17.843560949    13.541071510     3.802716468  -1   0   0 # o*
     62      3   7 -0.580000    20.518643282    14.435669547     3.377964380  -1   0   0 # oc12
     63      3   8 -0.940000    19.082169674    15.131646574     1.180692148  -1   0   0 # oc13
     64      3   8 -0.940000    21.662191526    14.900665615     1.098506854  -1   0   0 # oc13
     65      3   1 -0.820000    18.158199654    18.853857996     5.505021840  -1   0   0 # o*
     66      3  10  0.400000     0.899987778    12.657933010     4.155851583   0   0   0 # hoy
     67      3   2  0.410000    18.288853241    12.845262388     4.308851236  -1   0   0 # h*
     68      3   2  0.410000    18.116819786    14.291678345     4.369264888  -1   0   0 # h*
     69      3   2  0.410000    17.581333332    18.223450833     4.935918346  -1   0   0 # h*
     70      3   2  0.410000    18.370301292    19.504001440     4.796092897  -1   0   0 # h*
     71      3   2  0.410000    22.077575971    16.177964029     5.809214833  -1   0   0 # h*
     72      3   2  0.410000    21.082943769    16.759046158     4.868403094  -1   0   0 # h*
     73      4   3 -1.080000     9.997011025    12.948759253     5.526881214   0   0   0 # oc22
     74      4   1 -0.820000     9.837025301    16.672981762     5.586440977   0   0   0 # o*
     75      4   4  1.500000     6.357414663    16.907568290     1.101653507   0   0   0 # ca+t
     76      4   4  1.500000     6.582467869    13.188882689     0.956739356   0   0   0 # ca+t
     77      4   5  1.000000     9.245177071    18.418522201     2.063795745   0   0   0 # sc2
     78      4   6  1.000000    10.147167717    13.067540920     3.941628582   0   0   0 # sc3
     79      4   5  1.000000     9.341095243    15.323503471     2.092977936   0   0   0 # sc2
     80      4   7 -0.580000     9.300126593    11.927234490     3.298140714   0   0   0 # oc12
     81      4   7 -0.580000     9.289057714    16.884738951     2.621645495   0   0   0 # oc12
     82      4   8 -0.940000     8.005839681    18.691544158     1.105855874   0   0   0 # oc13
     83      4   9 -0.670000    11.718364136    12.845195325     3.485087716   0   0   0 # oc14
     84      4   1 -0.820000     6.664293037    13.253495088     3.956723401   0   0   0 # o*
     85      4   7 -0.580000     9.520230744    14.468645065     3.496894287   0   0   0 # oc12
     86      4   8 -0.940000     7.990227541    14.999477975     1.317005407   0   0   0 # oc13
     87      4   8 -0.940000    10.600151886    14.993854349     1.134461704   0   0   0 # oc13
     88      4   1 -0.820000     6.985994205    18.541459946     5.500359465   0   0   0 # o*
     89      4  10  0.400000    12.121871009    12.462001887     4.263091664   0   0   0 # hoy
     90      4   2  0.410000     6.826364791    14.074160329     4.449126025   0   0   0 # h*
     91      4   2  0.410000     7.543805849    12.872224012     4.140493713   0   0   0 # h*
     92      4   2  0.410000     6.040511275    18.235340941     5.659186462   0   0   0 # h*
     93      4   2  0.410000     7.194506946    18.279733643     4.570649046   0   0   0 # h*
     94      4   2  0.410000     9.617752472    15.847883039     5.063285786   0   0   0 # h*
     95      4   2  0.410000    10.525813274    16.923787570     4.911425529   0   0   0 # h*
     96      5   3 -1.080000    20.901603545    20.459756709     5.508523306  -1   0   0 # oc22
     97      5   1 -0.820000    21.394226944     1.800807082     5.682112691  -1   1   0 # o*
     98      5   4  1.500000    17.640373442     1.828947316     1.033198413  -1   1   0 # ca+t
     99      5   4  1.500000    17.777254252    20.473282232     0.842740673  -1   0   0 # ca+t
    100      5   5  1.000000    20.558104663     3.524983723     2.067959876  -1   1   0 # sc2
    101      5   6  1.000000    21.170559590    20.508638274     3.981148956  -1   0   0 # sc3
    102      5   5  1.000000    20.592091184     0.461203230     2.048832381  -1   1   0 # sc2
    103      5   7 -0.580000    20.339940779    19.234871467     3.419644666  -1   0   0 # oc12
    104      5   7 -0.580000    20.618972507     1.978830164     2.658160564  -1   1   0 # oc12
    105      5   8 -0.940000    19.187138431     3.655960689     1.233615768  -1   1   0 # oc13
    106      5   9 -0.670000    22.801317327    20.441271802     3.657417244  -1   0   0 # oc14
    107      5   1 -0.820000    15.708177604    20.511254359     5.511180942  -1   0   0 # o*
    108      5   7 -0.580000    20.468740859    -0.461946916     3.394498634  -1   1   0 # oc12
    109      5   8 -0.940000    19.385325143     0.154727307     1.091591804  -1   1   0 # oc13
    110      5   8 -0.940000    21.936625295     0.214239433     1.223790716  -1   1   0 # oc13
    111      5  10  0.400000     0.725085108    19.928050503     4.439570574   0   0   0 # hoy
    112      5   2  0.410000    16.375676738    19.922054952     6.103797852  -1   0   0 # h*
    113      5   2  0.410000    15.442614649    19.979050006     4.743915109  -1   0   0 # h*
    114      5   2  0.410000    21.186728138     1.376320986     4.786942551  -1   1   0 # h*
    115      5   2  0.410000    21.997225959     1.114277600     6.102373750  -1   1   0 # h*
    116      6   3 -1.080000     9.835308733    20.383798248     5.563401687   0   0   0 # oc22
    117      6   1 -0.820000    10.413040970     2.255367827     6.097420376   0   1   0 # o*
    118      6   4  1.500000     6.376179909     1.958300766     1.048296993   0   1   0 # ca+t
    119      6   4  1.500000     6.530522860    20.522631731     0.920130638   0   0   0 # ca+t
    120      6   5  1.000000     9.181157573     3.538779367     2.227681392   0   1   0 # sc2
    121      6   6  1.000000    10.010055090    20.560252166     4.033358353   0   0   0 # sc3
    122      6   5  1.000000     9.275763351     0.469894109     2.205643546   0   1   0 # sc2
    123      6   7 -0.580000     9.217614645    19.361260638     3.406749812   0   0   0 # oc12
    124      6   7 -0.580000     9.271125152     1.989536849     2.781408792   0   1   0 # oc12
    125      6   8 -0.940000     7.903032866     3.846355949     1.359258925   0   1   0 # oc13
    126      6   9 -0.670000    11.603235448    20.567537236     3.658286144   0   0   0 # oc14
    127      6   1 -0.820000     6.631462850    20.692246048     3.538228606   0   0   0 # o*
    128      6   7 -0.580000     9.336043460    -0.338748924     3.565111909   0   1   0 # oc12
    129      6   8 -0.940000     7.983425041     0.129270025     1.293208682   0   1   0 # oc13
    130      6   8 -0.940000    10.556253802     0.204437902     1.282503477   0   1   0 # oc13
    131      6  10  0.400000    11.870668191    19.947903545     4.292826216   0   0   0 # hoy
    132      6   2  0.410000     7.506480149    21.019398312     3.908040849   0   0   0 # h*
    133      6   2  0.410000     6.057690855    21.261493840     4.149372768   0   0   0 # h*
    134      6   2  0.410000    10.741272157     2.134922860     5.225094480   0   1   0 # h*
    135      6   2  0.410000    10.756559235     1.487578317     6.539725438   0   1   0 # h*
    136      7   4  1.500000    18.727664659     7.553110476    14.803176678  -1   0   0 # ca+t
    137      7   4  1.500000    16.097284758     9.452083632    12.710629464  -1   0   0 # ca+t
    138      7   5  1.000000    18.853154955     7.252516516    11.578767810  -1   0   0 # sc2
    139      7   6  1.000000    19.638166019     9.390316972     9.705707247  -1   0   0 # sc3
    140      7   5  1.000000    18.842659869     4.173059031    11.456893690  -1   0   0 # sc2
    141      7   7 -0.580000    18.783978765     8.256132524    10.337584693  -1   0   0 # oc12
    142      7   7 -0.580000    18.928888059     5.742760765    10.968645220  -1   0   0 # oc12
    143      7   8 -0.940000    20.119153047     7.609555664    12.512249438  -1   0   0 # oc13
    144      7   8 -0.940000    17.554736365     7.507622863    12.472345916  -1   0   0 # oc13
    145      7   3 -1.080000    10.777805630    20.203586985    80.843625933   0  -1   0 # oc22
    146      7   9 -0.670000    21.251494825     9.310142049     9.935970732  -1   0   0 # oc14
    147      7   1 -0.820000    16.568312100    11.041608473     7.916049047  -1   0   0 # o*
    148      7   7 -0.580000    19.059873855    10.843214239    10.231713921  -1   0   0 # oc12
    149      7   8 -0.940000    17.496073875     3.886195156    12.332490613  -1   0   0 # oc13
    150      7   1 -0.820000    11.548909905     2.037499784    80.941656396   0   0   0 # o*
    151      7   1 -0.820000    16.834830039     7.640535049     8.246797213  -1   0   0 # o*
    152      7  11  1.700000    20.104471657     3.859671048     6.745103310  -1   0   0 # casl
    153      7   1 -0.820000    18.997692749     7.525515222     5.953459544  -1   0   0 # o*
    154      7   4  1.500000     7.353148576     1.817623946    76.367319199   0   0   0 # ca+t
    155      7   4  1.500000    10.435221543    -0.041979478    74.074575494   0   0   0 # ca+t
    156      7   5  1.000000     7.595595688     1.516735489    73.073022605   0   0   0 # sc2
    157      7   6  1.000000     8.031440475     3.753277490    71.068110179   0   0   0 # sc3
    158      7   5  1.000000     7.508654480    20.687139437    73.222205163   0  -1   0 # sc2
    159      7   7 -0.580000     7.421281899     2.399471018    71.630358208   0   0   0 # oc12
    160      7   7 -0.580000     7.499568826    -0.045571867    72.595483405   0   0   0 # oc12
    161      7   8 -0.940000     8.895027161     1.778236134    73.830627117   0   0   0 # oc13
    162      7   8 -0.940000     6.346695917     1.827988548    74.090038184   0   0   0 # oc13
    163      7   3 -1.080000    16.621335840     7.767371323    19.358485139  -1   0   0 # oc22
    164      7   9 -0.670000     9.674333449     3.733025329    71.333213596   0   0   0 # oc14
    165      7   1 -0.820000     2.555218577     9.963825907    68.517557742   0   0   0 # o*
    166      7   7 -0.580000     7.400165829    19.889777267    71.814301149   0  -1   0 # oc12
    167      7   8 -0.940000     6.272311367    20.425708982    74.217565085   0  -1   0 # oc13
    168      7   1 -0.820000    12.663566322     1.895616481    20.685256446  -1   0   0 # o*
    169      7   4  1.500000    10.162185893     3.554252502    74.174272577   0   0   0 # ca+t
    170      7   4  1.500000     7.701053493    20.350213363    76.468870328   0  -1   0 # ca+t
    171      7   5  1.000000    10.178725933     3.318688517    77.384252083   0   0   0 # sc2
    172      7   6  1.000000    11.058535010    20.220114986    79.299443405   0  -1   0 # sc3
    173      7   5  1.000000    10.287025903     0.267075246    77.375043063   0   0   0 # sc2
    174      7   7 -0.580000    10.247732787    19.015491900    78.670238641   0  -1   0 # oc12
    175      7   7 -0.580000    10.238011286     1.747696176    77.971878220   0   0   0 # oc12
    176      7   8 -0.940000     8.928056053     3.517636254    76.386050595   0   0   0 # oc13
    177      7   3 -1.080000    19.391702115     9.458303115     8.176789423  -1   0   0 # oc22
    178      7   9 -0.670000    12.670512020    20.162362157    79.119329867   0  -1   0 # oc14
    179      7   1 -0.820000     7.746921025    20.502669879    79.330863084   0  -1   0 # o*
    180      7   7 -0.580000    10.436750486    21.638982018    78.815813752   0  -1   0 # oc12
    181      7   8 -0.940000     8.988115661     0.052867199    76.540845318   0   0   0 # oc13
    182      7   8 -0.940000    11.549677513     0.054766638    76.356554744   0   0   0 # oc13
    183      7   1 -0.820000    18.819239065     5.503872410     7.905064550  -1   0   0 # o*
    184      7   1 -0.820000     7.538733892     3.288614514    81.632683790   0   0   0 # o*
    185      7   4  1.500000    16.038815982     5.613535857    12.755123786  -1   0   0 # ca+t
    186      7   4  1.500000    18.990310517    11.372102099    14.847852206  -1   0   0 # ca+t
    187      7   5  1.000000    16.097877520     5.449174471    15.903106912  -1   0   0 # sc2
    188      7   6  1.000000    16.820685745     7.638567779    17.775459048  -1   0   0 # sc3
    189      7   5  1.000000    15.954466745     9.770556263    15.895590541  -1   0   0 # sc2
    190      7   7 -0.580000    16.092508936     6.354570207    17.245438308  -1   0   0 # oc12
    191      7   7 -0.580000    15.950228354    11.289709314    16.522935012  -1   0   0 # oc12
    192      7   8 -0.940000    14.842093647     5.768184689    14.975060243  -1   0   0 # oc13
    193      7   3 -1.080000     7.759340928     3.888425233    69.523840101   0   0   0 # oc22
    194      7   9 -0.670000    18.355839836     7.767717979    17.463132958  -1   0   0 # oc14
    195      7   1 -0.820000     4.116566584    11.411807066    19.414118922  -1   0   0 # o*
    196      7   7 -0.580000    16.021660064     8.926870311    17.257383123  -1   0   0 # oc12
    197      7   8 -0.940000    14.618167260     9.472060291    15.013917340  -1   0   0 # oc13
    198      7   8 -0.940000    17.266863221     9.681630101    14.966689892  -1   0   0 # oc13
    199      7   1 -0.820000     5.597378570     9.661450095    21.628649345   0   1   0 # o*
    200      7   1 -0.820000     5.843041571     4.346742061    66.371972900  -1   0   0 # o*
    201      7   1 -0.820000     8.990738497     1.578341889    19.873423193  -2   1   0 # o*
    202      7  11  1.700000     5.594901137     4.351446974    68.890171065   0   0   0 # casl
    203      7   1 -0.820000     6.542436959    16.192980515    67.977786873  -1   0   0 # o*
    204      7  10  0.400000    12.925917996    19.742383061    79.923287211   0  -1   0 # hoy
    205      7  10  0.400000    10.177555762     3.406835973    70.632146390   0   0   0 # hoy
    206      7  10  0.400000    18.733629936     7.597400873    18.314418079  -1   0   0 # hoy
    207      7  10  0.400000    21.474061456     8.571964623     9.365360985  -1   0   0 # hoy
    208      7   2  0.410000    18.916622026     5.620334455     8.897429710  -1   0   0 # h*
    209      7   2  0.410000    18.348056237     6.319551729     7.694244482  -1   0   0 # h*
    210      7   2  0.410000    17.261748104    10.463623199     8.208119899  -1   0   0 # h*
    211      7   2  0.410000    16.175619021    10.458002639     7.219063374  -1   0   0 # h*
    212      7   2  0.410000    17.734976743     8.201055376     8.060656099  -1   0   0 # h*
    213      7   2  0.410000    16.971239953     7.283835091     9.146835165  -1   0   0 # h*
    214      7   2  0.410000    19.793422343     6.914055332     5.838117590  -1   0   0 # h*
    215      7   2  0.410000    19.375535911     8.110716870     6.748397266  -1   0   0 # h*
    216      7   2  0.410000     4.367973693    12.049233479    20.131646996  -1   0   0 # h*
    217      7   2  0.410000     4.637521931    11.780332751    18.689198209  -1   0   0 # h*
    218      7   2  0.410000    11.884297871     1.325167216    21.048751710  -1   0   0 # h*
    219      7   2  0.410000    12.151108019     2.770641893    20.584101355  -1   0   0 # h*
    220      7   2  0.410000     9.671342207     1.232947953    19.261787871  -2   1   0 # h*
    221      7   2  0.410000     9.559023309     2.286911585    20.206201520  -2   1   0 # h*
    222      7   2  0.410000     5.134179176     4.827911289    65.941992247  -1   0   0 # h*
    223      7   2  0.410000     6.409097049     4.356574472    65.581391239  -1   0   0 # h*
    224      7   2  0.410000     6.310262351     8.927332280    21.830081680   0   1   0 # h*
    225      7   2  0.410000     6.118000398    10.512527181    21.685370087   0   1   0 # h*
    226      7   2  0.410000     7.467200955    16.224438101    68.391613594  -1   0   0 # h*
    227      7   2  0.410000     6.516207314    15.178132935    67.965186415  -1   0   0 # h*
    228      7   2  0.410000     2.236721707     9.043455962    68.680388678   0   0   0 # h*
    229      7   2  0.410000     3.159007867    10.050248328    69.331140572   0   0   0 # h*
    230      7   2  0.410000     8.459137972    20.459210477    79.999884656   0  -1   0 # h*
    231      7   2  0.410000     7.037946324    21.149631157    79.645786498   0  -1   0 # h*
    232      7   2  0.410000     6.902702778     3.999570320    81.857153164   0   0   0 # h*
    233      7   2  0.410000     6.839674914     2.600398179    81.402122785   0   0   0 # h*
    234      7   2  0.410000    12.121515808     1.872154651    80.117125120   0   0   0 # h*
    235      7   2  0.410000    12.119714082     1.498951244    81.540074332   0   0   0 # h*
    236      8   4  1.500000     7.522483318     7.604410901    14.953397470   0   0   0 # ca+t
    237      8   4  1.500000     4.940582985     9.549469349    12.654814389   0   0   0 # ca+t
    238      8   5  1.000000     7.482647405     7.267050411    11.784713662   0   0   0 # sc2
    239      8   6  1.000000     8.177574517     9.560166411     9.888851071   0   0   0 # sc3
    240      8   5  1.000000     7.533095103     4.181565689    11.745481539   0   0   0 # sc2
    241      8   7 -0.580000     7.475729903     8.178239499    10.417857694   0   0   0 # oc12
    242      8   7 -0.580000     7.452259525     5.755316061    11.176625890   0   0   0 # oc12
    243      8   8 -0.940000     8.735073466     7.541923140    12.724136950   0   0   0 # oc13
    244      8   8 -0.940000     6.204358576     7.583461600    12.619543004   0   0   0 # oc13
    245      8   3 -1.080000    22.065864105    20.449085230    80.756755577   0  -1   0 # oc22
    246      8   9 -0.670000     9.770817012     9.656393730    10.124757884   0   0   0 # oc14
    247      8   1 -0.820000     5.352847653    11.088789576     7.912105260   0   0   0 # o*
    248      8   7 -0.580000     7.400388648    10.821124566    10.475762106   0   0   0 # oc12
    249      8   8 -0.940000     6.218733342     3.967396029    12.666560318   0   0   0 # oc13
    250      8   1 -0.820000    22.013600965     1.872705339    80.724489630   0   0   0 # o*
    251      8   1 -0.820000     5.476153790     7.946723378     8.309543686   0   0   0 # o*
    252      8  11  1.700000     8.924838183     3.954373713     7.095240803   0   0   0 # casl
    253      8   1 -0.820000     7.363037965     7.818255174     5.880663659   0   0   0 # o*
    254      8   4  1.500000    18.704084433     1.767025213    76.161534873   0   0   0 # ca+t
    255      8   4  1.500000    21.706893925    -0.135772421    74.091676436   0   0   0 # ca+t
    256      8   5  1.000000    18.925733276     1.470571794    73.086559662   0   0   0 # sc2
    257      8   6  1.000000    19.635382559     3.499622188    71.116309772   0   0   0 # sc3
    258      8   5  1.000000    18.900109859    20.574068891    73.082169451   0  -1   0 # sc2
    259      8   7 -0.580000    18.874859337     2.260417878    71.684370590   0   0   0 # oc12
    260      8   7 -0.580000    18.900212404    -0.114050086    72.577392439   0   0   0 # oc12
    261      8   8 -0.940000    20.186169838     1.667748957    74.048849029   0   0   0 # oc13
    262      8   8 -0.940000    17.580903221     1.811380868    73.850555120   0   0   0 # oc13
    263      8   3 -1.080000     5.142152251     7.637321701    19.393359949   0   0   0 # oc22
    264      8   9 -0.670000    21.222088641     3.478630164    71.643844203   0   0   0 # oc14
    265      8   1 -0.820000     0.477168336    12.291671603    68.882006457   1   0   0 # o*
    266      8   7 -0.580000    18.861366425    19.752531337    71.705557407   0  -1   0 # oc12
    267      8   8 -0.940000    17.637208507    20.348359104    74.010943756   0  -1   0 # oc13
    268      8   1 -0.820000     6.672103756    18.358886497    19.174724017   0   0   0 # o*
    269      8   4  1.500000    21.481638779     3.566486407    74.154450025   0   0   0 # ca+t
    270      8   4  1.500000    18.867391873    20.324013434    76.298482962   0  -1   0 # ca+t
    271      8   5  1.000000    21.570461168     3.230227998    77.434899330   0   0   0 # sc2
    272      8   6  1.000000    22.261822766    20.322803499    79.205082828   0  -1   0 # sc3
    273      8   5  1.000000    21.460589641     0.126259816    77.236842780   0   0   0 # sc2
    274      8   7 -0.580000    21.658527202    18.904050595    78.751976137   0  -1   0 # oc12
    275      8   7 -0.580000    21.436955525     1.662725137    77.891897452   0   0   0 # oc12
    276      8   8 -0.940000    20.344215415     3.653312680    76.490501695   0   0   0 # oc13
    277      8   3 -1.080000     7.962198580     9.692938421     8.274112431   0   0   0 # oc22
    278      8   9 -0.670000     1.351859456    20.439848163    78.860516083   1  -1   0 # oc14
    279      8   1 -0.820000    19.649469765    -0.078059180    80.858382312   0   0   0 # o*
    280      8   7 -0.580000    21.373016029    21.451897561    78.565639416   0  -1   0 # oc12
    281      8   8 -0.940000    20.236870713    -0.098034644    76.228298771   0   0   0 # oc13
    282      8   8 -0.940000    22.800518643    -0.131975955    76.437180492   0   0   0 # oc13
    283      8   1 -0.820000     8.208409820     6.139337594     8.209897380   0   0   0 # o*
    284      8   1 -0.820000    18.556261336     3.588727160    81.737348547   0   0   0 # o*
    285      8   4  1.500000     4.619966477     5.677524522    12.632236185   0   0   0 # ca+t
    286      8   4  1.500000     7.604147080    11.439436945    15.205860617   0   0   0 # ca+t
    287      8   5  1.000000     4.748378169     5.428875405    15.839951899   0   0   0 # sc2
    288      8   6  1.000000     5.391212617     7.623457962    17.861158361   0   0   0 # sc3
    289      8   5  1.000000     4.694996924     9.803705765    15.970781885   0   0   0 # sc2
    290      8   7 -0.580000     4.667062892     6.277271484    17.222901978   0   0   0 # oc12
    291      8   7 -0.580000     4.711496237    11.293532171    16.538341767   0   0   0 # oc12
    292      8   8 -0.940000     3.524539545     5.717977704    14.857306145   0   0   0 # oc13
    293      8   3 -1.080000    19.587536132     3.282527616    69.507277190   0   0   0 # oc22
    294      8   9 -0.670000     6.976396361     7.666650096    17.635212076   0   0   0 # oc14
    295      8   1 -0.820000     0.728106692     6.094283095    20.744687569   0   0   0 # o*
    296      8   7 -0.580000     4.625507430     8.925895282    17.359019756   0   0   0 # oc12
    297      8   8 -0.940000     3.450104890     9.600472192    15.028100216   0   0   0 # oc13
    298      8   8 -0.940000     6.013545535     9.570748610    15.126938587   0   0   0 # oc13
    299      8   1 -0.820000     1.683153929     8.037087856    18.695342043   0  -1   0 # o*
    300      8   1 -0.820000     1.516943843    10.307620387    21.018535614   0  -1   0 # o*
    301      8   1 -0.820000    13.195092063     8.917258989    19.329153288   1   1   0 # o*
    302      8  11  1.700000    14.885231690     1.042517487    20.200951711  -1   1   0 # casl
    303      8   1 -0.820000     6.192402840     6.230826086    21.851950644  -1   0   0 # o*
    304      8  10  0.400000     1.682408603    20.207932154    79.755514699   1  -1   0 # hoy
    305      8  10  0.400000    21.672577668     3.735407153    70.857419036   0   0   0 # hoy
    306      8  10  0.400000     7.297789504     8.092565363    18.405027208   0   0   0 # hoy
    307      8  10  0.400000    10.173954701     9.498183476     9.277267669   0   0   0 # hoy
    308      8   2  0.410000     7.591238505     6.879968964     7.982974249   0   0   0 # h*
    309      8   2  0.410000     8.241369270     6.374288886     9.157384009   0   0   0 # h*
    310      8   2  0.410000     4.873598066    10.769490046     7.110855183   0   0   0 # h*
    311      8   2  0.410000     6.024799840    10.395685774     8.020800020   0   0   0 # h*
    312      8   2  0.410000     5.466746280     7.410585437     9.165091903   0   0   0 # h*
    313      8   2  0.410000     6.280429533     8.544502328     8.486849386   0   0   0 # h*
    314      8   2  0.410000     8.189856025     7.469427896     5.452499939   0   0   0 # h*
    315      8   2  0.410000     7.754473563     8.423439405     6.546244339   0   0   0 # h*
    316      8   2  0.410000    22.793734604     5.222753438    20.514723414  -1   0   0 # h*
    317      8   2  0.410000    22.468999394     6.664033134    20.656875363  -1   0   0 # h*
    318      8   2  0.410000     7.503556557    17.818480864    19.153539282   0   0   0 # h*
    319      8   2  0.410000     7.082631167    19.244536953    19.371363771   0   0   0 # h*
    320      8   2  0.410000    12.722236376     8.129264644    19.841071507   1   1   0 # h*
    321      8   2  0.410000    12.481117232     9.268129406    18.669475228   1   1   0 # h*
    322      8   2  0.410000     1.451697215    10.793373907    21.801487059   0  -1   0 # h*
    323      8   2  0.410000     0.847767179    10.746035268    20.407423038   0  -1   0 # h*
    324      8   2  0.410000     1.564818957     7.089589751    18.429406002   0  -1   0 # h*
    325      8   2  0.410000     1.015185489     8.384938567    18.031184153   0  -1   0 # h*
    326      8   2  0.410000     7.206707270     6.195706295    21.659401631  -1   0   0 # h*
    327      8   2  0.410000     6.003437070     6.702134382    21.012787157  -1   0   0 # h*
    328      8   2  0.410000     0.950228932    11.445131942    68.900567265   1   0   0 # h*
    329      8   2  0.410000     1.313563261    12.866488420    68.914968939   1   0   0 # h*
    330      8   2  0.410000    20.069239286     0.591817808    81.404424631   0   0   0 # h*
    331      8   2  0.410000    20.480133152    -0.400064475    80.439186952   0   0   0 # h*
    332      8   2  0.410000    17.892061776     4.288544074    81.564260163   0   0   0 # h*
    333      8   2  0.410000    17.978979007     2.914810940    81.355893574   0   0   0 # h*
    334      8   2  0.410000    21.860963402     1.720279041    79.753409400   0   0   0 # h*
    335      8   2  0.410000    22.957364338     1.513864680    80.736042506   0   0   0 # h*
    336      9   4  1.500000    18.708164647    15.034342657    14.813434717  -1   0   0 # ca+t
    337      9   4  1.500000    16.066888032    16.839486032    12.863472716  -1   0   0 # ca+t
    338      9   5  1.000000    18.804097438    14.694875336    11.649264985  -1   0   0 # sc2
    339      9   6  1.000000    19.524023324    16.862621811     9.672489420  -1   0   0 # sc3
    340      9   5  1.000000    18.925288979    11.650179547    11.638636670  -1   0   0 # sc2
    341      9   7 -0.580000    18.798153856    15.585657637    10.291435808  -1   0   0 # oc12
    342      9   7 -0.580000    18.889842469    13.201792839    11.108837043  -1   0   0 # oc12
    343      9   8 -0.940000    20.105281961    15.082193535    12.561373711  -1   0   0 # oc13
    344      9   8 -0.940000    17.513310496    14.977973705    12.504588856  -1   0   0 # oc13
    345      9   3 -1.080000    10.678809751     5.468993549    80.824775532   0   0   0 # oc22
    346      9   9 -0.670000    21.130815095    16.814995075     9.883274247  -1   0   0 # oc14
    347      9   1 -0.820000    16.527217364    18.452350815     7.922507439  -1   0   0 # o*
    348      9   7 -0.580000    18.790048645    18.137340185    10.286286409  -1   0   0 # oc12
    349      9   8 -0.940000    17.572564099    11.266438660    12.387645310  -1   0   0 # oc13
    350      9   1 -0.820000    10.950073399     9.057457711    80.594401217   0   0   0 # o*
    351      9   1 -0.820000    16.773045181    15.348068354     8.329994583  -1   0   0 # o*
    352      9  11  1.700000    20.317365196    11.494010373     6.851183703  -1   0   0 # casl
    353      9   1 -0.820000    18.853145398    15.292195124     5.792041522  -1   0   0 # o*
    354      9   4  1.500000     7.456843144     9.068227432    76.225900273   0   0   0 # ca+t
    355      9   4  1.500000    10.372262118     7.412513758    73.946877937   0   0   0 # ca+t
    356      9   5  1.000000     7.422711242     8.818124588    73.120218474   0   0   0 # sc2
    357      9   6  1.000000     8.246977870    10.979792449    71.120079385   0   0   0 # sc3
    358      9   5  1.000000     7.428832792     5.816459818    73.161436479   0   0   0 # sc2
    359      9   7 -0.580000     7.443222795     9.665237641    71.710604061   0   0   0 # oc12
    360      9   7 -0.580000     7.386775464     7.352007497    72.575425763   0   0   0 # oc12
    361      9   8 -0.940000     8.804379824     9.057984580    73.934779640   0   0   0 # oc13
    362      9   8 -0.940000     6.153821838     9.096277797    74.082667356   0   0   0 # oc13
    363      9   3 -1.080000    16.569662474    15.034266903    19.480174204  -1   0   0 # oc22
    364      9   9 -0.670000     9.819503628    11.004045067    71.600854310   0   0   0 # oc14
    365      9   1 -0.820000    13.306097961    18.573772150    20.898370597   0   1   0 # o*
    366      9   7 -0.580000     7.283493699     4.907771031    71.806334577   0   0   0 # oc12
    367      9   8 -0.940000     6.244365202     5.623576918    74.177892506   0   0   0 # oc13
    368      9   1 -0.820000     2.531012772     7.796713298    22.034592628  -1   0   0 # o*
    369      9   4  1.500000    10.292720166    10.945175482    74.000238997   0   0   0 # ca+t
    370      9   4  1.500000     7.511042521     5.470981998    76.325675942   0   0   0 # ca+t
    371      9   5  1.000000    10.261803057    10.687412238    77.138856107   0   0   0 # sc2
    372      9   6  1.000000    11.004792451     5.525761205    79.284886581   0   0   0 # sc3
    373      9   5  1.000000    10.265366724     7.673054727    77.228633363   0   0   0 # sc2
    374      9   7 -0.580000    10.165719595     4.275645254    78.701114499   0   0   0 # oc12
    375      9   7 -0.580000    10.226098698     9.218102214    77.702740184   0   0   0 # oc12
    376      9   8 -0.940000     8.975055360    10.913389666    76.213099987   0   0   0 # oc13
    377      9   3 -1.080000    19.192433785    16.943669767     8.171648279  -1   0   0 # oc22
    378      9   9 -0.670000    12.631569497     5.346009718    79.111968538   0   0   0 # oc14
    379      9   1 -0.820000     7.410435614     5.248033541    79.085191815   0   0   0 # o*
    380      9   7 -0.580000    10.379615507     6.869628451    78.695616501   0   0   0 # oc12
    381      9   8 -0.940000     8.924316881     7.287080777    76.416126801   0   0   0 # oc13
    382      9   8 -0.940000    11.536100332     7.371584473    76.373660453   0   0   0 # oc13
    383      9   1 -0.820000    19.438576623    13.005994408     8.406646507  -1   0   0 # o*
    384      9   1 -0.820000     5.581127601    10.790615198    82.909985909   0   0   0 # o*
    385      9   4  1.500000    15.995746865    13.092045793    12.716335143  -1   0   0 # ca+t
    386      9   4  1.500000    19.023939122    18.750261624    14.772777336  -1   0   0 # ca+t
    387      9   5  1.000000    15.896928809    12.835632094    15.958013378  -1   0   0 # sc2
    388      9   6  1.000000    16.779292685    14.945752738    17.933337706  -1   0   0 # sc3
    389      9   5  1.000000    16.142340077    17.199344027    15.973897479  -1   0   0 # sc2
    390      9   7 -0.580000    15.868719348    13.734280900    17.302516977  -1   0   0 # oc12
    391      9   7 -0.580000    16.192746412    18.731309059    16.510085747  -1   0   0 # oc12
    392      9   8 -0.940000    14.612237178    12.968574945    14.993835063  -1   0   0 # oc13
    393      9   3 -1.080000     8.082459435    10.890773099    69.589283271   0   0   0 # oc22
    394      9   9 -0.670000    18.402738096    14.752191123    17.531188739  -1   0   0 # oc14
    395      9   1 -0.820000    13.332858516    15.030429692    17.768396048  -1   1   0 # o*
    396      9   7 -0.580000    16.246816350    16.408943835    17.436940217  -1   0   0 # oc12
    397      9   8 -0.940000    14.806720773    16.879890288    15.136778864  -1   0   0 # oc13
    398      9   8 -0.940000    17.435310210    16.920432422    15.046277948  -1   0   0 # oc13
    399      9   1 -0.820000     4.515276979    18.104616259    71.066708548   0   0   0 # o*
    400      9   1 -0.820000     8.168391675    12.627828422    19.734774735  -1   0   0 # o*
    401      9   1 -0.820000    16.958617293     5.559081134    21.353491123   1   2   0 # o*
    402      9  11  1.700000     4.523140443    17.551582569    19.968330910   0   0   0 # casl
    403      9   1 -0.820000     4.765966973    20.351765192    68.349917158   0   0   0 # o*
    404      9  10  0.400000    12.952150557     4.893556015    79.878741706   0   0   0 # hoy
    405      9  10  0.400000    10.239645260    11.442821678    70.852815991   0   0   0 # hoy
    406      9  10  0.400000    18.981383864    14.443213233    18.186177032  -1   0   0 # hoy
    407      9  10  0.400000    21.361557550    17.316655559     9.162070899  -1   0   0 # hoy
    408      9   2  0.410000    19.668401254    12.774617652     9.326346795  -1   0   0 # h*
    409      9   2  0.410000    18.795989423    13.676827440     8.715963972  -1   0   0 # h*
    410      9   2  0.410000    17.281911188    17.873445469     8.060935695  -1   0   0 # h*
    411      9   2  0.410000    16.130355799    17.911885585     7.168610735  -1   0   0 # h*
    412      9   2  0.410000    16.909852999    15.768182648     9.169611286  -1   0   0 # h*
    413      9   2  0.410000    17.661877517    15.540133595     7.962933968  -1   0   0 # h*
    414      9   2  0.410000    19.130427399    15.721906004     6.658118246  -1   0   0 # h*
    415      9   2  0.410000    19.718706744    14.799092647     5.674982246  -1   0   0 # h*
    416      9   2  0.410000    12.737371175    14.928814828    18.561875180  -1   1   0 # h*
    417      9   2  0.410000    14.207819205    15.321171764    18.137355162  -1   1   0 # h*
    418      9   2  0.410000     2.312235562     7.917811429    22.962599587  -1   0   0 # h*
    419      9   2  0.410000     1.895337828     7.122251309    21.833539156  -1   0   0 # h*
    420      9   2  0.410000    17.896969317     5.374006377    21.115835383   1   2   0 # h*
    421      9   2  0.410000    16.793217121     6.284080000    20.721683923   1   2   0 # h*
    422      9   2  0.410000     8.940527430    11.981194368    19.564985040  -1   0   0 # h*
    423      9   2  0.410000     8.562715463    13.474467754    19.393381862  -1   0   0 # h*
    424      9   2  0.410000     4.464672104    17.163031583    71.395286483   0   0   0 # h*
    425      9   2  0.410000     3.617866982    18.392349843    71.343687520   0   0   0 # h*
    426      9   2  0.410000     5.441101207    21.061293523    68.448259482   0   0   0 # h*
    427      9   2  0.410000     3.908150146    20.781406068    68.410119199   0   0   0 # h*
    428      9   2  0.410000    12.330441949    18.546763347    20.563233032   0   1   0 # h*
    429      9   2  0.410000    13.554436852    17.638550018    20.810000255   0   1   0 # h*
    430      9   2  0.410000     8.098407622     5.848030486    79.461153417   0   0   0 # h*
    431      9   2  0.410000     7.734522377     4.398258597    79.469635504   0   0   0 # h*
    432      9   2  0.410000     5.377080109    10.231644632    82.122518664   0   0   0 # h*
    433      9   2  0.410000     4.861925940    11.419801801    82.766457711   0   0   0 # h*
    434      9   2  0.410000    10.344134489     8.473812677    80.129638098   0   0   0 # h*
    435      9   2  0.410000    11.531639126     9.266488747    79.844130580   0   0   0 # h*
    436     10   4  1.500000     7.515819593    15.170594405    14.888021021   0   0   0 # ca+t
    437     10   4  1.500000     4.794802940    16.862423114    12.802370657   0   0   0 # ca+t
    438     10   5  1.000000     7.564219038    14.708162016    11.750166351   0   0   0 # sc2
    439     10   6  1.000000     8.332546487    16.861045058     9.781972641   0   0   0 # sc3
    440     10   5  1.000000     7.530618780    11.709015485    11.832214333   0   0   0 # sc2
    441     10   7 -0.580000     7.514464565    15.621655536    10.304756126   0   0   0 # oc12
    442     10   7 -0.580000     7.588449112    13.232481234    11.233592382   0   0   0 # oc12
    443     10   8 -0.940000     8.910446515    15.052376768    12.650341583   0   0   0 # oc13
    444     10   8 -0.940000     6.231026345    14.962294287    12.564257702   0   0   0 # oc13
    445     10   3 -1.080000    22.001362571     5.579501916    80.929162240   0   0   0 # oc22
    446     10   9 -0.670000     9.960494051    16.818123934    10.116423243   0   0   0 # oc14
    447     10   1 -0.820000     5.226118498    18.213681481     8.055777225   0   0   0 # o*
    448     10   7 -0.580000     7.647193488    18.201635423    10.311881967   0   0   0 # oc12
    449     10   8 -0.940000     6.230808784    11.537418450    12.723848498   0   0   0 # oc13
    450     10   1 -0.820000    22.524209966     9.453937722    80.924760978   0   0   0 # o*
    451     10   1 -0.820000     5.263883888    15.026288709     8.156528330   0   0   0 # o*
    452     10  11  1.700000     9.000089749    11.231482999     6.904406849   0   0   0 # casl
    453     10   1 -0.820000     7.387418066    15.278410648     5.939167409   0   0   0 # o*
    454     10   4  1.500000    18.732624522     9.193956220    76.020876863   0   0   0 # ca+t
    455     10   4  1.500000    21.775864035     7.353844029    73.976720273   0   0   0 # ca+t
    456     10   5  1.000000    18.794097823     8.824545612    72.896455319   0   0   0 # sc2
    457     10   6  1.000000    19.540070935    11.102593893    71.120661844   0   0   0 # sc3
    458     10   5  1.000000    18.795370992     5.796716706    72.871937826   0   0   0 # sc2
    459     10   7 -0.580000    18.838659674     9.733521883    71.533069429   0   0   0 # oc12
    460     10   7 -0.580000    18.919154954     7.310619199    72.352007020   0   0   0 # oc12
    461     10   8 -0.940000    20.125557326     9.121145304    73.765466544   0   0   0 # oc13
    462     10   8 -0.940000    17.490645874     9.160876387    73.827317392   0   0   0 # oc13
    463     10   3 -1.080000     5.038260727    15.354003032    19.511950328   0   0   0 # oc22
    464     10   9 -0.670000    21.115206644    11.102736499    71.506557218   0   0   0 # oc14
    465     10   1 -0.820000    14.616420871    21.100473743    21.346196355  -2  -1   0 # o*
    466     10   7 -0.580000    18.868606877     4.842663011    71.538404526   0   0   0 # oc12
    467     10   8 -0.940000    17.368523171     5.628390853    73.644964336   0   0   0 # oc13
    468     10   1 -0.820000    12.267650139    11.980334128    69.383138945   0  -1   0 # o*
    469     10   4  1.500000    21.478867182    10.979396790    74.046115201   0   0   0 # ca+t
    470     10   4  1.500000    19.046685491     5.521027940    76.267253396   0   0   0 # ca+t
    471     10   5  1.000000    21.601246228    10.690734137    77.347049563   0   0   0 # sc2
    472     10   6  1.000000    22.207350224     5.483142044    79.311929025   0   0   0 # sc3
    473     10   5  1.000000    21.593512212     7.670330806    77.254163628   0   0   0 # sc2
    474     10   7 -0.580000    21.457501788     4.120096144    78.812416965   0   0   0 # oc12
    475     10   7 -0.580000    21.593989974     9.133519902    77.848942415   0   0   0 # oc12
    476     10   8 -0.940000    20.363549376    11.009732553    76.396709764   0   0   0 # oc13
    477     10   3 -1.080000     8.125930848    16.996915529     8.233806642   0   0   0 # oc22
    478     10   9 -0.670000     1.283131558     5.458870575    79.000799671   1   0   0 # oc14
    479     10   1 -0.820000    18.717520999     5.406554869    78.968033280   0   0   0 # o*
    480     10   7 -0.580000    21.452618735     6.793737702    78.696600635   0   0   0 # oc12
    481     10   8 -0.940000    20.386083655     7.436992441    76.157288621   0   0   0 # oc13
    482     10   8 -0.940000    22.905890514     7.438059828    76.398134494   0   0   0 # oc13
    483     10   1 -0.820000     7.971609174    13.082819047     8.356025681   0   0   0 # o*
    484     10   1 -0.820000    17.768737825    10.489781172    83.020296336   0   0   0 # o*
    485     10   4  1.500000     4.684111467    13.258994757    12.884621000   0   0   0 # ca+t
    486     10   4  1.500000     7.720352769    18.848432236    14.992975939   0   0   0 # ca+t
    487     10   5  1.000000     4.671209306    12.872736277    16.027343330   0   0   0 # sc2
    488     10   6  1.000000     5.275044980    15.158698747    17.936451281   0   0   0 # sc3
    489     10   5  1.000000     4.726632404    17.325916617    15.838477161   0   0   0 # sc2
    490     10   7 -0.580000     4.648522204    13.728979783    17.397946139   0   0   0 # oc12
    491     10   7 -0.580000     4.587614529    18.839688114    16.376247304   0   0   0 # oc12
    492     10   8 -0.940000     3.417857597    13.206394918    15.154897182   0   0   0 # oc13
    493     10   3 -1.080000    19.483874202    11.312877468    69.558785936   0   0   0 # oc22
    494     10   9 -0.670000     6.866278928    15.169885797    17.703557349   0   0   0 # oc14
    495     10   1 -0.820000    22.971145191    20.556941883    21.138355000  -1   0   0 # o*
    496     10   7 -0.580000     4.565692286    16.415291729    17.204695374   0   0   0 # oc12
    497     10   8 -0.940000     3.483743429    17.049130160    14.793091658   0   0   0 # oc13
    498     10   8 -0.940000     6.082935528    17.054198304    15.059667893   0   0   0 # oc13
    499     10   1 -0.820000    14.133138761    15.916106490    20.520271659   0   0   0 # o*
    500     10   1 -0.820000    13.211243044    15.749102292    67.024544610   0   0   0 # o*
    501     10   1 -0.820000    20.570267965     1.799788264    67.491837704  -1  -1   0 # o*
    502     10  11  1.700000    19.933696526    18.440273478    20.045082261  -1   0   0 # casl
    503     10   1 -0.820000    21.041747566     0.077690294    19.524605919  -1   1   0 # o*
    504     10  10  0.400000     1.579636387     5.319981588    79.905911726   1   0   0 # hoy
    505     10  10  0.400000    21.548169285    10.614632645    70.787504779   0   0   0 # hoy
    506     10  10  0.400000     7.083013230    15.045667640    18.585442670   0   0   0 # hoy
    507     10  10  0.400000    10.415028524    16.716603541     9.266905528   0   0   0 # hoy
    508     10   2  0.410000     7.932450115    13.062614902     9.427067929   0   0   0 # h*
    509     10   2  0.410000     7.181177800    13.665803818     8.254594311   0   0   0 # h*
    510     10   2  0.410000     5.073994497    17.660815009     7.229932391   0   0   0 # h*
    511     10   2  0.410000     6.181702950    17.881170690     8.221208716   0   0   0 # h*
    512     10   2  0.410000     5.569551959    14.766696975     9.046169277   0   0   0 # h*
    513     10   2  0.410000     5.980718603    15.629989489     7.934875012   0   0   0 # h*
    514     10   2  0.410000     8.132968436    14.686732053     5.763891193   0   0   0 # h*
    515     10   2  0.410000     7.795838936    15.885689182     6.619032744   0   0   0 # h*
    516     10   2  0.410000    22.690915869    19.961083285    20.378598231  -1   0   0 # h*
    517     10   2  0.410000    22.763770626    21.456823484    20.732080934  -1   0   0 # h*
    518     10   2  0.410000    12.910370523    11.473195057    69.965839935   0  -1   0 # h*
    519     10   2  0.410000    12.592681785    12.924291951    69.586135183   0  -1   0 # h*
    520     10   2  0.410000    21.506684953     1.565015092    67.788463001  -1  -1   0 # h*
    521     10   2  0.410000    20.467831205     2.613403679    67.993375025  -1  -1   0 # h*
    522     10   2  0.410000    13.514886686    15.036299441    67.693603613   0   0   0 # h*
    523     10   2  0.410000    12.792530572    15.109576526    66.429115196   0   0   0 # h*
    524     10   2  0.410000    15.046295221    15.555616233    20.292814610   0   0   0 # h*
    525     10   2  0.410000    13.687816143    15.081463175    20.863913066   0   0   0 # h*
    526     10   2  0.410000    21.222857810    -0.237647554    18.582320105  -1   1   0 # h*
    527     10   2  0.410000    21.245189214     0.998035115    19.403981749  -1   1   0 # h*
    528     10   2  0.410000    13.922072718    20.404269564    21.397427591  -2  -1   0 # h*
    529     10   2  0.410000    15.437055769    20.581693309    21.201603718  -2  -1   0 # h*
    530     10   2  0.410000    18.905262576     5.965192815    79.733437970   0   0   0 # h*
    531     10   2  0.410000    19.318652199     4.643198240    79.115250751   0   0   0 # h*
    532     10   2  0.410000    17.434475835     9.898459788    82.297265699   0   0   0 # h*
    533     10   2  0.410000    18.703110462    10.066360786    83.057285814   0   0   0 # h*
    534     10   2  0.410000    22.616213957     8.807442921    80.267241214   0   0   0 # h*
    535     10   2  0.410000     0.914366932     9.686769515    81.154905729   1   0   0 # h*
    536     11   4  1.500000    18.710933422     0.199765775    14.700033794  -1   1   0 # ca+t
    537     11   4  1.500000    16.019230162     1.989852503    12.676741165  -1   1   0 # ca+t
    538     11   5  1.000000    18.821979137    -0.173975163    11.578577222  -1   1   0 # sc2
    539     11   6  1.000000    19.547157304     1.877404259     9.601844568  -1   1   0 # sc3
    540     11   5  1.000000    18.773999803    18.999797421    11.679578641  -1   0   0 # sc2
    541     11   7 -0.580000    18.698494050     0.685090577    10.192752135  -1   1   0 # oc12
    542     11   7 -0.580000    18.755128145    20.581410352    11.089635582  -1   0   0 # oc12
    543     11   8 -0.940000    20.223642697     0.018144022    12.270061357  -1   1   0 # oc13
    544     11   8 -0.940000    17.616641714     0.101332388    12.582239237  -1   1   0 # oc13
    545     11   3 -1.080000    11.159745435    12.650879838    80.677504910   0   0   0 # oc22
    546     11   9 -0.670000    21.174743625     1.692372354     9.814905149  -1   1   0 # oc14
    547     11   1 -0.820000    16.580321422     3.637969107     7.449211978  -1   1   0 # o*
    548     11   7 -0.580000    18.926777399     3.292587219    10.122229517  -1   1   0 # oc12
    549     11   8 -0.940000    17.523739608    18.681803223    12.594388747  -1   0   0 # oc13
    550     11   1 -0.820000     8.352984887    14.923201708    81.229199742   0   0   0 # o*
    551     11   1 -0.820000    16.139285812     2.257434537    10.043249838  -1   1   0 # o*
    552     11  11  1.700000    20.125777835    18.665468580     6.863932595  -1   0   0 # casl
    553     11   1 -0.820000    18.680640943     0.181845102     5.795717817  -1   1   0 # o*
    554     11   4  1.500000     7.438796743    16.518028095    76.344447092   0   0   0 # ca+t
    555     11   4  1.500000    10.382291225    14.666886071    74.220680448   0   0   0 # ca+t
    556     11   5  1.000000     7.667556206    16.226279638    73.109048400   0   0   0 # sc2
    557     11   5  1.000000     7.513189208    13.135360613    73.034378497   0   0   0 # sc2
    558     11   7 -0.580000     7.586620331    17.220813327    71.723056848   0   0   0 # oc12
    559     11   7 -0.580000     7.606800316    14.661747836    72.491404478   0   0   0 # oc12
    560     11   8 -0.940000     8.888591874    16.414484526    74.039490142   0   0   0 # oc13
    561     11   8 -0.940000     6.352584968    16.510998736    73.977378461   0   0   0 # oc13
    562     11   3 -1.080000    16.845395538     0.113116817    19.355945187  -1   1   0 # oc22
    563     11   1 -0.820000    17.691281903     2.483699296    66.381692345  -1   0   0 # o*
    564     11   7 -0.580000     7.442930298    12.264302981    71.611418080   0   0   0 # oc12
    565     11   8 -0.940000     6.242620920    12.921910087    73.954888142   0   0   0 # oc13
    566     11   4  1.500000     7.600224955    12.784649975    76.318983327   0   0   0 # ca+t
    567     11   5  1.000000    10.325491945    18.132539527    77.292732826   0   0   0 # sc2
    568     11   6  1.000000    11.210277389    12.781023056    79.121693574   0   0   0 # sc3
    569     11   5  1.000000    10.372244195    15.079383079    77.348321506   0   0   0 # sc2
    570     11   7 -0.580000    10.260339212    11.621114395    78.499058822   0   0   0 # oc12
    571     11   7 -0.580000    10.366072409    16.631295491    77.892912769   0   0   0 # oc12
    572     11   8 -0.940000     8.991080712    18.355303701    76.365800458   0   0   0 # oc13
    573     11   3 -1.080000    19.297608038     1.910719752     8.017305936  -1   1   0 # oc22
    574     11   9 -0.670000    12.731876918    12.730533172    78.635077729   0   0   0 # oc14
    575     11   1 -0.820000     8.020561799    10.722057420    81.111964004   0   0   0 # o*
    576     11   7 -0.580000    10.501715320    14.213908366    78.671476157   0   0   0 # oc12
    577     11   8 -0.940000     8.996755002    14.742339128    76.592338185   0   0   0 # oc13
    578     11   8 -0.940000    11.636921585    14.780715400    76.372154328   0   0   0 # oc13
    579     11   1 -0.820000    19.364424841    20.290054911     8.273936649  -1   0   0 # o*
    580     11   4  1.500000    15.923882521    20.594060043    12.752213978  -1   0   0 # ca+t
    581     11   5  1.000000    16.085755455    20.277470563    15.984264545  -1   0   0 # sc2
    582     11   6  1.000000    16.911219302     0.177602471    17.800548755  -1   1   0 # sc3
    583     11   5  1.000000    16.087871561     2.386644324    15.855435205  -1   1   0 # sc2
    584     11   7 -0.580000    16.154993577    21.131020465    17.317643314  -1   0   0 # oc12
    585     11   8 -0.940000    14.745161494    20.507296497    15.120777832  -1   0   0 # oc13
    586     11   9 -0.670000    18.473310153     0.211126335    17.348858319  -1   1   0 # oc14
    587     11   1 -0.820000     1.800095021     2.409338545    20.275993933  -1   1   0 # o*
    588     11   7 -0.580000    16.162184875     1.531048254    17.311859890  -1   1   0 # oc12
    589     11   8 -0.940000    14.762236957     2.089518817    15.043337848  -1   1   0 # oc13
    590     11   8 -0.940000    17.330033729     2.239305918    14.915301347  -1   1   0 # oc13
    591     11   1 -0.820000     3.370245673     4.988855320    68.136046320   0   1   0 # o*
    592     11   1 -0.820000    19.623667948     5.200797199    19.771213544  -1   2   0 # o*
    593     11   1 -0.820000    13.283447978    -0.381407857    18.701922874  -1   1   0 # o*
    594     11  11  1.700000    18.262718494     1.528362115    68.609525500  -1   1   0 # casl
    595     11   1 -0.820000    11.381000379    21.424661866    20.764066163  -1  -1   0 # o*
    596     11  10  0.400000    13.277797036    12.617063959    79.372407792   0   0   0 # hoy
    597     11  10  0.400000    18.837456362     0.270202112    18.215596652  -1   1   0 # hoy
    598     11  10  0.400000    21.489578684     1.079088200     9.076302435  -1   1   0 # hoy
    599     11   2  0.410000    18.800738686    20.906989495     7.723668386  -1   0   0 # h*
    600     11   2  0.410000    19.161597181    20.614200758     9.172353426  -1   0   0 # h*
    601     11   2  0.410000    16.037814559     3.005787588     6.881578056  -1   1   0 # h*
    602     11   2  0.410000    17.379499843     3.106871100     7.666584486  -1   1   0 # h*
    603     11   2  0.410000    15.434958877     2.462117941     9.356579277  -1   1   0 # h*
    604     11   2  0.410000    16.719761038     2.974598491     9.803397187  -1   1   0 # h*
    605     11   2  0.410000    19.473137635    -0.316295816     5.610664138  -1   1   0 # h*
    606     11   2  0.410000    19.067331247     0.822690336     6.413249983  -1   1   0 # h*
    607     11   2  0.410000     0.941935792     2.956889821    20.153188037  -1   1   0 # h*
    608     11   2  0.410000     1.534334906     1.545196106    20.481322618  -1   1   0 # h*
    609     11   2  0.410000    13.679191886    20.972528297    18.696455099  -1   0   0 # h*
    610     11   2  0.410000    12.472517829    -0.528641397    19.186621843  -1   1   0 # h*
    611     11   2  0.410000    19.909444270     5.738920904    19.020267819  -1   2   0 # h*
    612     11   2  0.410000    20.292468714     4.396176989    19.679708429  -1   2   0 # h*
    613     11   2  0.410000     2.816413210     5.613553370    68.681800562   0   1   0 # h*
    614     11   2  0.410000     2.726539946     4.441115990    67.722118013   0   1   0 # h*
    615     11   2  0.410000    11.383698329    20.491716005    20.391400541  -1  -1   0 # h*
    616     11   2  0.410000    10.466081174    21.462365917    21.133086741  -1  -1   0 # h*
    617     11   2  0.410000    18.377995739     2.344897369    65.652427994  -1   0   0 # h*
    618     11   2  0.410000    17.800931584     3.474523066    66.525908897  -1   0   0 # h*
    619     11   2  0.410000     7.139792675    10.859999045    81.454301662   0   0   0 # h*
    620     11   2  0.410000     7.806209332    10.015060154    80.433569929   0   0   0 # h*
    621     11   2  0.410000     8.585044145    15.592033093    81.913662452   0   0   0 # h*
    622     11   2  0.410000     9.200615042    14.793057111    80.753662628   0   0   0 # h*
    623     12   4  1.500000     7.464714859     0.210038762    14.919951709   0   1   0 # ca+t
    624     12   4  1.500000     4.950052694     2.068345282    12.731579367   0   1   0 # ca+t
    625     12   5  1.000000     7.536757345    -0.226165638    11.704331364   0   1   0 # sc2
    626     12   6  1.000000     8.324205120     1.984637070     9.858491315   0   1   0 # sc3
    627     12   5  1.000000     7.516241707    19.034093992    11.738592109   0   0   0 # sc2
    628     12   7 -0.580000     7.658169323     0.645670562    10.306762489   0   1   0 # oc12
    629     12   7 -0.580000     7.557615124    20.550957256    11.144451842   0   0   0 # oc12
    630     12   8 -0.940000     8.805515454     0.082679870    12.614802976   0   1   0 # oc13
    631     12   8 -0.940000     6.225145408     0.130276794    12.554861558   0   1   0 # oc13
    632     12   3 -1.080000    22.146779233    12.724733078    80.742891732   0   0   0 # oc22
    633     12   9 -0.670000     9.872033540     1.980633432    10.357079486   0   1   0 # oc14
    634     12   1 -0.820000     5.149608390     3.471876255     8.960695183   0   1   0 # o*
    635     12   7 -0.580000     7.516336078     3.198869696    10.420562315   0   1   0 # oc12
    636     12   8 -0.940000     6.099136248    18.699589654    12.531500478   0   0   0 # oc13
    637     12   1 -0.820000    22.367683086    16.729164718    80.743337011   0   0   0 # o*
    638     12   1 -0.820000     5.447775507     0.715519362     8.287936210   0   1   0 # o*
    639     12  11  1.700000     8.970295299    18.694126359     6.838578212   0   0   0 # casl
    640     12   1 -0.820000     7.419166157     0.169073555     5.764712618   0   1   0 # o*
    641     12   4  1.500000    18.823376715    16.495292506    76.385894698   0   0   0 # ca+t
    642     12   4  1.500000    21.873982343    14.622452625    74.059157757   0   0   0 # ca+t
    643     12   5  1.000000    18.838651442    16.246894617    73.166340617   0   0   0 # sc2
    644     12   5  1.000000    18.734344953    13.205546716    73.124746943   0   0   0 # sc2
    645     12   7 -0.580000    18.617494609    17.186795696    71.859333551   0   0   0 # oc12
    646     12   7 -0.580000    18.744977252    14.720514874    72.561134788   0   0   0 # oc12
    647     12   8 -0.940000    20.260907880    16.472870771    73.888360201   0   0   0 # oc13
    648     12   8 -0.940000    17.696164198    16.528274913    74.226155055   0   0   0 # oc13
    649     12   3 -1.080000     4.788571589     0.312405753    19.373381158   0   1   0 # oc22
    650     12   1 -0.820000     9.249911533     7.718492217    67.130420009   0   0   0 # o*
    651     12   7 -0.580000    18.733752317    12.343727537    71.739620782   0   0   0 # oc12
    652     12   8 -0.940000    17.435768764    12.841665043    73.938372456   0   0   0 # oc13
    653     12   4  1.500000    18.899962032    12.835555098    76.342462357   0   0   0 # ca+t
    654     12   5  1.000000    21.626851788    18.073020978    77.343200459   0   0   0 # sc2
    655     12   6  1.000000    22.383393580    12.745332030    79.201293919   0   0   0 # sc3
    656     12   5  1.000000    21.664379009    14.979926148    77.273672423   0   0   0 # sc2
    657     12   7 -0.580000    21.570001651    11.534527767    78.725712435   0   0   0 # oc12
    658     12   7 -0.580000    21.615162555    16.554125006    77.843820467   0   0   0 # oc12
    659     12   8 -0.940000    20.382423563    18.474239581    76.480173853   0   0   0 # oc13
    660     12   3 -1.080000     8.275093267     2.091141601     8.382694394   0   1   0 # oc22
    661     12   9 -0.670000     1.484190373    12.682591425    78.915742008   1   0   0 # oc14
    662     12   1 -0.820000    19.563108631    10.544018209    80.547835054   0   0   0 # o*
    663     12   7 -0.580000    21.726456233    14.121691641    78.671878278   0   0   0 # oc12
    664     12   8 -0.940000    20.369190239    14.682853366    76.458945513   0   0   0 # oc13
    665     12   8 -0.940000    22.948751848    14.768995060    76.376443847   0   0   0 # oc13
    666     12   1 -0.820000     8.009422006    20.357841932     8.222474382   0   0   0 # o*
    667     12   4  1.500000     4.544020450    20.616317480    12.452475904   0   0   0 # ca+t
    668     12   5  1.000000     4.730162114    20.369897890    15.853481727   0   0   0 # sc2
    669     12   6  1.000000     5.221638656     0.261588156    17.903169302   0   1   0 # sc3
    670     12   5  1.000000     4.718552853     2.372931392    15.823251896   0   1   0 # sc2
    671     12   7 -0.580000     4.610654531    21.214399501    17.298643247   0   0   0 # oc12
    672     12   8 -0.940000     3.514044482    20.646313723    14.905465331   0   0   0 # oc13
    673     12   9 -0.670000     6.822825546     0.259974216    17.818051690   0   1   0 # oc14
    674     12   1 -0.820000    13.472003755    19.578036856    68.301314574   1   1   0 # o*
    675     12   7 -0.580000     4.532039951     1.581082731    17.161565390   0   1   0 # oc12
    676     12   8 -0.940000     3.562951442     2.105294176    14.767257465   0   1   0 # oc13
    677     12   8 -0.940000     6.121279743     2.074945401    15.121565744   0   1   0 # oc13
    678     12   1 -0.820000     2.054304960    16.815179495    19.799961303   0   0   0 # o*
    679     12   1 -0.820000    19.834811871    12.799632963    19.907416801   0   0   0 # o*
    680     12   1 -0.820000    17.660644472    17.450343802    20.688850822  -2   0   0 # o*
    681     12  11  1.700000    15.390870634     9.904356160    19.705223507   0   1   0 # casl
    682     12   1 -0.820000     4.069537257     4.094848508    70.917558369   1   1   0 # o*
    683     12  10  0.400000     1.872577894    12.128938851    79.576716637   1   0   0 # hoy
    684     12  10  0.400000     7.078675965     0.106993343    18.680490442   0   1   0 # hoy
    685     12  10  0.400000    10.252427766     1.967237864     9.449664204   0   1   0 # hoy
    686     12   2  0.410000     7.678344712    20.091177621     9.119183519   0   0   0 # h*
    687     12   2  0.410000     8.437238223    21.231879587     8.527800183   0   0   0 # h*
    688     12   2  0.410000     6.048744064     3.716422539     8.698059170   0   1   0 # h*
    689     12   2  0.410000     5.167431751     2.518864039     8.658307069   0   1   0 # h*
    690     12   2  0.410000     5.805374943     0.317550891     9.115678898   0   1   0 # h*
    691     12   2  0.410000     6.356695492     1.091053352     8.000126866   0   1   0 # h*
    692     12   2  0.410000     7.761613301     0.698320465     6.537991654   0   1   0 # h*
    693     12   2  0.410000     8.214200037    -0.410621972     5.569380269   0   1   0 # h*
    694     12   2  0.410000    13.327545046    20.050620606    67.468658061   1   1   0 # h*
    695     12   2  0.410000    13.461241825    20.364358698    68.881656534   1   1   0 # h*
    696     12   2  0.410000    17.268026837    16.646743948    20.247957143  -2   0   0 # h*
    697     12   2  0.410000    16.853271562    17.910001193    21.076101422  -2   0   0 # h*
    698     12   2  0.410000    20.549905555    13.213268875    20.392419853   0   0   0 # h*
    699     12   2  0.410000    20.328344379    12.116553165    19.403730017   0   0   0 # h*
    700     12   2  0.410000     1.440801043    16.074013390    19.904317029   0   0   0 # h*
    701     12   2  0.410000     1.365072174    17.507084909    19.737441412   0   0   0 # h*
    702     12   2  0.410000     3.458347938     4.825623779    71.300033316   1   1   0 # h*
    703     12   2  0.410000     3.475877006     3.363621424    71.081408276   1   1   0 # h*
    704     12   2  0.410000     8.477624736     8.129171870    67.578462916   0   0   0 # h*
    705     12   2  0.410000     9.046879000     8.160065716    66.293310099   0   0   0 # h*
    706     12   2  0.410000    20.183321599    10.030747296    79.917647991   0   0   0 # h*
    707     12   2  0.410000    18.720398360    10.064285638    80.381128538   0   0   0 # h*
    708     12   2  0.410000    22.302139994    16.537171868    79.748414936   0   0   0 # h*
    709     12   2  0.410000     0.779659110    16.784965938    80.975882471   1   0   0 # h*
    710     13   4  1.500000     8.589672035    -0.164695397    90.149392089   0   0   0 # ca+t
    711     13   4  1.500000     6.035304615     1.736734899    87.985195580   0   0   0 # ca+t
    712     13   5  1.000000     8.705013999    -0.446342239    86.941425131   0   0   0 # sc2
    713     13   6  1.000000     9.565874288     1.673114092    85.035901068   0   0   0 # sc3
    714     13   5  1.000000     8.840896341    18.649709138    86.920035074   0  -1   0 # sc2
    715     13   7 -0.580000     8.607979995     0.542851472    85.649970357   0   0   0 # oc12
    716     13   7 -0.580000     8.735432773    20.232041866    86.338066059   0  -1   0 # oc12
    717     13   8 -0.940000    10.013988002    -0.197113498    87.762097300   0   0   0 # oc13
    718     13   8 -0.940000     7.442990579    -0.283978865    87.924598285   0   0   0 # oc13
    719     13   9 -0.670000    11.143859964     1.451900290    85.471626267   0   0   0 # oc14
    720     13   1 -0.820000     6.112003518     2.565566757    84.846924523   0   0   0 # o*
    721     13   7 -0.580000     8.984367061     3.055436451    85.569381062   0   0   0 # oc12
    722     13   8 -0.940000     7.613949243    18.342397060    87.863276195   0  -1   0 # oc13
    723     13   1 -0.820000     6.297673765     0.224619844    83.315432985   0   0   0 # o*
    724     13  11  1.700000    10.190541114    18.627795995    82.484666855   0  -1   0 # casl
    725     13   1 -0.820000     8.781333409     0.404780283    81.257980679   0   0   0 # o*
    726     13   4  1.500000    10.433283965    -0.121275025   101.564827442   0   0   0 # ca+t
    727     13   5  1.000000     7.464650890     1.331479995   100.960354932   0   0   0 # sc2
    728     13   6  1.000000     8.039167742     3.539676967    98.937835478   0   0   0 # sc3
    729     13   5  1.000000     7.484385000    20.531456571   100.947645249   0  -1   0 # sc2
    730     13   7 -0.580000     7.360715352     2.272340292    99.537957974   0   0   0 # oc12
    731     13   7 -0.580000     7.332966735    -0.213320632   100.431619119   0   0   0 # oc12
    732     13   8 -0.940000     8.818660247     1.611936729   101.776332720   0   0   0 # oc13
    733     13   8 -0.940000     6.126145844     1.694266008   101.860959764   0   0   0 # oc13
    734     13   3 -1.080000     6.524081077    -0.223862678    94.727826413   0   0   0 # oc22
    735     13   9 -0.670000     9.696819111     3.583566533    99.086210410   0   0   0 # oc14
    736     13   1 -0.820000    10.131504152     0.095120703    98.915529986   0   0   0 # o*
    737     13   7 -0.580000     7.296168004    19.676808962    99.562402597   0  -1   0 # oc12
    738     13   8 -0.940000     6.308337579    20.212827978   101.990396062   0  -1   0 # oc13
    739     13   1 -0.820000     6.117535424     3.615075421    94.580249487   0   0   0 # o*
    740     13   4  1.500000    10.081152902     3.520959109   101.907791294   0   0   0 # ca+t
    741     13   3 -1.080000     9.414214677     1.756146913    83.487779940   0   0   0 # oc22
    742     13   1 -0.820000     8.450984009    20.304348810    83.159624779   0  -1   0 # o*
    743     13   4  1.500000     5.891978704    20.196053614    88.009000404   0  -1   0 # ca+t
    744     13   4  1.500000     8.783010469     3.502128656    90.264747472   0   0   0 # ca+t
    745     13   5  1.000000     5.787804239    19.942580856    91.205495343   0  -1   0 # sc2
    746     13   6  1.000000     6.669179328    -0.208288458    93.171858618   0   0   0 # sc3
    747     13   5  1.000000     5.961059782     2.032603089    91.234573507   0   0   0 # sc2
    748     13   7 -0.580000     5.864722601    20.800133836    92.572845403   0  -1   0 # oc12
    749     13   7 -0.580000     6.029340710     3.588313535    91.826426710   0   0   0 # oc12
    750     13   8 -0.940000     4.557551755    20.281247026    90.259017460   0  -1   0 # oc13
    751     13   3 -1.080000     7.704250884     3.521400060    97.346335700   0   0   0 # oc22
    752     13   9 -0.670000     8.222572294    -0.354787129    92.922043221   0   0   0 # oc14
    753     13   1 -0.820000     9.046035682     4.029126655    93.015432580   0   0   0 # o*
    754     13   7 -0.580000     6.021649234     1.178009714    92.653389335   0   0   0 # oc12
    755     13   8 -0.940000     4.636467453     1.769159348    90.386288111   0   0   0 # oc13
    756     13   8 -0.940000     7.177821954     1.778425861    90.238067732   0   0   0 # oc13
    757     13   1 -0.820000     7.873103760    -0.154264982    97.537394135   0   0   0 # o*
    758     13   1 -0.820000    10.431442560    19.971254309    96.931273867   0  -1   0 # o*
    759     13   1 -0.820000     9.153610410     1.980468822    94.845226055   0   0   0 # o*
    760     13  11  1.700000     6.995686673     1.765217696    95.985972907   0   0   0 # casl
    761     13   1 -0.820000     3.599451283    20.247441364    94.888196512   0  -1   0 # o*
    762     13  10  0.400000    10.086713015     2.960998811    98.525764418   0   0   0 # hoy
    763     13  10  0.400000     8.491809073    -0.529960630    93.762361181   0   0   0 # hoy
    764     13  10  0.400000    11.621372975     1.347588263    84.699985253   0   0   0 # hoy
    765     13   2  0.410000     8.480821181    20.548086069    84.125946152   0  -1   0 # h*
    766     13   2  0.410000     7.706625651    20.831740244    82.825248513   0  -1   0 # h*
    767     13   2  0.410000     6.067563897     3.506014782    85.081169663   0   0   0 # h*
    768     13   2  0.410000     7.114914819     2.589762994    84.835556750   0   0   0 # h*
    769     13   2  0.410000     7.007677773     0.674594461    82.830827550   0   0   0 # h*
    770     13   2  0.410000     6.314802389     0.796328226    84.130979749   0   0   0 # h*
    771     13   2  0.410000     9.670717253     0.131859515    80.912874567   0   0   0 # h*
    772     13   2  0.410000     9.044867582     0.598912955    82.181551908   0   0   0 # h*
    773     13   2  0.410000     8.684231230     4.732285341    93.629862515   0   0   0 # h*
    774     13   2  0.410000     9.958616239     4.376716698    93.119686828   0   0   0 # h*
    775     13   2  0.410000     5.851745500     4.564211833    94.648964025   0   0   0 # h*
    776     13   2  0.410000     5.891735700     3.598067894    93.615531152   0   0   0 # h*
    777     13   2  0.410000     9.188798431     2.549740274    93.987357824   0   0   0 # h*
    778     13   2  0.410000    10.040690733     2.346393274    95.140098561   0   0   0 # h*
    779     13   2  0.410000     9.561605897    19.734517328    96.524589753   0  -1   0 # h*
    780     13   2  0.410000    10.042489335    19.856317798    97.833981646   0  -1   0 # h*
    781     13   2  0.410000     7.422445207    -0.382259995    98.369371072   0   0   0 # h*
    782     13   2  0.410000     8.697322502    -0.507651748    97.869101811   0   0   0 # h*
    783     13   2  0.410000     4.266218035    20.033429424    95.576631716   0  -1   0 # h*
    784     13   2  0.410000     4.040423675    21.005981939    94.415345515   0  -1   0 # h*
    785     13   2  0.410000    10.827541580    -0.348845878    98.303701202   0   0   0 # h*
    786     13   2  0.410000    10.212533515     0.991561101    98.575962235   0   0   0 # h*
    787     14   4  1.500000    19.979414396    -0.161836305    90.173491014   0   0   0 # ca+t
    788     14   4  1.500000    17.264012413     1.741877998    87.942014005   0   0   0 # ca+t
    789     14   5  1.000000    20.047432363    -0.411582398    87.014608068   0   0   0 # sc2
    790     14   6  1.000000    20.774830763     1.798628165    85.095378916   0   0   0 # sc3
    791     14   5  1.000000    19.962692602    18.726994891    86.897620282   0  -1   0 # sc2
    792     14   7 -0.580000    20.001048910     0.487387584    85.675592638   0   0   0 # oc12
    793     14   7 -0.580000    19.935646507    20.314735576    86.405597315   0  -1   0 # oc12
    794     14   8 -0.940000    21.342827786    -0.350979141    87.890782527   0   0   0 # oc13
    795     14   8 -0.940000    18.775410046    -0.077756547    87.913731131   0   0   0 # oc13
    796     14   9 -0.670000    22.372819876     1.691360010    85.439919327   0   0   0 # oc14
    797     14   1 -0.820000    14.825518950     1.662009094    83.611393936   0   0   0 # o*
    798     14   7 -0.580000    20.059291152     3.119428117    85.662751902   0   0   0 # oc12
    799     14   8 -0.940000    18.718514891    18.381739889    87.779261976   0  -1   0 # oc13
    800     14   1 -0.820000    17.310536227     2.363967139    85.319835791   0   0   0 # o*
    801     14  11  1.700000    20.951669994    18.631556856    82.047590178   0  -1   0 # casl
    802     14   1 -0.820000    17.893034131     0.425639093    83.503596059   0   0   0 # o*
    803     14   4  1.500000    21.508806116    -0.180199589   101.907433755   0   0   0 # ca+t
    804     14   5  1.000000    18.668224694     1.354407192   100.902891088   0   0   0 # sc2
    805     14   6  1.000000    19.295595453     3.535086019    99.069226627   0   0   0 # sc3
    806     14   5  1.000000    18.813612799    20.506724410   100.938684755   0  -1   0 # sc2
    807     14   7 -0.580000    18.577132366     2.193406816    99.495974352   0   0   0 # oc12
    808     14   7 -0.580000    18.783049986    -0.215029851   100.344781147   0   0   0 # oc12
    809     14   8 -0.940000    20.026584314     1.752944466   101.758517784   0   0   0 # oc13
    810     14   8 -0.940000    17.379539201     1.600584536   101.690043745   0   0   0 # oc13
    811     14   3 -1.080000    18.086108781    -0.042265185    94.673912921   0   0   0 # oc22
    812     14   9 -0.670000    20.859165042     3.546614939    99.546104261   0   0   0 # oc14
    813     14   1 -0.820000    22.096550112     1.064521856    97.826546546   0   0   0 # o*
    814     14   7 -0.580000    18.893101253    19.675093436    99.523391887   0  -1   0 # oc12
    815     14   8 -0.940000    17.351823804    20.269985702   101.715452820   0  -1   0 # oc13
    816     14   1 -0.820000    17.637460889     3.473129763    94.550429113   0   0   0 # o*
    817     14   4  1.500000    21.507543892     3.518983147   101.957363028   0   0   0 # ca+t
    818     14   3 -1.080000    20.562745649     1.825998985    83.542829871   0   0   0 # oc22
    819     14   1 -0.820000    19.887828285    20.261493517    83.681612215   0  -1   0 # o*
    820     14   4  1.500000    17.261587143    20.335910256    88.010459123   0  -1   0 # ca+t
    821     14   4  1.500000    20.007275485     3.612902757    90.458363085   0   0   0 # ca+t
    822     14   5  1.000000    17.229992803    19.963478847    91.270747147   0  -1   0 # sc2
    823     14   6  1.000000    18.104276202    -0.081786605    93.077788363   0   0   0 # sc3
    824     14   5  1.000000    17.195978944     1.984290365    91.121558259   0   0   0 # sc2
    825     14   7 -0.580000    17.379661642    20.825310044    92.687842240   0  -1   0 # oc12
    826     14   7 -0.580000    17.076647132     3.561860639    91.645136157   0   0   0 # oc12
    827     14   8 -0.940000    15.851948371    20.219606892    90.459364869   0  -1   0 # oc13
    828     14   3 -1.080000    19.101842347     3.561343965    97.492890553   0   0   0 # oc22
    829     14   9 -0.670000    19.660237445    -0.020591712    92.556568423   0   0   0 # oc14
    830     14   1 -0.820000    19.533847964     5.448120912    95.400624701   0   0   0 # o*
    831     14   7 -0.580000    17.224698696     1.109551915    92.504214839   0   0   0 # oc12
    832     14   8 -0.940000    15.900415294     1.680033031    90.205255544   0   0   0 # oc13
    833     14   8 -0.940000    18.460095878     1.765264774    90.250563149   0   0   0 # oc13
    834     14   1 -0.820000    19.583507640    -0.096933151    97.576748106   0   0   0 # o*
    835     14   1 -0.820000    21.368000410    19.898136204    96.691803859   0  -1   0 # o*
    836     14   1 -0.820000    20.149378447     3.712517287    93.103353834   0   0   0 # o*
    837     14  11  1.700000    18.680701112     1.776085318    96.045203449   0   0   0 # casl
    838     14   1 -0.820000    17.217282628    20.379271942    96.675993112   0  -1   0 # o*
    839     14  10  0.400000    21.208908866     4.003912441    98.837943848   0   0   0 # hoy
    840     14  10  0.400000    20.119078950    -0.192717314    93.344762108   0   0   0 # hoy
    841     14  10  0.400000    22.766489678     1.974410243    84.623762018   0   0   0 # hoy
    842     14   2  0.410000    19.653954849    20.038499394    84.611703986   0  -1   0 # h*
    843     14   2  0.410000    19.531561429    21.201736730    83.476616748   0  -1   0 # h*
    844     14   2  0.410000    14.768231216     1.341103854    84.555363382   0   0   0 # h*
    845     14   2  0.410000    14.396514759     2.525451659    83.765902060   0   0   0 # h*
    846     14   2  0.410000    18.215824633     2.681761784    85.078217325   0   0   0 # h*
    847     14   2  0.410000    16.830527819     3.163132081    84.913561132   0   0   0 # h*
    848     14   2  0.410000    18.718986300     0.893251300    83.248084191   0   0   0 # h*
    849     14   2  0.410000    17.651380414     0.991313639    84.293742819   0   0   0 # h*
    850     14   2  0.410000    18.859453451     6.100652876    95.166947084   0   0   0 # h*
    851     14   2  0.410000    18.998593644     4.895427860    96.015942969   0   0   0 # h*
    852     14   2  0.410000    17.200788549     4.299873536    94.355433917   0   0   0 # h*
    853     14   2  0.410000    17.549334493     3.065410704    93.648370884   0   0   0 # h*
    854     14   2  0.410000    21.070450310     3.424442069    93.428578018   0   0   0 # h*
    855     14   2  0.410000    19.957881330     4.300914473    93.898937816   0   0   0 # h*
    856     14   2  0.410000    20.599030195    20.539999605    96.700222689   0  -1   0 # h*
    857     14   2  0.410000    20.728241334    19.120735706    96.726603134   0  -1   0 # h*
    858     14   2  0.410000    20.427361379     0.278175354    97.889276101   0   0   0 # h*
    859     14   2  0.410000    19.255236064    -0.315223320    98.492906341   0   0   0 # h*
    860     14   2  0.410000    17.717374364    21.147121820    96.273220400   0  -1   0 # h*
    861     14   2  0.410000    18.012712947    19.746155806    96.822216355   0  -1   0 # h*
    862     14   2  0.410000    22.488361121     1.611040107    98.567066038   0   0   0 # h*
    863     14   2  0.410000    22.832565339     0.462475337    97.591020364   0   0   0 # h*
    864     15   4  1.500000     8.698399399     7.251391649    90.088848186   0   0   0 # ca+t
    865     15   4  1.500000     6.015973532     9.130692232    87.925107856   0   0   0 # ca+t
    866     15   5  1.000000     8.839811061     6.997136767    86.919241078   0   0   0 # sc2
    867     15   6  1.000000     9.810520806     9.092442849    84.965248167   0   0   0 # sc3
    868     15   5  1.000000     8.884722683     3.913277074    86.998961779   0   0   0 # sc2
    869     15   7 -0.580000     8.974194656     7.847125540    85.527895618   0   0   0 # oc12
    870     15   7 -0.580000     8.960213237     5.469697560    86.452049687   0   0   0 # oc12
    871     15   8 -0.940000    10.057519143     7.290174617    87.984220172   0   0   0 # oc13
    872     15   8 -0.940000     7.401092236     7.198728789    87.587222858   0   0   0 # oc13
    873     15   9 -0.670000    11.366750385     9.163018271    85.500078637   0   0   0 # oc14
    874     15   1 -0.820000     6.099588592     9.405665866    85.296621045   0   0   0 # o*
    875     15   7 -0.580000     8.912930591    10.365502927    85.485563842   0   0   0 # oc12
    876     15   8 -0.940000     7.445181589     3.720781209    87.730418832   0   0   0 # oc13
    877     15   1 -0.820000     6.308410707     7.548523644    83.202718898   0   0   0 # o*
    878     15  11  1.700000     9.881591939     3.521287019    82.030542990   0   0   0 # casl
    879     15   1 -0.820000     8.566705275     7.540632365    81.191035255   0   0   0 # o*
    880     15   4  1.500000    10.241909880     7.298679760   101.651318677   0   0   0 # ca+t
    881     15   5  1.000000     7.365423637     8.762682792   101.113408072   0   0   0 # sc2
    882     15   6  1.000000     8.057616409    10.979793414    99.191640996   0   0   0 # sc3
    883     15   5  1.000000     7.412613605     5.703401026   100.960297786   0   0   0 # sc2
    884     15   7 -0.580000     7.216625171     9.725220615    99.822700523   0   0   0 # oc12
    885     15   7 -0.580000     7.468046059     7.269114918   100.480207866   0   0   0 # oc12
    886     15   8 -0.940000     8.692638852     9.153184584   101.887122805   0   0   0 # oc13
    887     15   8 -0.940000     6.069288945     8.905909319   102.047728675   0   0   0 # oc13
    888     15   3 -1.080000     6.587581015     7.437850384    94.669857711   0   0   0 # oc22
    889     15   9 -0.670000     9.636980251    10.940237275    99.434967114   0   0   0 # oc14
    890     15   1 -0.820000    10.461743984     7.724247788    98.953618036   0   0   0 # o*
    891     15   7 -0.580000     7.311411257     4.867957458    99.565426520   0   0   0 # oc12
    892     15   8 -0.940000     6.120882828     5.569174726   101.844341214   0   0   0 # oc13
    893     15   1 -0.820000     6.128437309    11.448875524    94.657482293   0   0   0 # o*
    894     15   4  1.500000     9.998401224    10.978652838   102.136702311   0   0   0 # ca+t
    895     15   3 -1.080000     9.724100918     9.097394169    83.391434175   0   0   0 # oc22
    896     15   1 -0.820000     9.042216331     5.309560637    83.725573769   0   0   0 # o*
    897     15   4  1.500000     5.898705779     5.429160074    87.969825561   0   0   0 # ca+t
    898     15   4  1.500000     8.896434085    11.055823405    89.994972571   0   0   0 # ca+t
    899     15   5  1.000000     5.980750792     5.057660448    91.293701889   0   0   0 # sc2
    900     15   6  1.000000     6.681849439     7.369481128    93.069401797   0   0   0 # sc3
    901     15   5  1.000000     5.960175999     9.529546312    91.164147560   0   0   0 # sc2
    902     15   7 -0.580000     5.955387811     6.005480316    92.612093460   0   0   0 # oc12
    903     15   7 -0.580000     5.986537285    11.091292833    91.734268397   0   0   0 # oc12
    904     15   8 -0.940000     4.648620778     5.290629130    90.402549111   0   0   0 # oc13
    905     15   3 -1.080000     7.771471860    10.962528000    97.663124462   0   0   0 # oc22
    906     15   9 -0.670000     8.258782518     7.356355267    92.626576679   0   0   0 # oc14
    907     15   1 -0.820000     9.120774343     9.740803223    94.879701322   0   0   0 # o*
    908     15   7 -0.580000     5.916433733     8.657848495    92.520001444   0   0   0 # oc12
    909     15   8 -0.940000     4.724252794     9.279655140    90.229678248   0   0   0 # oc13
    910     15   8 -0.940000     7.294760349     9.223305889    90.288916943   0   0   0 # oc13
    911     15   1 -0.820000     8.189553766     7.652372609    97.217270442   0   0   0 # o*
    912     15   1 -0.820000     8.787131424     5.428767781    95.315983238   0   0   0 # o*
    913     15   1 -0.820000    11.211039560     9.029967667    96.404294941   0   0   0 # o*
    914     15  11  1.700000     6.958791427     9.454421904    95.926180374   0   0   0 # casl
    915     15   1 -0.820000     6.043839815     5.834864571    96.987868691   0   0   0 # o*
    916     15  10  0.400000     9.930604449    10.998509069    98.536412554   0   0   0 # hoy
    917     15  10  0.400000     8.736592994     7.292887808    93.448176571   0   0   0 # hoy
    918     15  10  0.400000    11.810717658     9.221865403    84.652597140   0   0   0 # hoy
    919     15   2  0.410000     8.896425395     6.270576530    83.932104060   0   0   0 # h*
    920     15   2  0.410000     8.827308278     5.000360728    84.664810571   0   0   0 # h*
    921     15   2  0.410000     6.911483523     9.988755528    85.263737657   0   0   0 # h*
    922     15   2  0.410000     5.604123658     9.969167573    84.668858187   0   0   0 # h*
    923     15   2  0.410000     6.371034411     8.171366451    83.958417450   0   0   0 # h*
    924     15   2  0.410000     7.064753138     7.845176878    82.587949906   0   0   0 # h*
    925     15   2  0.410000     9.295641081     6.885842511    81.271822483   0   0   0 # h*
    926     15   2  0.410000     8.983454222     8.158707448    81.841068795   0   0   0 # h*
    927     15   2  0.410000     9.581873379    10.173634225    94.107616670   0   0   0 # h*
    928     15   2  0.410000     9.906180423     9.595032581    95.486341426   0   0   0 # h*
    929     15   2  0.410000     6.187981003    11.214122817    93.687381913   0   0   0 # h*
    930     15   2  0.410000     6.160052738    12.412903850    94.724459265   0   0   0 # h*
    931     15   2  0.410000    12.044113822     8.570622920    96.636936868   0   0   0 # h*
    932     15   2  0.410000    11.524103969     9.766717438    95.822497478   0   0   0 # h*
    933     15   2  0.410000     8.140864603     6.156719229    95.375968698   0   0   0 # h*
    934     15   2  0.410000     8.363620820     4.911453585    96.057639450   0   0   0 # h*
    935     15   2  0.410000     8.760266588     8.121506307    97.910351536   0   0   0 # h*
    936     15   2  0.410000     7.978385903     6.916177108    97.871569533   0   0   0 # h*
    937     15   2  0.410000     6.722828610     5.100366738    97.196564528   0   0   0 # h*
    938     15   2  0.410000     6.341819597     6.326818889    96.196707856   0   0   0 # h*
    939     15   2  0.410000    11.024650362     6.989115979    98.679499506   0   0   0 # h*
    940     15   2  0.410000    11.026730441     8.435742577    98.604325473   0   0   0 # h*
    941     16   4  1.500000    19.919194366     7.350740362    90.230484753   0   0   0 # ca+t
    942     16   4  1.500000    17.265147116     9.230147696    88.050005443   0   0   0 # ca+t
    943     16   5  1.000000    20.003244562     7.012855007    87.049108129   0   0   0 # sc2
    944     16   6  1.000000    20.763209864     9.222613083    85.037095739   0   0   0 # sc3
    945     16   5  1.000000    20.061584360     3.917746821    87.083813409   0   0   0 # sc2
    946     16   7 -0.580000    19.982158580     7.885633260    85.622202253   0   0   0 # oc12
    947     16   7 -0.580000    20.023604919     5.459543414    86.530847455   0   0   0 # oc12
    948     16   8 -0.940000    21.305219454     7.338494031    87.872879852   0   0   0 # oc13
    949     16   8 -0.940000    18.656807272     7.291913063    87.890855536   0   0   0 # oc13
    950     16   9 -0.670000    22.385307759     9.206046347    85.434615338   0   0   0 # oc14
    951     16   1 -0.820000    17.329812302     9.437067856    85.449021059   0   0   0 # o*
    952     16   7 -0.580000    20.054922921    10.511182356    85.623970179   0   0   0 # oc12
    953     16   8 -0.940000    18.795673005     3.635710152    87.979237350   0   0   0 # oc13
    954     16   1 -0.820000    17.859936018     7.120744123    83.315850385   0   0   0 # o*
    955     16  11  1.700000    21.066874305     3.672423706    82.166811129   0   0   0 # casl
    956     16   1 -0.820000    19.858154205     7.356298854    81.506393906   0   0   0 # o*
    957     16   4  1.500000    21.629379573     7.271883954   101.347235100   0   0   0 # ca+t
    958     16   5  1.000000    18.614300464     8.884803210   100.973019209   0   0   0 # sc2
    959     16   6  1.000000    19.271640112    10.936070726    98.845413180   0   0   0 # sc3
    960     16   5  1.000000    18.622531172     5.718340896   100.992909633   0   0   0 # sc2
    961     16   7 -0.580000    18.601525663     9.638812506    99.561123677   0   0   0 # oc12
    962     16   7 -0.580000    18.663575460     7.321111009   100.435503674   0   0   0 # oc12
    963     16   8 -0.940000    20.008696226     9.171727492   101.705031860   0   0   0 # oc13
    964     16   8 -0.940000    17.279546040     9.210897798   101.810384948   0   0   0 # oc13
    965     16   3 -1.080000    17.571190934     7.172320050    94.619774143   0   0   0 # oc22
    966     16   9 -0.670000    20.869408392    10.981700489    98.933684744   0   0   0 # oc14
    967     16   1 -0.820000    21.128271625     7.529339623    98.721018793   0   0   0 # o*
    968     16   7 -0.580000    18.482482849     4.832182720    99.654147613   0   0   0 # oc12
    969     16   8 -0.940000    17.334230037     5.538309456   101.930784353   0   0   0 # oc13
    970     16   1 -0.820000    17.347243784    11.150373570    94.712047454   0   0   0 # o*
    971     16   4  1.500000    21.439842999    10.987175416   101.458540407   0   0   0 # ca+t
    972     16   3 -1.080000    20.560751997     9.294346168    83.494181051   0   0   0 # oc22
    973     16   1 -0.820000    20.586913440     5.479983399    83.815331912   0   0   0 # o*
    974     16   4  1.500000    17.171901091     5.384265064    88.079554598   0   0   0 # ca+t
    975     16   4  1.500000    20.125380615    11.067694600    90.300949535   0   0   0 # ca+t
    976     16   5  1.000000    17.077712815     5.074253637    91.148648827   0   0   0 # sc2
    977     16   6  1.000000    17.744677297     7.237399801    93.088083271   0   0   0 # sc3
    978     16   5  1.000000    17.153381456     9.503887776    91.205232293   0   0   0 # sc2
    979     16   7 -0.580000    16.952855614     5.945286319    92.486380726   0   0   0 # oc12
    980     16   7 -0.580000    17.189354808    11.049107362    91.818704181   0   0   0 # oc12
    981     16   8 -0.940000    15.846383687     5.308457453    90.233019641   0   0   0 # oc13
    982     16   3 -1.080000    18.826045020    10.848790323    97.363546046   0   0   0 # oc22
    983     16   9 -0.670000    19.320976884     7.115628301    92.772253082   0   0   0 # oc14
    984     16   1 -0.820000    20.148998201    10.857844060    92.978742356   0   0   0 # o*
    985     16   7 -0.580000    17.116420697     8.641203823    92.593486191   0   0   0 # oc12
    986     16   8 -0.940000    15.872290518     9.189563427    90.290945149   0   0   0 # oc13
    987     16   8 -0.940000    18.454933746     9.241150555    90.348788470   0   0   0 # oc13
    988     16   1 -0.820000    18.105499490     7.240222400    97.600185902   0   0   0 # o*
    989     16   1 -0.820000    21.810816758     5.042914472    97.202648027   0   0   0 # o*
    990     16   1 -0.820000    20.272840750     9.000098475    95.454836377   0   0   0 # o*
    991     16  11  1.700000    17.864447215     9.044253536    95.998467493   0   0   0 # casl
    992     16   1 -0.820000    16.475487122     4.913771098    97.573320513   0   0   0 # o*
    993     16  10  0.400000    21.108423503    10.853629699    98.070398775   0   0   0 # hoy
    994     16  10  0.400000    19.611527452     6.976136387    93.647047680   0   0   0 # hoy
    995     16  10  0.400000    22.752670074     9.768516629    84.794269016   0   0   0 # hoy
    996     16   2  0.410000    20.251210086     6.381731716    83.962899988   0   0   0 # h*
    997     16   2  0.410000    20.269076513     4.984616058    84.578031473   0   0   0 # h*
    998     16   2  0.410000    18.229162848     9.959730212    85.318719287   0   0   0 # h*
    999     16   2  0.410000    16.827870226     9.656730827    84.604001384   0   0   0 # h*
   1000     16   2  0.410000    18.237241158     7.702303405    83.995710243   0   0   0 # h*
   1001     16   2  0.410000    18.562188778     7.226334422    82.567955969   0   0   0 # h*
   1002     16   2  0.410000    20.141528744     8.167485794    81.999297133   0   0   0 # h*
   1003     16   2  0.410000    20.686763513     6.821441920    81.430235334   0   0   0 # h*
   1004     16   2  0.410000    19.990040620    11.432420573    93.731724533   0   0   0 # h*
   1005     16   2  0.410000    20.940238021    10.340298256    93.283253466   0   0   0 # h*
   1006     16   2  0.410000    17.442154868    12.152026403    94.722041931   0   0   0 # h*
   1007     16   2  0.410000    17.218809357    11.097641347    93.703937512   0   0   0 # h*
   1008     16   2  0.410000    20.781724366     8.914766839    94.640006605   0   0   0 # h*
   1009     16   2  0.410000    21.041347717     9.149889131    96.059780442   0   0   0 # h*
   1010     16   2  0.410000    20.957290552     5.021430110    96.696641580   0   0   0 # h*
   1011     16   2  0.410000    21.635689064     5.953563464    97.597222486   0   0   0 # h*
   1012     16   2  0.410000    17.867095915     6.247730400    97.405420862   0   0   0 # h*
   1013     16   2  0.410000    18.171572224     7.003493515    98.554020918   0   0   0 # h*
   1014     16   2  0.410000    17.228736035     4.333141291    97.838106977   0   0   0 # h*
   1015     16   2  0.410000    16.082053406     4.348384124    96.882001554   0   0   0 # h*
   1016     16   2  0.410000    21.598161138     8.154518127    98.089551823   0   0   0 # h*
   1017     16   2  0.410000    20.252866888     7.940680684    98.534605038   0   0   0 # h*
   1018     17   4  1.500000     8.706698957    14.743797389    90.177341951   0   0   0 # ca+t
   1019     17   4  1.500000     6.132060167    16.530842664    87.908125951   0   0   0 # ca+t
   1020     17   5  1.000000     8.725970700    14.306732962    86.958048912   0   0   0 # sc2
   1021     17   6  1.000000     9.289498528    16.470880647    85.031806854   0   0   0 # sc3
   1022     17   5  1.000000     8.782028813    11.204672284    86.865397887   0   0   0 # sc2
   1023     17   7 -0.580000     8.507865049    15.257043099    85.654068557   0   0   0 # oc12
   1024     17   7 -0.580000     8.767447510    12.786447353    86.338779114   0   0   0 # oc12
   1025     17   8 -0.940000    10.064885528    14.661941337    87.768568678   0   0   0 # oc13
   1026     17   8 -0.940000     7.465846349    14.476453190    87.885416671   0   0   0 # oc13
   1027     17   9 -0.670000    10.878866404    16.351375454    85.289861507   0   0   0 # oc14
   1028     17   1 -0.820000     6.258714987    17.896938883    83.181338254   0   0   0 # o*
   1029     17   7 -0.580000     8.770846217    17.791485900    85.507330098   0   0   0 # oc12
   1030     17   8 -0.940000     7.416606894    10.898881284    87.697844056   0   0   0 # oc13
   1031     17   1 -0.820000     6.548977127    14.631427118    83.412531122   0   0   0 # o*
   1032     17  11  1.700000    10.237829450    10.826412103    81.933963770   0   0   0 # casl
   1033     17   1 -0.820000     7.781341169    12.966659776    79.038306322   0   0   0 # o*
   1034     17   4  1.500000    10.403633218    14.711869694   101.832157984   0   0   0 # ca+t
   1035     17   5  1.000000     7.321547143    16.169282744   101.124464208   0   0   0 # sc2
   1036     17   5  1.000000     7.389089637    13.127946623   101.106905688   0   0   0 # sc2
   1037     17   7 -0.580000     7.132196825    17.023152152    99.748343154   0   0   0 # oc12
   1038     17   7 -0.580000     7.304050140    14.692295417   100.542277990   0   0   0 # oc12
   1039     17   8 -0.940000     8.691018414    16.559792440   101.893732550   0   0   0 # oc13
   1040     17   8 -0.940000     6.010805274    16.376719171   101.938986038   0   0   0 # oc13
   1041     17   3 -1.080000     6.471135050    14.681728460    94.675851672   0   0   0 # oc22
   1042     17   1 -0.820000    10.265161758    15.000679941    99.240722075   0   0   0 # o*
   1043     17   7 -0.580000     7.380169995    12.298755733    99.734529055   0   0   0 # oc12
   1044     17   8 -0.940000     6.112664834    12.713656631   102.013025423   0   0   0 # oc13
   1045     17   3 -1.080000     9.046152847    16.553000567    83.541014554   0   0   0 # oc22
   1046     17   1 -0.820000     9.359465087    12.454562258    83.416424983   0   0   0 # o*
   1047     17   4  1.500000     5.881485332    12.800140901    88.003408079   0   0   0 # ca+t
   1048     17   5  1.000000     5.971295449    12.613243210    91.175971290   0   0   0 # sc2
   1049     17   6  1.000000     6.681347133    14.794515297    93.138345160   0   0   0 # sc3
   1050     17   5  1.000000     5.865045324    16.906887609    91.227740846   0   0   0 # sc2
   1051     17   7 -0.580000     5.949295159    13.515360837    92.503523804   0   0   0 # oc12
   1052     17   8 -0.940000     4.627313819    12.862018360    90.295024977   0   0   0 # oc13
   1053     17   9 -0.670000     8.270781087    14.800200675    92.883521561   0   0   0 # oc14
   1054     17   1 -0.820000     8.086950457    19.838545928    95.392963896   0   0   0 # o*
   1055     17   7 -0.580000     6.048646991    16.096307655    92.637606330   0   0   0 # oc12
   1056     17   8 -0.940000     4.560264849    16.455275013    90.442820727   0   0   0 # oc13
   1057     17   8 -0.940000     7.153464552    16.761602717    90.241202860   0   0   0 # oc13
   1058     17   1 -0.820000     9.014217794    16.704459774    95.128726152   0   0   0 # o*
   1059     17   1 -0.820000    10.047095102    12.952537100    96.674539185   0   0   0 # o*
   1060     17   1 -0.820000     8.876964365    18.620358163    92.827830108   0   0   0 # o*
   1061     17  11  1.700000     6.676760407    16.485113789    96.071048808   0   0   0 # casl
   1062     17   1 -0.820000     5.647503741    13.129339898    97.124190011   0   0   0 # o*
   1063     17  10  0.400000     8.455293857    14.961955401    93.797137905   0   0   0 # hoy
   1064     17  10  0.400000    11.158845262    15.793861544    84.544223179   0   0   0 # hoy
   1065     17   2  0.410000     8.931006711    12.127104163    84.271914342   0   0   0 # h*
   1066     17   2  0.410000     9.577965480    13.358979513    83.629790688   0   0   0 # h*
   1067     17   2  0.410000     5.918622188    17.415964596    82.337635645   0   0   0 # h*
   1068     17   2  0.410000     7.169198054    17.519635389    83.322737533   0   0   0 # h*
   1069     17   2  0.410000     7.223769264    14.956496701    84.063128634   0   0   0 # h*
   1070     17   2  0.410000     7.270856773    14.253462058    82.791317290   0   0   0 # h*
   1071     17   2  0.410000     8.511913356    13.584239919    79.006669372   0   0   0 # h*
   1072     17   2  0.410000     8.277786886    12.165268128    79.456600888   0   0   0 # h*
   1073     17   2  0.410000     7.377608548    20.586874261    95.269878518   0   0   0 # h*
   1074     17   2  0.410000     7.644343394    19.227299353    96.000774562   0   0   0 # h*
   1075     17   2  0.410000     8.335578375    18.952867419    93.590185400   0   0   0 # h*
   1076     17   2  0.410000     9.775450393    18.684147752    93.136251725   0   0   0 # h*
   1077     17   2  0.410000     9.466992730    12.226513816    96.560079677   0   0   0 # h*
   1078     17   2  0.410000     9.448084940    13.446450607    97.342205081   0   0   0 # h*
   1079     17   2  0.410000     9.678836276    16.564173526    95.835970543   0   0   0 # h*
   1080     17   2  0.410000     9.636570772    17.108213695    94.432248023   0   0   0 # h*
   1081     17   2  0.410000     6.211478084    12.350629475    97.415431905   0   0   0 # h*
   1082     17   2  0.410000     6.030593367    13.495032166    96.264585955   0   0   0 # h*
   1083     17   2  0.410000    11.197955083    14.917753867    99.169216840   0   0   0 # h*
   1084     17   2  0.410000    10.098449451    15.322215979    98.317110841   0   0   0 # h*
   1085     18   4  1.500000    20.041916921    14.652083171    90.161800139   0   0   0 # ca+t
   1086     18   4  1.500000    17.322806819    16.481965160    87.911607653   0   0   0 # ca+t
   1087     18   5  1.000000    20.002090518    14.453330053    86.914941197   0   0   0 # sc2
   1088     18   6  1.000000    20.801051543    16.558146040    84.903592753   0   0   0 # sc3
   1089     18   5  1.000000    20.058960087    11.357838191    86.999761586   0   0   0 # sc2
   1090     18   7 -0.580000    19.999952812    15.328157714    85.536090618   0   0   0 # oc12
   1091     18   7 -0.580000    20.061653601    12.890996836    86.406049699   0   0   0 # oc12
   1092     18   8 -0.940000    21.278624172    14.771421254    87.923670886   0   0   0 # oc13
   1093     18   8 -0.940000    18.759552624    14.675802466    87.808196202   0   0   0 # oc13
   1094     18   9 -0.670000    22.370922020    16.519601798    85.338931968   0   0   0 # oc14
   1095     18   1 -0.820000    17.749742657    15.541399966    83.409485618   0   0   0 # o*
   1096     18   7 -0.580000    20.098968205    17.894677598    85.454158209   0   0   0 # oc12
   1097     18   8 -0.940000    18.711132714    11.106915413    87.829945844   0   0   0 # oc13
   1098     18   1 -0.820000    20.013638756    14.909310234    81.160671995   0   0   0 # o*
   1099     18  11  1.700000    21.267346318    11.137858238    82.211673372   0   0   0 # casl
   1100     18   1 -0.820000    18.924465426    12.985042600    79.226396724   0   0   0 # o*
   1101     18   4  1.500000    21.747536084    14.530324722   101.634683970   0   0   0 # ca+t
   1102     18   5  1.000000    18.746625025    16.194741250   100.936063053   0   0   0 # sc2
   1103     18   5  1.000000    18.588288510    13.083422929   100.835376392   0   0   0 # sc2
   1104     18   7 -0.580000    18.781025557    17.035711997    99.494360018   0   0   0 # oc12
   1105     18   7 -0.580000    18.521032955    14.638949024   100.347448201   0   0   0 # oc12
   1106     18   8 -0.940000    20.189446198    16.361589327   101.713882619   0   0   0 # oc13
   1107     18   8 -0.940000    17.468531904    16.603700736   101.761851537   0   0   0 # oc13
   1108     18   3 -1.080000    17.858991729    14.636269388    94.772441158   0   0   0 # oc22
   1109     18   1 -0.820000    22.262913702    12.553875911    96.934478013   0   0   0 # o*
   1110     18   7 -0.580000    18.601275914    12.268517391    99.391048677   0   0   0 # oc12
   1111     18   8 -0.940000    17.269607477    12.770722064   101.712466658   0   0   0 # oc13
   1112     18   3 -1.080000    20.544766418    16.535341598    83.290452725   0   0   0 # oc22
   1113     18   1 -0.820000    20.255738152    13.101540744    83.244492072   0   0   0 # o*
   1114     18   4  1.500000    17.118115306    12.835549496    88.099913547   0   0   0 # ca+t
   1115     18   5  1.000000    17.230080296    12.577709422    91.276557426   0   0   0 # sc2
   1116     18   6  1.000000    18.055273827    14.698668671    93.211863158   0   0   0 # sc3
   1117     18   5  1.000000    17.310224842    16.794671197    91.265052970   0   0   0 # sc2
   1118     18   7 -0.580000    17.249887520    13.414355044    92.633108961   0   0   0 # oc12
   1119     18   8 -0.940000    15.950901278    12.889470192    90.410282851   0   0   0 # oc13
   1120     18   9 -0.670000    19.594499074    14.709628040    92.735521877   0   0   0 # oc14
   1121     18   1 -0.820000    20.545680765    17.195630892    94.560550197   0   0   0 # o*
   1122     18   7 -0.580000    17.282846586    16.018019048    92.674099306   0   0   0 # oc12
   1123     18   8 -0.940000    16.024931968    16.551225857    90.308761109   0   0   0 # oc13
   1124     18   8 -0.940000    18.650619137    16.408122886    90.466985496   0   0   0 # oc13
   1125     18   1 -0.820000    19.450402597    14.622552657    97.225115200   0   0   0 # o*
   1126     18   1 -0.820000    19.983263671    12.429077031    95.349011308   0   0   0 # o*
   1127     18   1 -0.820000    22.524410917    16.841622756    96.665801137   0   0   0 # o*
   1128     18  11  1.700000    18.543721648    16.557555601    95.938768404   0   0   0 # casl
   1129     18   1 -0.820000    14.730327779    12.630979639    95.000069806   0   0   0 # o*
   1130     18  10  0.400000    20.118025245    14.685291643    93.518738203   0   0   0 # hoy
   1131     18  10  0.400000    22.808594887    16.308586796    84.577854786   0   0   0 # hoy
   1132     18   2  0.410000    19.976436019    13.873833045    82.721114458   0   0   0 # h*
   1133     18   2  0.410000    20.060742556    13.416733366    84.166485094   0   0   0 # h*
   1134     18   2  0.410000    18.080552825    15.281763774    84.287981556   0   0   0 # h*
   1135     18   2  0.410000    18.395574367    16.310037778    83.250887592   0   0   0 # h*
   1136     18   2  0.410000    20.877803690    14.617877538    80.814511643   0   0   0 # h*
   1137     18   2  0.410000    20.366557917    15.560574829    81.827657659   0   0   0 # h*
   1138     18   2  0.410000    19.401285300    13.664739875    79.640992389   0   0   0 # h*
   1139     18   2  0.410000    19.278283901    12.202376459    79.651937172   0   0   0 # h*
   1140     18   2  0.410000    21.188127624    17.407510394    95.264456435   0   0   0 # h*
   1141     18   2  0.410000    21.075091750    17.214841137    93.741305898   0   0   0 # h*
   1142     18   2  0.410000    22.967847491    17.145937146    95.831263062   0   0   0 # h*
   1143     18   2  0.410000     0.687386709    16.169149031    97.010605893   1   0   0 # h*
   1144     18   2  0.410000    19.399475449    13.240892425    95.397086680   0   0   0 # h*
   1145     18   2  0.410000    19.356777581    11.895253466    95.939953480   0   0   0 # h*
   1146     18   2  0.410000    19.150899870    13.819814315    97.769539392   0   0   0 # h*
   1147     18   2  0.410000    20.124391229    14.967160094    97.889514444   0   0   0 # h*
   1148     18   2  0.410000    15.003633084    13.196724858    95.839732141   0   0   0 # h*
   1149     18   2  0.410000    15.305630823    13.174555539    94.389633101   0   0   0 # h*
   1150     18   2  0.410000    21.509043010    12.288194072    96.351292621   0   0   0 # h*
   1151     18   2  0.410000    21.865437846    13.257729540    97.520970146   0   0   0 # h*
   1152     19   1 -0.820000    18.378747639     3.801462962     5.013471480  -1   0   0 # o*
   1153     19   2  0.410000    18.529328295     4.278165230     4.175818343  -1   0   0 # h*
   1154     19   2  0.410000    17.935997048     2.958565480     4.729140136  -1   0   0 # h*
   1155     20   1 -0.820000     6.525645778     3.940047365     6.447981701   0   0   0 # o*
   1156     20   2  0.410000     6.177010786     4.817109737     6.071610323   0   0   0 # h*
   1157     20   2  0.410000     5.807230469     3.256556922     6.205976397   0   0   0 # h*
   1158     21   6  1.000000     8.139815088    18.570488026    71.155368690   0  -1   0 # sc3
   1159     21   9 -0.670000     9.781294686    18.676974827    71.302998411   0  -1   0 # oc14
   1160     21   1 -0.820000     9.294629050    16.207362319    19.966380564   1  -2   0 # o*
   1161     21   4  1.500000    10.238526659    18.413204807    74.073374097   0  -1   0 # ca+t
   1162     21   1 -0.820000     8.709284471    17.823843414    80.771629623   0  -1   0 # o*
   1163     21   4  1.500000    19.026366744     3.937768963    14.848016675  -1   0   0 # ca+t
   1164     21   7 -0.580000    16.007234685     3.931053360    16.438767052  -1   0   0 # oc12
   1165     21   3 -1.080000     7.778947061    18.627612581    69.657684140   0  -1   0 # oc22
   1166     21  10  0.400000    10.050718499    19.312918566    70.657706034   0  -1   0 # hoy
   1167     21   2  0.410000     9.958371085    16.936146955    20.115662007   1  -2   0 # h*
   1168     21   2  0.410000     9.622534925    15.805708140    19.157346605   1  -2   0 # h*
   1169     21   2  0.410000     8.840464987    18.282859310    79.946654351   0  -1   0 # h*
   1170     21   2  0.410000     8.038932292    17.166176528    80.497589152   0  -1   0 # h*
   1171     22   6  1.000000    19.360595538    18.393282307    71.081474598   0  -1   0 # sc3
   1172     22   9 -0.670000    20.982345753    18.288180978    71.093936771   0  -1   0 # oc14
   1173     22   1 -0.820000    15.960082932    17.480490608    69.892498813   1  -1   0 # o*
   1174     22   4  1.500000    21.670517688    18.319627823    74.134404833   0  -1   0 # ca+t
   1175     22   1 -0.820000    18.457431377    18.270277619    81.679387024   0  -1   0 # o*
   1176     22   4  1.500000     7.759434106     3.871817397    14.943945872   0   0   0 # ca+t
   1177     22   7 -0.580000     4.624317627     3.857939425    16.385479711   0   0   0 # oc12
   1178     22   3 -1.080000    18.825961449    18.362168362    69.621771108   0  -1   0 # oc22
   1179     22  10  0.400000    21.229268519    18.420527775    70.212254333   0  -1   0 # hoy
   1180     22   2  0.410000    16.792423979    17.821754292    69.547608639   1  -1   0 # h*
   1181     22   2  0.410000    16.480766917    16.925077814    70.532357247   1  -1   0 # h*
   1182     22   2  0.410000    17.909241502    19.050236960    81.397190165   0  -1   0 # h*
   1183     22   2  0.410000    17.759745035    17.675400326    81.311986388   0  -1   0 # h*
   1184     23   6  1.000000     7.848179858    18.275170388    98.935960326   0  -1   0 # sc3
   1185     23   9 -0.670000     9.502481922    18.252683646    99.078055506   0  -1   0 # oc14
   1186     23   1 -0.820000     5.720974988    18.358781724    94.579982970   0  -1   0 # o*
   1187     23   4  1.500000    10.180323038    18.529953618   101.712399327   0  -1   0 # ca+t
   1188     23   4  1.500000     8.772241416    18.434822255    90.159546427   0  -1   0 # ca+t
   1189     23   7 -0.580000     5.709900912    18.453161370    91.735414522   0  -1   0 # oc12
   1190     23   3 -1.080000     7.392334582    18.143977843    97.473941540   0  -1   0 # oc22
   1191     23  10  0.400000     9.793839704    17.781206427    98.339703071   0  -1   0 # hoy
   1192     23   2  0.410000     5.836046066    19.246309263    94.235357171   0  -1   0 # h*
   1193     23   2  0.410000     5.503878139    17.801069694    93.776942155   0  -1   0 # h*
   1194     24   6  1.000000    19.568412847    18.294053597    98.996598535   0  -1   0 # sc3
   1195     24   9 -0.670000    21.193921554    18.248383941    99.324941656   0  -1   0 # oc14
   1196     24   1 -0.820000    17.328139209    18.312348937    94.796871936   0  -1   0 # o*
   1197     24   4  1.500000    21.489778947    18.276132363   101.941192011   0  -1   0 # ca+t
   1198     24   4  1.500000    20.021805203    18.382414454    90.032985718   0  -1   0 # ca+t
   1199     24   7 -0.580000    17.313256864    18.403503962    91.826520338   0  -1   0 # oc12
   1200     24   3 -1.080000    19.359751675    18.263574902    97.442855819   0  -1   0 # oc22
   1201     24  10  0.400000    21.524863429    18.557696659    98.571113113   0  -1   0 # hoy
   1202     24   2  0.410000    17.303412859    19.240916622    94.580600101   0  -1   0 # h*
   1203     24   2  0.410000    16.877909083    17.941647955    94.018260872   0  -1   0 # h*
   1204     25   3 -1.080000     4.254113978     9.259698671     5.484918975   0   0   0 # oc22
   1205     25   1 -0.820000     4.405447092     5.919502386     5.249640747   0   0   0 # o*
   1206     25   4  1.500000     0.790483881     5.618451862     0.824306829   0   0   0 # ca+t
   1207     25   4  1.500000     0.913128926     9.361376310     0.910068795   0   0   0 # ca+t
   1208     25   5  1.000000     3.650055826     7.188618387     1.949372927   0   0   0 # sc2
   1209     25   6  1.000000     4.413977689     9.370211856     3.909745007   0   0   0 # sc3
   1210     25   5  1.000000     3.615783136     4.079633447     1.998797862   0   0   0 # sc2
   1211     25   7 -0.580000     3.598034449     8.215572907     3.252596025   0   0   0 # oc12
   1212     25   7 -0.580000     3.634567701     5.625910363     2.559849481   0   0   0 # oc12
   1213     25   8 -0.940000     2.432757775     7.470763122     0.937746545   0   0   0 # oc13
   1214     25   9 -0.670000     6.013220961     9.255539326     3.568879542   0   0   0 # oc14
   1215     25   1 -0.820000     0.939702418     9.496380047     3.770831671   0   0   0 # o*
   1216     25   7 -0.580000     3.779276427    10.773294293     3.455631927   0   0   0 # oc12
   1217     25   8 -0.940000     2.344808600     3.870544038     1.042806593   0   0   0 # oc13
   1218     25   1 -0.820000     0.967396891     7.497756524     6.141560464   0   0   0 # o*
   1219     25  10  0.400000     6.385151057     8.808773446     4.382738741   0   0   0 # hoy
   1220     25   2  0.410000     1.427145416    10.272825448     4.004025141   0   0   0 # h*
   1221     25   2  0.410000     1.655556903     8.769958160     3.874136039   0   0   0 # h*
   1222     25   2  0.410000     0.516180137     6.775615042     5.610287694   0   0   0 # h*
   1223     25   2  0.410000    22.741861149     8.168598105     6.094227315  -1   0   0 # h*
   1224     25   2  0.410000     5.197878059     5.867988789     4.663541326   0   0   0 # h*
   1225     25   2  0.410000     3.708655740     5.701806882     4.581546758   0   0   0 # h*
   1226     26   3 -1.080000    15.500030808     9.367808076     5.704540578   0   0   0 # oc22
   1227     26   1 -0.820000    15.754842744     5.831385125     5.586931217   0   0   0 # o*
   1228     26   4  1.500000    12.112139054     5.610036759     1.203279075   0   0   0 # ca+t
   1229     26   4  1.500000    12.246901882     9.362620070     1.106181776   0   0   0 # ca+t
   1230     26   5  1.000000    14.972533104     7.266489096     2.146478808   0   0   0 # sc2
   1231     26   6  1.000000    15.787168807     9.424510471     4.167560644   0   0   0 # sc3
   1232     26   5  1.000000    15.098324612     4.079255143     2.115559516   0   0   0 # sc2
   1233     26   7 -0.580000    15.035030427     8.139094887     3.515578134   0   0   0 # oc12
   1234     26   7 -0.580000    15.073960443     5.682802979     2.722319207   0   0   0 # oc12
   1235     26   8 -0.940000    13.637688604     7.481644834     1.305245891   0   0   0 # oc13
   1236     26   9 -0.670000    17.456997732     9.428653872     3.871278175   0   0   0 # oc14
   1237     26   1 -0.820000    12.403230242     9.338974539     4.062499177   0   0   0 # o*
   1238     26   7 -0.580000    15.092866306    10.785664771     3.612632210   0   0   0 # oc12
   1239     26   8 -0.940000    13.739690229     3.867586532     1.229574493   0   0   0 # oc13
   1240     26   1 -0.820000    11.986199021     7.237198653     6.816405823   0   0   0 # o*
   1241     26  10  0.400000    17.757056006     8.790182032     4.557027625   0   0   0 # hoy
   1242     26   2  0.410000    12.823785709    10.186863580     4.427594164   0   0   0 # h*
   1243     26   2  0.410000    13.169744405     8.737309661     3.992838321   0   0   0 # h*
   1244     26   2  0.410000    12.195161254     6.296878384     7.218231995   0   0   0 # h*
   1245     26   2  0.410000    11.096758631     6.960291909     6.497603922   0   0   0 # h*
   1246     26   2  0.410000    15.797968140     5.489145732     4.640346378   0   0   0 # h*
   1247     26   2  0.410000    16.249997797     5.069622864     6.024494252   0   0   0 # h*
   1248     27   3 -1.080000     4.253275843    16.842335599     5.544592395   0   0   0 # oc22
   1249     27   1 -0.820000     4.453900629    13.027417675     5.626316684   0   0   0 # o*
   1250     27   4  1.500000     0.778338620    13.167322555     0.998701017   0   0   0 # ca+t
   1251     27   4  1.500000     0.883447030    16.753340509     0.958080737   0   0   0 # ca+t
   1252     27   5  1.000000     3.652012310    14.685516944     2.091956944   0   0   0 # sc2
   1253     27   6  1.000000     4.388981495    16.837113987     4.006701231   0   0   0 # sc3
   1254     27   5  1.000000     3.633016971    11.618243175     2.021939612   0   0   0 # sc2
   1255     27   7 -0.580000     3.648862207    15.559643657     3.471609093   0   0   0 # oc12
   1256     27   7 -0.580000     3.541464657    13.171603374     2.540947303   0   0   0 # oc12
   1257     27   8 -0.940000     2.391251733    15.019903763     1.129934124   0   0   0 # oc13
   1258     27   9 -0.670000     5.964078009    16.830653780     3.559668866   0   0   0 # oc14
   1259     27   1 -0.820000     0.886862878    17.095614516     3.558536012   0   0   0 # o*
   1260     27   7 -0.580000     3.655387457    18.127633703     3.467414113   0   0   0 # oc12
   1261     27   8 -0.940000     2.377175409    11.180182982     1.153511097   0   0   0 # oc13
   1262     27   8 -0.940000     4.997164007    11.432669434     1.141942369   0   0   0 # oc13
   1263     27   1 -0.820000     0.727717662    14.854737409     6.428561959   0   0   0 # o*
   1264     27  10  0.400000     6.473655301    16.419645553     4.245562099   0   0   0 # hoy
   1265     27   2  0.410000    22.844772401    17.729675620     4.058451647  -1   0   0 # h*
   1266     27   2  0.410000     1.674671856    17.122658387     4.146365304   0   0   0 # h*
   1267     27   2  0.410000    22.420247739    14.401677971     6.071549812  -1   0   0 # h*
   1268     27   2  0.410000     0.731223170    14.257889561     7.291166769   0   0   0 # h*
   1269     27   2  0.410000     4.423253668    12.106547908     5.245944244   0   0   0 # h*
   1270     27   2  0.410000     4.907703563    13.471504723     4.872890018   0   0   0 # h*
   1271     28   3 -1.080000    15.213510902    16.804871124     5.554139525   0   0   0 # oc22
   1272     28   1 -0.820000    15.611468636    13.266960476     5.687254916   0   0   0 # o*
   1273     28   4  1.500000    12.114647821    13.195497418     1.019207075   0   0   0 # ca+t
   1274     28   4  1.500000    12.157961089    16.854254824     1.040925707   0   0   0 # ca+t
   1275     28   5  1.000000    14.891194329    14.580433815     2.130883652   0   0   0 # sc2
   1276     28   6  1.000000    15.570937766    16.804864055     4.000056216   0   0   0 # sc3
   1277     28   5  1.000000    15.000557609    11.526094928     2.175905323   0   0   0 # sc2
   1278     28   7 -0.580000    14.859493535    15.477230938     3.507427613   0   0   0 # oc12
   1279     28   7 -0.580000    14.964516006    13.026190038     2.701672027   0   0   0 # oc12
   1280     28   8 -0.940000    13.600688559    14.873836302     1.300657182   0   0   0 # oc13
   1281     28   9 -0.670000    17.191563835    16.806484782     3.756079929   0   0   0 # oc14
   1282     28   1 -0.820000    12.253820010    16.894440890     4.106216756   0   0   0 # o*
   1283     28   7 -0.580000    14.802379615    18.105923897     3.421178910   0   0   0 # oc12
   1284     28   8 -0.940000    13.686355769    11.251402924     1.350928332   0   0   0 # oc13
   1285     28   8 -0.940000    16.291092854    11.263884357     1.231988509   0   0   0 # oc13
   1286     28   1 -0.820000    12.181516533    14.696328230     6.146645476   0   0   0 # o*
   1287     28  10  0.400000    17.578854360    16.293333995     4.446910660   0   0   0 # hoy
   1288     28   2  0.410000    12.764507686    17.693538615     4.416189372   0   0   0 # h*
   1289     28   2  0.410000    12.941476648    16.229254723     4.225756632   0   0   0 # h*
   1290     28   2  0.410000    11.474023646    14.047218292     5.950970287   0   0   0 # h*
   1291     28   2  0.410000    11.650178130    15.490168559     6.311454617   0   0   0 # h*
   1292     28   2  0.410000    16.469199139    13.386439119     5.216638164   0   0   0 # h*
   1293     28   2  0.410000    15.099008405    12.920998280     4.928222451   0   0   0 # h*
   1294     29   3 -1.080000     4.311991778     2.129377830     5.484163300   0   1   0 # oc22
   1295     29   1 -0.820000     5.047588039    20.658404334     6.549327710   0   0   0 # o*
   1296     29   4  1.500000     0.798965216    20.572115381     0.958224367   0   0   0 # ca+t
   1297     29   4  1.500000     0.871472571     2.017083568     0.963009663   0   1   0 # ca+t
   1298     29   5  1.000000     3.644207000    -0.209722643     2.081244821   0   1   0 # sc2
   1299     29   6  1.000000     4.490861567     2.012651938     3.988872674   0   1   0 # sc3
   1300     29   5  1.000000     3.639399830    19.047931621     2.108595302   0   0   0 # sc2
   1301     29   7 -0.580000     3.776326785     0.586844214     3.505053136   0   1   0 # oc12
   1302     29   7 -0.580000     3.544843979    20.560892167     2.648832821   0   0   0 # oc12
   1303     29   8 -0.940000     2.302005615     0.160057813     1.277786960   0   1   0 # oc13
   1304     29   9 -0.670000     6.064417058     2.029761063     3.601252251   0   1   0 # oc14
   1305     29   1 -0.820000     0.980680179     2.400096866     3.702725639   0   1   0 # o*
   1306     29   7 -0.580000     3.614259706     3.177548739     3.361797051   0   1   0 # oc12
   1307     29   8 -0.940000     2.362401399    18.741558512     1.142220821   0   0   0 # oc13
   1308     29   8 -0.940000     4.947947023    18.815890415     1.156313190   0   0   0 # oc13
   1309     29   1 -0.820000     1.517691812     0.187312546     5.305797152   0   1   0 # o*
   1310     29  10  0.400000     6.366833920     1.540071659     4.358991028   0   1   0 # hoy
   1311     29   2  0.410000     1.799439279     2.804900209     4.052441245   0   1   0 # h*
   1312     29   2  0.410000    22.907273579     2.902131416     4.200184016  -1   1   0 # h*
   1313     29   2  0.410000     1.470308833     0.749284213     4.496391344   0   1   0 # h*
   1314     29   2  0.410000     1.283726425    21.578334779     4.951018806   0   0   0 # h*
   1315     29   2  0.410000     5.951728779    20.690957720     6.309136732   0   0   0 # h*
   1316     29   2  0.410000     4.951253871    19.835851410     7.065391972   0   0   0 # h*
   1317     30   3 -1.080000    15.471026125     1.807465066     5.636008627   0   1   0 # oc22
   1318     30   1 -0.820000    16.939813033     0.106544246     8.093898207   0   1   0 # o*
   1319     30   4  1.500000    11.985029268    20.589962941     1.012410940   0   0   0 # ca+t
   1320     30   4  1.500000    12.100214704     1.982326856     1.048343567   0   1   0 # ca+t
   1321     30   5  1.000000    14.802258422    -0.261648902     2.141431617   0   1   0 # sc2
   1322     30   6  1.000000    15.701105151     1.819683360     4.104243386   0   1   0 # sc3
   1323     30   5  1.000000    14.864131988    18.993380478     2.067024371   0   0   0 # sc2
   1324     30   7 -0.580000    14.764027417     0.600739415     3.477473452   0   1   0 # oc12
   1325     30   7 -0.580000    14.843122072    20.467415800     2.672847080   0   0   0 # oc12
   1326     30   8 -0.940000    13.586976603     0.120412679     1.126356911   0   1   0 # oc13
   1327     30   9 -0.670000    17.266281013     1.668123672     3.777663544   0   1   0 # oc14
   1328     30   1 -0.820000    12.113684212     2.375028478     3.599946083   0   1   0 # o*
   1329     30   7 -0.580000    15.071810826     3.146274025     3.537609173   0   1   0 # oc12
   1330     30   8 -0.940000    13.623742429    18.726188877     1.103769437   0   0   0 # oc13
   1331     30   8 -0.940000    16.228104948    18.737216202     1.269696359   0   0   0 # oc13
   1332     30   1 -0.820000    12.652770308    -0.051960658     5.670522279   0   1   0 # o*
   1333     30  10  0.400000    17.568799868     1.231491704     4.598152845   0   1   0 # hoy
   1334     30   2  0.410000    12.773719860     2.829416333     4.199615608   0   1   0 # h*
   1335     30   2  0.410000    11.331402977     2.897740248     3.685675504   0   1   0 # h*
   1336     30   2  0.410000    12.030634595    21.623119371     5.231107342   0   0   0 # h*
   1337     30   2  0.410000    12.908991776     0.452376260     4.836221753   0   1   0 # h*
   1338     30   2  0.410000    17.080709236     0.241255151     9.048455884   0   1   0 # h*
   1339     30   2  0.410000    17.815159344     0.441505534     7.767999639   0   1   0 # h*
   1340     31   4  1.500000     1.945770550     3.801737908    15.008809328   0   0   0 # ca+t
   1341     31   4  1.500000    21.781404963     5.778206120    12.746619004  -1   0   0 # ca+t
   1342     31   5  1.000000     1.950052162    11.048557701    11.673257982   0   0   0 # sc2
   1343     31   6  1.000000     2.689031519     5.780441650     9.722174513   0   0   0 # sc3
   1344     31   5  1.000000     2.026175948     8.013454375    11.642923041   0   0   0 # sc2
   1345     31   7 -0.580000     1.882745830     4.509859322    10.158215075   0   0   0 # oc12
   1346     31   7 -0.580000     1.954316910     9.549435216    11.081983752   0   0   0 # oc12
   1347     31   8 -0.940000     3.294010023    11.389258326    12.512672222   0   0   0 # oc13
   1348     31   8 -0.940000     0.608145793    11.332635202    12.610981176   0   0   0 # oc13
   1349     31   3 -1.080000    16.584205305     1.871340341    80.784093197   0   0   0 # oc22
   1350     31   9 -0.670000     4.267335679     5.773073745    10.112981855   0   0   0 # oc14
   1351     31   1 -0.820000    21.684224970     6.820317527     8.212754424  -1   0   0 # o*
   1352     31   7 -0.580000     1.978215163     7.122100334    10.277103582   0   0   0 # oc12
   1353     31   8 -0.940000     0.760123132     7.703996614    12.602778777   0   0   0 # oc13
   1354     31   1 -0.820000    17.345615336    20.620652262    80.723290154   0  -1   0 # o*
   1355     31   1 -0.820000    22.467240687     3.945106295     8.063205300  -1   0   0 # o*
   1356     31  11  1.700000     3.361375010     7.609865151     6.867751258   0   0   0 # casl
   1357     31   1 -0.820000     2.033069743     3.963252477     5.873287844   0   0   0 # o*
   1358     31   4  1.500000    13.077449936    20.342395475    76.282613346   0  -1   0 # ca+t
   1359     31   4  1.500000    16.274777335    18.402901310    74.320739500   0  -1   0 # ca+t
   1360     31   5  1.000000    13.147595682    19.918129321    73.108982786   0  -1   0 # sc2
   1361     31   6  1.000000    13.906738888    -0.202358791    71.217984839   0   0   0 # sc3
   1362     31   5  1.000000    13.056681256     2.003969663    73.112806856   0   0   0 # sc2
   1363     31   7 -0.580000    13.250397787    20.719619922    71.726686362   0  -1   0 # oc12
   1364     31   7 -0.580000    13.046541536     3.457859759    72.475074531   0   0   0 # oc12
   1365     31   8 -0.940000    14.440154471    20.317224544    74.030128755   0  -1   0 # oc13
   1366     31   8 -0.940000    11.886309004    20.241017227    73.944760329   0  -1   0 # oc13
   1367     31   3 -1.080000    22.219617761     3.932552730    19.411236503  -1   0   0 # oc22
   1368     31   9 -0.670000    15.488353586    -0.118228446    71.539217331   0   0   0 # oc14
   1369     31   1 -0.820000     5.910535862    13.085873388    21.273467299   0   0   0 # o*
   1370     31   7 -0.580000    13.092234162     1.083565456    71.763381946   0   0   0 # oc12
   1371     31   8 -0.940000    11.796531195     1.781398952    74.099695041   0   0   0 # oc13
   1372     31   1 -0.820000    18.784912527    20.611007635    20.629817870  -1  -1   0 # o*
   1373     31   4  1.500000    15.894981976    -0.056962272    74.150686117   0   0   0 # ca+t
   1374     31   4  1.500000    13.159630510     1.813263179    76.308079778   0   0   0 # ca+t
   1375     31   5  1.000000    15.955689049    -0.412034598    77.386488048   0   0   0 # sc2
   1376     31   6  1.000000    16.787070661     1.779760983    79.280881664   0   0   0 # sc3
   1377     31   5  1.000000    16.003065700    18.832191405    77.489862587   0  -1   0 # sc2
   1378     31   7 -0.580000    15.960976789     0.482915077    78.800173930   0   0   0 # oc12
   1379     31   7 -0.580000    16.026366309    20.351542054    78.063346993   0  -1   0 # oc12
   1380     31   8 -0.940000    14.714274833    -0.253234495    76.457817413   0   0   0 # oc13
   1381     31   3 -1.080000     2.568298666     5.873718394     8.124915022   0   0   0 # oc22
   1382     31   9 -0.670000    18.378620209     1.696060571    78.925051975   0   0   0 # oc14
   1383     31   1 -0.820000    13.490499134     1.945182803    78.928760473   0   0   0 # o*
   1384     31   7 -0.580000    16.057724873     3.084932204    78.716562439   0   0   0 # oc12
   1385     31   8 -0.940000    14.682104935    18.583927638    76.724484967   0  -1   0 # oc13
   1386     31   1 -0.820000     2.520673431     9.418714180     8.278809635   0   0   0 # o*
   1387     31   1 -0.820000    11.438551237    -0.317462241    82.810562331   0   0   0 # o*
   1388     31   4  1.500000    21.644948766     9.571494228    12.819686982  -1   0   0 # ca+t
   1389     31   4  1.500000     2.084131128     7.733220787    14.828176292   0   0   0 # ca+t
   1390     31   5  1.000000    21.664562701     9.188709836    15.918401786  -1   0   0 # sc2
   1391     31   6  1.000000    22.389447696     3.869187621    17.896585487  -1   0   0 # sc3
   1392     31   5  1.000000    21.744159246     6.134268068    15.979344840  -1   0   0 # sc2
   1393     31   7 -0.580000    21.613722773    10.068731817    17.282844390  -1   0   0 # oc12
   1394     31   7 -0.580000    21.671779116     7.683633791    16.474707497  -1   0   0 # oc12
   1395     31   8 -0.940000    20.328197818     9.395921778    15.036524950  -1   0   0 # oc13
   1396     31   3 -1.080000    13.669350635    -0.259526189    69.669235407   0   0   0 # oc22
   1397     31   9 -0.670000     1.488870006     3.890092084    17.582280625   0   0   0 # oc14
   1398     31   1 -0.820000     4.692250682     2.048241189    69.053900511   0   0   0 # o*
   1399     31   7 -0.580000    21.665564471     5.228863783    17.388527746  -1   0   0 # oc12
   1400     31   8 -0.940000    20.561003171     5.806352840    14.917513654  -1   0   0 # oc13
   1401     31   8 -0.940000     0.596277525     5.807905481    15.285767860   0   0   0 # oc13
   1402     31   1 -0.820000     8.468915069    20.332176474    19.938314598   0  -1   0 # o*
   1403     31   1 -0.820000    15.711692866     1.468357004    68.965117099  -1   0   0 # o*
   1404     31  11  1.700000    13.631612975    17.146603000    68.971843646   0  -1   0 # casl
   1405     31   1 -0.820000    16.956437923    11.790427481    19.812623726   0   0   0 # o*
   1406     31  10  0.400000    18.714511464     1.112629791    79.580255398   0   0   0 # hoy
   1407     31  10  0.400000    15.785899193    -0.180867539    70.605455887   0   0   0 # hoy
   1408     31  10  0.400000     4.610358880     4.982303434     9.615887591   0   0   0 # hoy
   1409     31   2  0.410000     2.723017441    10.395123966     8.501532019   0   0   0 # h*
   1410     31   2  0.410000     2.135401273     9.140956788     9.171282007   0   0   0 # h*
   1411     31   2  0.410000    22.665108950     6.897921032     8.236965542  -1   0   0 # h*
   1412     31   2  0.410000    21.635648606     6.368782574     7.318661291  -1   0   0 # h*
   1413     31   2  0.410000     0.671455695     3.922121772     7.406502700   0   0   0 # h*
   1414     31   2  0.410000    22.939890475     4.489573388     8.727874591  -1   0   0 # h*
   1415     31   2  0.410000     2.449978713     4.583831650     6.536349167   0   0   0 # h*
   1416     31   2  0.410000     2.853531211     3.436685630     5.752358162   0   0   0 # h*
   1417     31   2  0.410000     3.912362515     1.501722291    69.260312193   0   0   0 # h*
   1418     31   2  0.410000     5.248201668     1.285128406    68.758662894   0   0   0 # h*
   1419     31   2  0.410000    17.943905171    21.191564257    20.477561899  -1  -1   0 # h*
   1420     31   2  0.410000    19.351036084    21.389900743    20.736308686  -1  -1   0 # h*
   1421     31   2  0.410000    15.459839436     2.385433598    69.202043007  -1   0   0 # h*
   1422     31   2  0.410000    14.797762213     1.022397264    69.135120442  -1   0   0 # h*
   1423     31   2  0.410000     8.759856188    20.657470820    19.045285441   0  -1   0 # h*
   1424     31   2  0.410000     9.259612751    19.750425905    20.061753878   0  -1   0 # h*
   1425     31   2  0.410000    16.524629788    12.663636349    19.750520163   0   0   0 # h*
   1426     31   2  0.410000    17.920284345    12.092577261    19.853752034   0   0   0 # h*
   1427     31   2  0.410000     5.434350202    13.795127535    20.632534714   0   0   0 # h*
   1428     31   2  0.410000     6.813830351    13.016376547    20.822636859   0   0   0 # h*
   1429     31   2  0.410000    13.919025162     2.790348610    78.829424957   0   0   0 # h*
   1430     31   2  0.410000    14.094686087     1.552728076    79.533634013   0   0   0 # h*
   1431     31   2  0.410000    10.696614946     0.211952486    83.219107381   0   0   0 # h*
   1432     31   2  0.410000    10.980957539    21.372236572    82.170015632   0  -1   0 # h*
   1433     31   2  0.410000    17.019278277    20.559208441    79.794966130   0  -1   0 # h*
   1434     31   2  0.410000    18.146070401    21.198654082    80.692207674   0  -1   0 # h*
   1435     32   4  1.500000    13.056585979     3.931619839    15.002491314   0   0   0 # ca+t
   1436     32   4  1.500000    10.429748947     5.762277600    12.788974366   0   0   0 # ca+t
   1437     32   5  1.000000    13.185672245    10.948800825    11.655025994   0   0   0 # sc2
   1438     32   6  1.000000    13.950377257     5.676132992     9.757854137   0   0   0 # sc3
   1439     32   5  1.000000    13.247807369     7.826300515    11.681460741   0   0   0 # sc2
   1440     32   7 -0.580000    13.156270620     4.426278034    10.283953010   0   0   0 # oc12
   1441     32   7 -0.580000    13.189324175     9.384399617    11.099672115   0   0   0 # oc12
   1442     32   8 -0.940000    14.466205722    11.163774735    12.571421512   0   0   0 # oc13
   1443     32   8 -0.940000    11.934010616    11.288322301    12.515475728   0   0   0 # oc13
   1444     32   3 -1.080000     5.106638233     1.822992897    80.934205585   1   0   0 # oc22
   1445     32   9 -0.670000    15.550481931     5.586268530    10.156271040   0   0   0 # oc14
   1446     32   1 -0.820000    10.502424206     6.679225820    10.020044056   0   0   0 # o*
   1447     32   7 -0.580000    13.291076245     6.959008705    10.318814709   0   0   0 # oc12
   1448     32   8 -0.940000    11.925651176     7.542300845    12.505515632   0   0   0 # oc13
   1449     32   1 -0.820000     5.524924970    20.298375139    81.150861779   1  -1   0 # o*
   1450     32   1 -0.820000    11.252037643     4.057242764     8.254004822   0   0   0 # o*
   1451     32  11  1.700000    14.614301136     7.663360611     6.979519881   0   0   0 # casl
   1452     32   1 -0.820000    13.147663464     4.236405226     6.078917474   0   0   0 # o*
   1453     32   4  1.500000     1.774143067    20.297228180    76.440559730   1  -1   0 # ca+t
   1454     32   4  1.500000     4.968759915    18.477589765    74.460124943   1  -1   0 # ca+t
   1455     32   5  1.000000     1.923494134    19.965554276    73.069962701   1  -1   0 # sc2
   1456     32   6  1.000000     2.743383648    -0.025311839    71.224927024   1   0   0 # sc3
   1457     32   5  1.000000     1.846909705     2.058315066    73.167320360   1   0   0 # sc2
   1458     32   7 -0.580000     1.939957334    20.911698917    71.738642844   1  -1   0 # oc12
   1459     32   7 -0.580000     1.898519191     3.642146886    72.653632144   1   0   0 # oc12
   1460     32   8 -0.940000     3.275580357    20.126057551    73.989661175   1  -1   0 # oc13
   1461     32   8 -0.940000     0.618389614    20.178209029    74.020141336   1  -1   0 # oc13
   1462     32   3 -1.080000    10.948227056     3.903536176    19.573480003   0   0   0 # oc22
   1463     32   9 -0.670000     4.292232267    -0.114966111    71.721958405   1   0   0 # oc14
   1464     32   1 -0.820000     5.028571016    18.341889218    22.228881184   1  -2   0 # o*
   1465     32   7 -0.580000     1.902819058     1.246628541    71.745080840   1   0   0 # oc12
   1466     32   8 -0.940000     0.595776283     1.750461798    74.074456868   1   0   0 # oc13
   1467     32   1 -0.820000    19.301561592    15.285497406    69.108169225  -1   0   0 # o*
   1468     32   4  1.500000     4.665504958    -0.040394953    74.200458704   1   0   0 # ca+t
   1469     32   4  1.500000     1.979904032     1.730767230    76.478544752   1   0   0 # ca+t
   1470     32   5  1.000000     4.780797934    -0.480138420    77.478883128   1   0   0 # sc2
   1471     32   6  1.000000     5.448748184     1.752302587    79.361246504   1   0   0 # sc3
   1472     32   5  1.000000     4.833345131    18.764754671    77.484470693   1  -1   0 # sc2
   1473     32   7 -0.580000     4.774969923     0.499240195    78.836132553   1   0   0 # oc12
   1474     32   7 -0.580000     4.873665545    20.297558614    78.063334181   1  -1   0 # oc12
   1475     32   8 -0.940000     3.427811182    -0.238666743    76.630804489   1   0   0 # oc13
   1476     32   3 -1.080000    13.845719791     5.794203434     8.220359479   0   0   0 # oc22
   1477     32   9 -0.670000     7.135714669     1.806422548    79.135718992   1   0   0 # oc14
   1478     32   1 -0.820000     1.950301522     1.880553181    79.171460114   1   0   0 # o*
   1479     32   7 -0.580000     4.691737924     3.081118237    78.808805639   1   0   0 # oc12
   1480     32   8 -0.940000     3.465774550    18.538969028    76.700812550   1  -1   0 # oc13
   1481     32   1 -0.820000    13.890178237     9.624222147     8.239036322   0   0   0 # o*
   1482     32   1 -0.820000     1.692342329    -0.427754348    81.844250201   1   0   0 # o*
   1483     32   4  1.500000    10.302663033     9.506472835    12.620043296   0   0   0 # ca+t
   1484     32   4  1.500000    13.296245719     7.532626482    14.969010994   0   0   0 # ca+t
   1485     32   5  1.000000    10.332369434     9.128447360    15.961885507   0   0   0 # sc2
   1486     32   6  1.000000    11.076116111     3.890909630    18.019687112   0   0   0 # sc3
   1487     32   5  1.000000    10.427717809     6.061458818    16.045869506   0   0   0 # sc2
   1488     32   7 -0.580000    10.331374746     9.999408642    17.320350235   0   0   0 # oc12
   1489     32   7 -0.580000    10.310095196     7.602205853    16.588611379   0   0   0 # oc12
   1490     32   8 -0.940000     9.016567223     9.446470159    14.996472544   0   0   0 # oc13
   1491     32   3 -1.080000     2.776788610    -0.023983605    69.638963698   1   0   0 # oc22
   1492     32   9 -0.670000    12.683479921     3.811084782    17.693889371   0   0   0 # oc14
   1493     32   1 -0.820000     6.724002178    -0.269166464    69.758680364   1  -1   0 # o*
   1494     32   7 -0.580000    10.367552539     5.175892880    17.424956305   0   0   0 # oc12
   1495     32   8 -0.940000     9.166430180     5.665730985    15.109587159   0   0   0 # oc13
   1496     32   8 -0.940000    11.763712017     5.787747587    15.245074711   0   0   0 # oc13
   1497     32   1 -0.820000     8.626494624     5.269004483    19.918478359  -1   0   0 # o*
   1498     32   1 -0.820000    10.267008876     4.989719246    68.885988964   0  -1   0 # o*
   1499     32  11  1.700000     5.652711337    18.128381361    68.766662986   1   0   0 # casl
   1500     32   1 -0.820000    10.598414340     9.675684731    68.625345002   1   0   0 # o*
   1501     32  10  0.400000     7.515911368     1.455713244    79.925592197   1   0   0 # hoy
   1502     32  10  0.400000     4.814059604     0.078668065    70.939503497   1   0   0 # hoy
   1503     32  10  0.400000    15.925428690     5.512569552     9.305504226   0   0   0 # hoy
   1504     32   2  0.410000    13.407519619     9.577112266     9.112195591   0   0   0 # h*
   1505     32   2  0.410000    14.279358298    10.527963400     8.317726375   0   0   0 # h*
   1506     32   2  0.410000    10.155086042     6.848451832     9.124941868   0   0   0 # h*
   1507     32   2  0.410000    11.355223701     7.119431052     9.945435471   0   0   0 # h*
   1508     32   2  0.410000    11.865434087     4.428587843     8.920754656   0   0   0 # h*
   1509     32   2  0.410000    11.957350507     4.167935847     7.525097304   0   0   0 # h*
   1510     32   2  0.410000    13.931880148     3.907809579     5.615205509   0   0   0 # h*
   1511     32   2  0.410000    13.616666685     4.576932081     6.848220092   0   0   0 # h*
   1512     32   2  0.410000     7.037025462    21.118341015    69.929921408   1  -2   0 # h*
   1513     32   2  0.410000     7.040185471     0.215547092    70.543668196   1  -1   0 # h*
   1514     32   2  0.410000    19.161408156    16.255828254    68.872526527  -1   0   0 # h*
   1515     32   2  0.410000    19.181440815    15.422987555    70.027431875  -1   0   0 # h*
   1516     32   2  0.410000    10.780556115     4.117471580    68.722070151   0  -1   0 # h*
   1517     32   2  0.410000     9.255779906     4.614334523    69.055010501   0  -1   0 # h*
   1518     32   2  0.410000     8.972728505     5.841192069    19.184920258  -1   0   0 # h*
   1519     32   2  0.410000     9.455521680     4.675518945    19.950619966  -1   0   0 # h*
   1520     32   2  0.410000     9.741343026    10.216639666    68.658808606   1   0   0 # h*
   1521     32   2  0.410000    11.177215711    10.489813002    68.791529883   1   0   0 # h*
   1522     32   2  0.410000     5.390562353    19.240883191    22.265935584   1  -2   0 # h*
   1523     32   2  0.410000     5.451253397    17.967357442    23.006551620   1  -2   0 # h*
   1524     32   2  0.410000     2.027040689     2.805499040    79.502165657   1   0   0 # h*
   1525     32   2  0.410000     2.795423097     1.476201456    79.455816584   1   0   0 # h*
   1526     32   2  0.410000     1.905015416    21.134384513    82.489688543   1  -1   0 # h*
   1527     32   2  0.410000     0.828793631    21.456653558    81.501146846   1  -1   0 # h*
   1528     32   2  0.410000     5.858558137    19.454006346    81.546851844   1  -1   0 # h*
   1529     32   2  0.410000     5.455238966    19.843955809    80.164650463   1  -1   0 # h*
   1530     33   4  1.500000     1.796670662    11.365668003    14.788070609   0   0   0 # ca+t
   1531     33   4  1.500000    21.711598824    13.356415516    12.517997256  -1   0   0 # ca+t
   1532     33   5  1.000000     1.928025856    18.362974925    11.390557725   0   0   0 # sc2
   1533     33   6  1.000000     2.535775021    13.045087835     9.646909916   0   0   0 # sc3
   1534     33   5  1.000000     2.031909472    15.361069269    11.526401853   0   0   0 # sc2
   1535     33   7 -0.580000     1.821362264    11.828638052    10.297722315   0   0   0 # oc12
   1536     33   7 -0.580000     2.115771242    16.844963204    10.905203543   0   0   0 # oc12
   1537     33   8 -0.940000     3.127165102    18.836935377    12.372879051   0   0   0 # oc13
   1538     33   8 -0.940000     0.547606107    18.580268045    12.142624267   0   0   0 # oc13
   1539     33   3 -1.080000    16.342028435     8.729330521    80.749248371   0   0   0 # oc22
   1540     33   9 -0.670000     4.156746970    12.918159243     9.757495580   0   0   0 # oc14
   1541     33   1 -0.820000    21.624088419    13.666852525     9.916744636  -1   0   0 # o*
   1542     33   7 -0.580000     1.949422544    14.439851350    10.194340568   0   0   0 # oc12
   1543     33   8 -0.940000     0.729883484    15.184500090    12.410933933   0   0   0 # oc13
   1544     33   1 -0.820000    16.500154363     5.612461540    80.679421609   0   0   0 # o*
   1545     33   1 -0.820000    22.371392983    11.322144134     8.202383982  -1   0   0 # o*
   1546     33  11  1.700000     3.262720055    14.918526898     6.728275768   0   0   0 # casl
   1547     33   1 -0.820000     1.856462746    11.904820891     5.507736540   0   0   0 # o*
   1548     33   4  1.500000    13.045006712     5.425435280    76.091163708   0   0   0 # ca+t
   1549     33   4  1.500000    16.005657023     3.636028863    74.101875490   0   0   0 # ca+t
   1550     33   5  1.000000    13.033490082     5.042909748    72.913811507   0   0   0 # sc2
   1551     33   6  1.000000    13.672850928     7.290780278    70.928077482   0   0   0 # sc3
   1552     33   5  1.000000    13.119211068     9.475879275    72.869428815   0   0   0 # sc2
   1553     33   7 -0.580000    12.957089140     5.922897475    71.484211156   0   0   0 # oc12
   1554     33   7 -0.580000    13.076407094    11.004683290    72.298811566   0   0   0 # oc12
   1555     33   8 -0.940000    14.323873128     5.362404013    73.731231513   0   0   0 # oc13
   1556     33   8 -0.940000    11.775824490     5.322514150    73.971089741   0   0   0 # oc13
   1557     33   3 -1.080000    22.318401402    11.425983022    19.354379218  -1   0   0 # oc22
   1558     33   9 -0.670000    15.337534686     7.296722880    71.172270743   0   0   0 # oc14
   1559     33   1 -0.820000     3.608107459    16.960249906    68.514093415   1  -1   0 # o*
   1560     33   7 -0.580000    13.024687019     8.525640502    71.529480621   0   0   0 # oc12
   1561     33   8 -0.940000    11.850024698     9.206654261    73.925146491   0   0   0 # oc13
   1562     33   1 -0.820000    12.818863487     7.363554234    66.675978410   0   0   0 # o*
   1563     33   4  1.500000    15.910202609     7.261617453    73.779058924   0   0   0 # ca+t
   1564     33   4  1.500000    13.237260677     9.169975450    76.210113135   0   0   0 # ca+t
   1565     33   5  1.000000    15.973565672     6.984915839    77.173826957   0   0   0 # sc2
   1566     33   6  1.000000    16.569429215     9.020894658    79.209267382   0   0   0 # sc3
   1567     33   5  1.000000    16.005725125     3.935135560    77.268918474   0   0   0 # sc2
   1568     33   7 -0.580000    15.787907215     7.832939132    78.575456376   0   0   0 # oc12
   1569     33   7 -0.580000    15.933803753     5.472782072    77.816365604   0   0   0 # oc12
   1570     33   8 -0.940000    14.796171234     7.182899252    76.096210687   0   0   0 # oc13
   1571     33   3 -1.080000     2.064788987    12.955299594     8.170125385   0   0   0 # oc22
   1572     33   9 -0.670000    18.169330482     8.875646431    78.839013326   0   0   0 # oc14
   1573     33   1 -0.820000    13.248445333     9.511541955    78.996503626   0   0   0 # o*
   1574     33   7 -0.580000    15.812129173    10.422114567    78.689401453   0   0   0 # oc12
   1575     33   8 -0.940000    14.759101022     3.593756433    76.365641508   0   0   0 # oc13
   1576     33   8 -0.940000    17.326402268     3.733911924    76.399210435   0   0   0 # oc13
   1577     33   1 -0.820000     2.532535810    16.855019829     7.978152160   0   0   0 # o*
   1578     33   1 -0.820000    12.966001131     7.148523777    81.868037417   0   0   0 # o*
   1579     33   4  1.500000    21.586591377    16.933393697    12.466675644  -1   0   0 # ca+t
   1580     33   4  1.500000     2.076985749    15.007058863    14.806135208   0   0   0 # ca+t
   1581     33   5  1.000000    21.729164701    16.614067386    15.813332172  -1   0   0 # sc2
   1582     33   6  1.000000    22.357743432    11.434325977    17.786333408  -1   0   0 # sc3
   1583     33   5  1.000000    21.651910725    13.587157060    15.897832742  -1   0   0 # sc2
   1584     33   7 -0.580000    21.722100148    17.506751563    17.202479719  -1   0   0 # oc12
   1585     33   7 -0.580000    21.715167309    15.098699075    16.434107267  -1   0   0 # oc12
   1586     33   8 -0.940000    20.435521681    16.945264606    14.821007990  -1   0   0 # oc13
   1587     33   3 -1.080000    13.361227861     7.288481773    69.390190553   0   0   0 # oc22
   1588     33   9 -0.670000     1.427108076    11.429007024    17.278695223   0   0   0 # oc14
   1589     33   1 -0.820000     0.500914996     1.391933066    68.793536029  -1   0   0 # o*
   1590     33   7 -0.580000    21.639678460    12.718626953    17.243873126  -1   0   0 # oc12
   1591     33   8 -0.940000    20.333384246    13.330921932    14.978693147  -1   0   0 # oc13
   1592     33   8 -0.940000    22.923018322    13.267086837    14.981821590  -1   0   0 # oc13
   1593     33   1 -0.820000    19.716249772    11.959245695    66.852091906   0   0   0 # o*
   1594     33   1 -0.820000     3.557778137    19.928503463    19.925836624   0   2   0 # o*
   1595     33   1 -0.820000     8.468139845     9.252643717    19.842537049   0   0   0 # o*
   1596     33  11  1.700000     4.357098371     2.714663098    19.576798833  -1   1   0 # casl
   1597     33   1 -0.820000    11.486705941    17.142185020    69.567435868   1  -2   0 # o*
   1598     33  10  0.400000    18.266524554     7.922724902    79.044718112   0   0   0 # hoy
   1599     33  10  0.400000    15.710320003     7.374195706    70.229819028   0   0   0 # hoy
   1600     33  10  0.400000     1.886823110    11.426090973    18.133668853   0   0   0 # hoy
   1601     33  10  0.400000     4.458795524    12.659773532     8.882270970   0   0   0 # hoy
   1602     33   2  0.410000     3.106800871    17.653058677     7.938807483   0   0   0 # h*
   1603     33   2  0.410000     2.212157591    17.067965055     8.858454149   0   0   0 # h*
   1604     33   2  0.410000    21.075917017    14.018025954     9.168215392  -1   0   0 # h*
   1605     33   2  0.410000    22.420558506    14.220111182     9.726050292  -1   0   0 # h*
   1606     33   2  0.410000    22.699785843    10.608416904     8.750433758  -1   0   0 # h*
   1607     33   2  0.410000     0.654980268    11.854383445     8.388554425   0   0   0 # h*
   1608     33   2  0.410000     2.643152677    11.334087697     5.416612040   0   0   0 # h*
   1609     33   2  0.410000     1.997453901    12.074621660     6.462872494   0   0   0 # h*
   1610     33   2  0.410000     0.722246857     1.385924392    69.749246754  -1   0   0 # h*
   1611     33   2  0.410000     1.276509768     0.722262139    68.564270291  -1   0   0 # h*
   1612     33   2  0.410000    13.568176899     7.068023458    66.095287068   0   0   0 # h*
   1613     33   2  0.410000    13.247208758     7.317258880    67.561205532   0   0   0 # h*
   1614     33   2  0.410000     9.316053286     9.653538823    19.580885865   0   0   0 # h*
   1615     33   2  0.410000     7.862206531     9.998971333    19.692010090   0   0   0 # h*
   1616     33   2  0.410000     2.894913974    20.638836097    20.332387838   0   2   0 # h*
   1617     33   2  0.410000     4.066091381    20.586664571    19.368881664   0   2   0 # h*
   1618     33   2  0.410000    19.317828904    11.261550390    66.219669320   0   0   0 # h*
   1619     33   2  0.410000    19.344330196    11.572926767    67.686733529   0   0   0 # h*
   1620     33   2  0.410000    10.907445689    16.330593135    69.701450915   1  -2   0 # h*
   1621     33   2  0.410000    11.219471083    17.652830606    70.407611361   1  -2   0 # h*
   1622     33   2  0.410000     3.215503724    16.121381066    68.984206114   1  -1   0 # h*
   1623     33   2  0.410000     3.112663490    16.748731326    67.666077523   1  -1   0 # h*
   1624     33   2  0.410000    14.173056210     9.423870442    79.132756404   0   0   0 # h*
   1625     33   2  0.410000    13.143292177    10.416216934    79.260252000   0   0   0 # h*
   1626     33   2  0.410000    12.423425429     6.317539325    81.637055809   0   0   0 # h*
   1627     33   2  0.410000    12.426716613     7.876856810    81.420232850   0   0   0 # h*
   1628     33   2  0.410000    17.129655715     5.601532329    79.972494972   0   0   0 # h*
   1629     33   2  0.410000    15.932541394     4.821924614    80.433519617   0   0   0 # h*
   1630     34   4  1.500000    12.913660367    11.205775198    14.857919220   0   0   0 # ca+t
   1631     34   4  1.500000    10.442657445    13.226794830    12.671351067   0   0   0 # ca+t
   1632     34   5  1.000000    13.133740117    18.371224017    11.714102321   0   0   0 # sc2
   1633     34   6  1.000000    14.053402048    13.171237921     9.786688161   0   0   0 # sc3
   1634     34   5  1.000000    13.197936035    15.338915948    11.681307922   0   0   0 # sc2
   1635     34   7 -0.580000    13.283049208    11.839323905    10.286420119   0   0   0 # oc12
   1636     34   7 -0.580000    13.141670708    16.862762021    11.133896101   0   0   0 # oc12
   1637     34   8 -0.940000    14.416713990    18.738432249    12.635396709   0   0   0 # oc13
   1638     34   8 -0.940000    11.857938804    18.682171922    12.493855432   0   0   0 # oc13
   1639     34   3 -1.080000     5.106589916     9.096840653    80.837343622   1   0   0 # oc22
   1640     34   9 -0.670000    15.620707025    13.178476717    10.195820093   0   0   0 # oc14
   1641     34   1 -0.820000    10.362009567    13.693076230     9.856531685   0   0   0 # o*
   1642     34   7 -0.580000    13.248056110    14.451971309    10.318780274   0   0   0 # oc12
   1643     34   8 -0.940000    11.894836005    15.054734133    12.553133516   0   0   0 # oc13
   1644     34   1 -0.820000     5.209109333     5.202873748    80.765320448   1   0   0 # o*
   1645     34   1 -0.820000    11.276851116    11.318307902     7.847493115   0   0   0 # o*
   1646     34  11  1.700000    14.589823838    15.044707159     7.018405393   0   0   0 # casl
   1647     34   1 -0.820000    13.386607964    11.486687734     6.079612189   0   0   0 # o*
   1648     34   4  1.500000     1.818094301     5.427322486    76.443076235   1   0   0 # ca+t
   1649     34   4  1.500000     4.858331515     3.675688637    74.098076286   1   0   0 # ca+t
   1650     34   5  1.000000     1.828612400     5.146575621    73.214766175   1   0   0 # sc2
   1651     34   6  1.000000     2.645717660     7.265965115    71.220652250   1   0   0 # sc3
   1652     34   5  1.000000     1.924193343     9.515143710    73.085843048   1   0   0 # sc2
   1653     34   7 -0.580000     1.783461569     6.022712233    71.838904859   1   0   0 # oc12
   1654     34   7 -0.580000     1.905512148    11.078253766    72.520222307   1   0   0 # oc12
   1655     34   8 -0.940000     3.180206828     5.455997111    74.030558419   1   0   0 # oc13
   1656     34   8 -0.940000     0.530193736     5.373128325    74.210678737   1   0   0 # oc13
   1657     34   3 -1.080000    10.761403555    11.450315264    19.407957340   0   0   0 # oc22
   1658     34   9 -0.670000     4.238095345     7.215940645    71.684910664   1   0   0 # oc14
   1659     34   1 -0.820000    18.135949215    21.325613820    69.131360531   1   0   0 # o*
   1660     34   7 -0.580000     1.980463101     8.645687899    71.669962071   1   0   0 # oc12
   1661     34   8 -0.940000     0.544225688     9.222216502    73.917601105   1   0   0 # oc13
   1662     34   1 -0.820000     6.782533191     9.452449161    67.513639369   1  -2   0 # o*
   1663     34   4  1.500000     4.595686767     7.326104680    74.249329699   1   0   0 # ca+t
   1664     34   4  1.500000     2.011081659     9.213401080    76.253243992   1   0   0 # ca+t
   1665     34   5  1.000000     4.588286344     6.998423920    77.435268453   1   0   0 # sc2
   1666     34   6  1.000000     5.277954652     9.140929187    79.281505411   1   0   0 # sc3
   1667     34   5  1.000000     4.631685144     3.928944784    77.415082623   1   0   0 # sc2
   1668     34   7 -0.580000     4.454638040     7.941738267    78.698606573   1   0   0 # oc12
   1669     34   7 -0.580000     4.474422377     5.449718046    77.976509762   1   0   0 # oc12
   1670     34   8 -0.940000     3.312986274     7.216343689    76.513767542   1   0   0 # oc13
   1671     34   3 -1.080000    13.935495819    13.193381447     8.228860735   0   0   0 # oc22
   1672     34   9 -0.670000     6.866064502     8.919457544    79.002479170   1   0   0 # oc14
   1673     34   1 -0.820000     2.754666199    11.322816575    81.414612066   1   0   0 # o*
   1674     34   7 -0.580000     4.779317414    10.552430280    78.785672957   1   0   0 # oc12
   1675     34   8 -0.940000     3.394528325     3.490040880    76.583627988   1   0   0 # oc13
   1676     34   8 -0.940000     5.922585268     3.729812540    76.502673748   1   0   0 # oc13
   1677     34   1 -0.820000    13.801703907    16.901853916     8.492036601   0   0   0 # o*
   1678     34   1 -0.820000     1.731632335     6.902577867    81.833293650   1   0   0 # o*
   1679     34   4  1.500000    10.350749371    16.926957771    12.680755991   0   0   0 # ca+t
   1680     34   4  1.500000    13.143586705    14.939191272    14.951753875   0   0   0 # ca+t
   1681     34   5  1.000000    10.324823408    16.626333216    16.029716013   0   0   0 # sc2
   1682     34   6  1.000000    11.026066810    11.356119569    17.862489783   0   0   0 # sc3
   1683     34   5  1.000000    10.385083523    13.579793890    15.827864394   0   0   0 # sc2
   1684     34   7 -0.580000    10.389272444    17.508266960    17.454840930   0   0   0 # oc12
   1685     34   7 -0.580000    10.325046349    15.135959239    16.477393708   0   0   0 # oc12
   1686     34   8 -0.940000     8.971358232    16.905191846    15.190016046   0   0   0 # oc13
   1687     34   3 -1.080000     2.663384226     7.178734113    69.644339080   1   0   0 # oc22
   1688     34   9 -0.670000    12.564405019    11.355763969    17.519524563   0   0   0 # oc14
   1689     34   1 -0.820000     6.085676990    20.918572719    21.468624570   0  -2   0 # o*
   1690     34   7 -0.580000    10.235545718    12.597374334    17.116209240   0   0   0 # oc12
   1691     34   8 -0.940000     9.122594187    13.284088705    14.928812837   0   0   0 # oc13
   1692     34   8 -0.940000    11.631445630    13.198130116    14.963992494   0   0   0 # oc13
   1693     34   1 -0.820000     9.472233757     7.625947660    70.703459453   0   0   0 # o*
   1694     34   1 -0.820000    13.674493499    11.780295968    20.072845096   0   0   0 # o*
   1695     34   1 -0.820000    22.513530648    14.475107225    19.364550869   0  -1   0 # o*
   1696     34  11  1.700000    20.692647662    13.139942628    68.784605844   0   1   0 # casl
   1697     34   1 -0.820000    11.910750133     6.418315176    20.323744460   2   0   0 # o*
   1698     34  10  0.400000     7.214718314     8.252417878    79.639410730   1   0   0 # hoy
   1699     34  10  0.400000     4.722894826     7.176191272    70.888133777   1   0   0 # hoy
   1700     34  10  0.400000    12.900209062    11.947748668    18.157368731   0   0   0 # hoy
   1701     34  10  0.400000    16.101097966    12.847189062     9.415855545   0   0   0 # hoy
   1702     34   2  0.410000    13.857255363    17.889095103     8.546715531   0   0   0 # h*
   1703     34   2  0.410000    13.378629378    16.757908902     9.393725073   0   0   0 # h*
   1704     34   2  0.410000     9.762844566    13.924620740     9.101950801   0   0   0 # h*
   1705     34   2  0.410000    11.247358812    13.836498930     9.485198048   0   0   0 # h*
   1706     34   2  0.410000    11.921867389    12.030893371     8.142641652   0   0   0 # h*
   1707     34   2  0.410000    12.006190952    10.914316833     7.271551752   0   0   0 # h*
   1708     34   2  0.410000    14.162788688    10.971565779     5.889380881   0   0   0 # h*
   1709     34   2  0.410000    13.789754558    12.149407613     6.711479505   0   0   0 # h*
   1710     34   2  0.410000     6.900354723    20.674592870    20.994088402   0  -2   0 # h*
   1711     34   2  0.410000     5.624449584    21.522774621    20.773964035   0  -2   0 # h*
   1712     34   2  0.410000     6.021577084     9.987993650    67.604198808   1  -2   0 # h*
   1713     34   2  0.410000     7.260539182     9.880652744    68.326644401   1  -2   0 # h*
   1714     34   2  0.410000    22.289130151    13.561658103    19.571134376   0  -1   0 # h*
   1715     34   2  0.410000    22.314251854    14.410445756    18.370067865   0  -1   0 # h*
   1716     34   2  0.410000    12.710440216    11.406336840    19.939951294   0   0   0 # h*
   1717     34   2  0.410000    13.472641325    12.625305604    20.507209119   0   0   0 # h*
   1718     34   2  0.410000     8.496731063     7.451158073    70.639533689   0   0   0 # h*
   1719     34   2  0.410000     9.338809016     8.548862990    70.596368035   0   0   0 # h*
   1720     34   2  0.410000    11.065208085     6.771256432    20.605138400   2   0   0 # h*
   1721     34   2  0.410000    11.771825627     5.538386564    19.957646093   2   0   0 # h*
   1722     34   2  0.410000    18.460015500    20.884498382    69.998677866   1   0   0 # h*
   1723     34   2  0.410000    18.199735369    20.517374365    68.645977359   1   0   0 # h*
   1724     34   2  0.410000     3.535574583    10.888967738    80.976353127   1   0   0 # h*
   1725     34   2  0.410000     3.113184852    11.888730239    82.139336082   1   0   0 # h*
   1726     34   2  0.410000     0.874856615     6.601140041    81.462304858   1   0   0 # h*
   1727     34   2  0.410000     1.492765726     6.910683632    82.803973221   1   0   0 # h*
   1728     34   2  0.410000     4.817954302     4.239670260    80.824915399   1   0   0 # h*
   1729     34   2  0.410000     5.401649348     5.187889261    79.811325568   1   0   0 # h*
   1730     35   4  1.500000     1.926259040    18.862211346    14.654159910   0   0   0 # ca+t
   1731     35   4  1.500000    21.808080407    20.599302343    12.400686082  -1   0   0 # ca+t
   1732     35   5  1.000000     1.939428388     3.616130047    11.505181867   0   1   0 # sc2
   1733     35   6  1.000000     2.625053211    20.594855286     9.535960943   0   0   0 # sc3
   1734     35   5  1.000000     1.936563202     0.506006240    11.448203944   0   1   0 # sc2
   1735     35   7 -0.580000     1.922319082    19.294130726    10.068645613   0   0   0 # oc12
   1736     35   7 -0.580000     1.895670048     2.055631310    10.912844265   0   1   0 # oc12
   1737     35   8 -0.940000     0.624010077     3.894969560    12.430968274   0   1   0 # oc13
   1738     35   3 -1.080000    16.635545878    16.481130069    80.824172060   0   0   0 # oc22
   1739     35   9 -0.670000     4.267430434    20.598507000     9.813928281   0   0   0 # oc14
   1740     35   1 -0.820000    22.119005754    -0.394106141     7.819546434  -1   1   0 # o*
   1741     35   7 -0.580000     1.874262690    -0.419247199    10.164543203   0   1   0 # oc12
   1742     35   8 -0.940000     0.748438505     0.196261766    12.413078103   0   1   0 # oc13
   1743     35   1 -0.820000    16.880661401    12.734031834    81.154422530   0   0   0 # o*
   1744     35   1 -0.820000    22.314667716    18.617404945     8.064622893  -1   0   0 # o*
   1745     35  11  1.700000     3.378923658     0.378471932     6.827372105   0   1   0 # casl
   1746     35   1 -0.820000     1.766298860    19.430912622     5.829822141   0   0   0 # o*
   1747     35   4  1.500000    13.234399441    12.896194086    76.155447200   0   0   0 # ca+t
   1748     35   4  1.500000    16.002772235    10.949222520    74.166407971   0   0   0 # ca+t
   1749     35   5  1.000000    13.128700513    12.495309140    72.946956418   0   0   0 # sc2
   1750     35   6  1.000000    14.020041376    14.735188240    71.181008135   0   0   0 # sc3
   1751     35   5  1.000000    13.198385858    16.868452069    73.218471321   0   0   0 # sc2
   1752     35   7 -0.580000    13.315477942    13.400612701    71.593978727   0   0   0 # oc12
   1753     35   8 -0.940000    14.408089197    12.707298640    73.917246590   0   0   0 # oc13
   1754     35   8 -0.940000    11.810883756    12.835466500    73.791507432   0   0   0 # oc13
   1755     35   3 -1.080000    22.126103470    18.964603861    19.187730293  -1   0   0 # oc22
   1756     35   9 -0.670000    15.613603510    14.700602304    71.546068542   0   0   0 # oc14
   1757     35   1 -0.820000    17.877653501     4.782288839    67.723918813   0   1   0 # o*
   1758     35   7 -0.580000    13.205057450    16.002818721    71.848187627   0   0   0 # oc12
   1759     35   8 -0.940000    11.852703415    16.728254447    74.102478628   0   0   0 # oc13
   1760     35   1 -0.820000     7.427934814    13.548869783    68.736254144   0  -1   0 # o*
   1761     35   4  1.500000    15.915666498    14.686510576    74.206384364   0   0   0 # ca+t
   1762     35   4  1.500000    13.329576116    16.641227993    76.450846306   0   0   0 # ca+t
   1763     35   5  1.000000    15.914007999    14.377259853    77.343767937   0   0   0 # sc2
   1764     35   6  1.000000    16.765039387    16.537905140    79.266793236   0   0   0 # sc3
   1765     35   5  1.000000    15.841313637    11.324807004    77.355718807   0   0   0 # sc2
   1766     35   7 -0.580000    15.886818126    15.358001683    78.617613763   0   0   0 # oc12
   1767     35   7 -0.580000    15.821138553    12.828594084    77.933715327   0   0   0 # oc12
   1768     35   8 -0.940000    14.761313565    14.709298612    76.341238212   0   0   0 # oc13
   1769     35   3 -1.080000     2.380103405    20.767007879     7.975908319   0   0   0 # oc22
   1770     35   9 -0.670000    18.367812698    16.517917847    78.944454846   0   0   0 # oc14
   1771     35   1 -0.820000    13.441659025    17.104590961    79.047920944   0   0   0 # o*
   1772     35   7 -0.580000    16.090227989    17.958696879    78.829209605   0   0   0 # oc12
   1773     35   8 -0.940000    14.550208814    11.060175818    76.503465043   0   0   0 # oc13
   1774     35   8 -0.940000    17.106864033    11.076281226    76.364560648   0   0   0 # oc13
   1775     35   1 -0.820000     2.677908209     2.188154007     8.376092812   0   1   0 # o*
   1776     35   1 -0.820000    13.497517228    14.588989591    81.150498734   0   0   0 # o*
   1777     35   4  1.500000    21.595312598     2.053540780    12.543492260  -1   1   0 # ca+t
   1778     35   4  1.500000     2.126471585     0.229698131    14.648268521   0   1   0 # ca+t
   1779     35   5  1.000000    21.717979315     1.794442083    15.856691285  -1   1   0 # sc2
   1780     35   6  1.000000    22.401872785    18.888543367    17.685179966  -1   0   0 # sc3
   1781     35   5  1.000000    21.624950638    20.993894608    15.716606148  -1   0   0 # sc2
   1782     35   7 -0.580000    21.670351362     2.572589592    17.285664762  -1   1   0 # oc12
   1783     35   7 -0.580000    21.541052114     0.222903901    16.293065071  -1   1   0 # oc12
   1784     35   8 -0.940000    20.520473481     2.172174700    14.889981410  -1   1   0 # oc13
   1785     35   3 -1.080000    13.832702908    14.808668848    69.626639338   0   0   0 # oc22
   1786     35   9 -0.670000     1.460690841    19.038000499    17.419044091   0   0   0 # oc14
   1787     35   1 -0.820000     6.762998529     3.326573187    19.419142090   0   1   0 # o*
   1788     35   7 -0.580000    21.599608973    20.082399224    17.060833383  -1   0   0 # oc12
   1789     35   8 -0.940000    20.363824050    20.680153599    14.729208413  -1   0   0 # oc13
   1790     35   8 -0.940000     0.468077668    20.778646302    14.832510181   0   0   0 # oc13
   1791     35   1 -0.820000     5.463660470     6.880727448    68.977638309   1   1   0 # o*
   1792     35   1 -0.820000    15.993017775     8.768879924    21.658364757   0   2   0 # o*
   1793     35   1 -0.820000    11.598914004    13.965904928    20.641557121   0   1   0 # o*
   1794     35  11  1.700000     3.585896868     9.197390894    20.179558826   0   1   0 # casl
   1795     35   1 -0.820000    20.884605236    19.040442688    22.238723885  -1   0   0 # o*
   1796     35  10  0.400000    18.831036763    16.300214498    79.762084166   0   0   0 # hoy
   1797     35  10  0.400000    16.099781519    14.079868980    71.038594881   0   0   0 # hoy
   1798     35  10  0.400000     1.580191306    19.146386603    18.380086219   0   0   0 # hoy
   1799     35  10  0.400000     4.523998354    20.182374902     8.971747098   0   0   0 # hoy
   1800     35   2  0.410000     2.987212071     3.079059637     8.586546002   0   1   0 # h*
   1801     35   2  0.410000     2.057325377     2.152181082     9.127012324   0   1   0 # h*
   1802     35   2  0.410000    21.661678168    21.352877848     7.063441652  -1   0   0 # h*
   1803     35   2  0.410000     0.495809968    21.422396256     7.785839542   0   0   0 # h*
   1804     35   2  0.410000    22.788922596    17.954092230     7.472834210  -1   0   0 # h*
   1805     35   2  0.410000     0.479822430    19.137645687     8.500063971   0   0   0 # h*
   1806     35   2  0.410000     1.959465393    19.959172990     6.705983130   0   0   0 # h*
   1807     35   2  0.410000     2.595837881    18.949106226     5.644139961   0   0   0 # h*
   1808     35   2  0.410000     7.440804976     2.634394577    19.526040284   0   1   0 # h*
   1809     35   2  0.410000     7.348664930     4.125448637    19.518297542   0   1   0 # h*
   1810     35   2  0.410000     7.301259497    13.502198195    69.725935456   0  -1   0 # h*
   1811     35   2  0.410000     7.820793201    12.624773412    68.638197443   0  -1   0 # h*
   1812     35   2  0.410000    10.942559417    14.336029410    21.236972535   0   1   0 # h*
   1813     35   2  0.410000    11.268746062    13.082507539    20.590641038   0   1   0 # h*
   1814     35   2  0.410000    16.338222075     8.035140349    21.082827715   0   2   0 # h*
   1815     35   2  0.410000    15.837724192     8.194066512    22.478926358   0   2   0 # h*
   1816     35   2  0.410000     5.653097959     7.681769991    68.455675671   1   1   0 # h*
   1817     35   2  0.410000     4.511487758     7.100606381    68.906552729   1   1   0 # h*
   1818     35   2  0.410000    21.024603277    18.856344191    23.166189088  -1   0   0 # h*
   1819     35   2  0.410000    21.731549572    19.487674082    22.166298915  -1   0   0 # h*
   1820     35   2  0.410000    17.914582937     5.692877485    68.030736198   0   1   0 # h*
   1821     35   2  0.410000    18.531570943     4.447247763    68.411003254   0   1   0 # h*
   1822     35   2  0.410000    14.204584446    17.530027945    79.478023418   0   0   0 # h*
   1823     35   2  0.410000    12.729503693    17.368545004    79.693011123   0   0   0 # h*
   1824     35   2  0.410000    12.842017547    13.826636214    80.966635184   0   0   0 # h*
   1825     35   2  0.410000    13.378124078    15.266847921    80.411762867   0   0   0 # h*
   1826     35   2  0.410000    17.007243366    12.540042485    80.217167969   0   0   0 # h*
   1827     35   2  0.410000    17.253561218    11.906071341    81.499804886   0   0   0 # h*
   1828     36   4  1.500000    13.094029905    18.693187225    15.021062930   0   0   0 # ca+t
   1829     36   4  1.500000    10.487428751    20.556181216    12.626606137   0   0   0 # ca+t
   1830     36   5  1.000000    13.177393067     3.578920709    11.706926466   0   1   0 # sc2
   1831     36   6  1.000000    13.935515733    20.522264513     9.837994014   0   0   0 # sc3
   1832     36   5  1.000000    13.135279528     0.470228980    11.755150933   0   1   0 # sc2
   1833     36   7 -0.580000    13.159729498    19.197562469    10.360834551   0   0   0 # oc12
   1834     36   7 -0.580000    13.211917557     2.030030060    11.178386393   0   1   0 # oc12
   1835     36   8 -0.940000    11.847930555     3.872968733    12.615936619   0   1   0 # oc13
   1836     36   3 -1.080000     5.159169365    16.406357822    80.936843760   1   0   0 # oc22
   1837     36   9 -0.670000    15.569194106    20.563359539    10.200795782   0   0   0 # oc14
   1838     36   1 -0.820000    10.590274908    -0.400510829     7.775947062   0   1   0 # o*
   1839     36   7 -0.580000    13.203065595    -0.430450828    10.389517716   0   1   0 # oc12
   1840     36   8 -0.940000    11.773666181     0.272272116    12.523026119   0   1   0 # oc13
   1841     36   1 -0.820000     5.560916313    12.963463964    80.725869384   1   0   0 # o*
   1842     36   1 -0.820000    10.996009171    18.559937796     8.309692209   0   0   0 # o*
   1843     36  11  1.700000    14.819704011     0.023285391     6.997698197   0   1   0 # casl
   1844     36   1 -0.820000    13.054152848    19.035509371     6.185322180   0   0   0 # o*
   1845     36   4  1.500000     1.656600156    12.941385645    76.237113423   1   0   0 # ca+t
   1846     36   4  1.500000     4.823358905    11.209667865    74.131050119   1   0   0 # ca+t
   1847     36   5  1.000000     1.884105626    12.609282518    73.061241182   1   0   0 # sc2
   1848     36   6  1.000000     2.686580279    14.670237759    71.056049078   1   0   0 # sc3
   1849     36   5  1.000000     2.012702429    16.880385976    72.997700469   1   0   0 # sc2
   1850     36   7 -0.580000     1.754877951    13.597237244    71.731615640   1   0   0 # oc12
   1851     36   8 -0.940000     3.168489921    12.923043568    73.888818714   1   0   0 # oc13
   1852     36   8 -0.940000     0.581294237    12.758888123    74.026039812   1   0   0 # oc13
   1853     36   3 -1.080000    10.981469925    18.854589342    19.552295578   0   0   0 # oc22
   1854     36   9 -0.670000     4.255998773    14.309095444    71.222684016   1   0   0 # oc14
   1855     36   1 -0.820000    18.652455435    18.810178447    18.014021259   0   0   0 # o*
   1856     36   7 -0.580000     2.293329800    16.092880312    71.596732772   1   0   0 # oc12
   1857     36   8 -0.940000     0.713816396    16.460483615    73.826340317   1   0   0 # oc13
   1858     36   1 -0.820000    11.888027070     2.374268317    69.467835154   0   1   0 # o*
   1859     36   4  1.500000     4.708074493    14.843204495    74.171203893   1   0   0 # ca+t
   1860     36   4  1.500000     2.014525654    16.673010405    76.311043467   1   0   0 # ca+t
   1861     36   5  1.000000     4.719867939    14.386613295    77.280889656   1   0   0 # sc2
   1862     36   6  1.000000     5.486085026    16.490959482    79.398781315   1   0   0 # sc3
   1863     36   5  1.000000     4.635619527    11.367802067    77.347932162   1   0   0 # sc2
   1864     36   7 -0.580000     4.650795254    15.300438807    78.688027146   1   0   0 # oc12
   1865     36   7 -0.580000     4.615318337    12.904132143    77.863416588   1   0   0 # oc12
   1866     36   8 -0.940000     3.549090183    14.713909994    76.321808728   1   0   0 # oc13
   1867     36   3 -1.080000    13.798036592    20.589871535     8.249276798   0   0   0 # oc22
   1868     36   9 -0.670000     7.108051912    16.305997745    79.112164043   1   0   0 # oc14
   1869     36   1 -0.820000     2.088679204    16.850016411    78.985040483   1   0   0 # o*
   1870     36   7 -0.580000     4.939304837    17.946362596    78.850026594   1   0   0 # oc12
   1871     36   8 -0.940000     3.343749797    11.118781619    76.517855140   1   0   0 # oc13
   1872     36   8 -0.940000     5.917814594    11.078776677    76.426286680   1   0   0 # oc13
   1873     36   1 -0.820000    13.734178736     1.967075831     8.200041301   0   1   0 # o*
   1874     36   1 -0.820000     2.201065345    14.572636651    81.008395791   1   0   0 # o*
   1875     36   4  1.500000    10.177330780     1.996293029    12.918363731   0   1   0 # ca+t
   1876     36   4  1.500000    13.299796547     0.199993366    14.983403378   0   1   0 # ca+t
   1877     36   5  1.000000    10.343792811     1.777427553    16.062661497   0   1   0 # sc2
   1878     36   6  1.000000    11.114973246    18.813522823    17.989427574   0   0   0 # sc3
   1879     36   5  1.000000    10.353411928    20.988593255    16.076975141   0   0   0 # sc2
   1880     36   7 -0.580000    10.294949370     2.629731848    17.417470546   0   1   0 # oc12
   1881     36   7 -0.580000    10.341229124     0.256440723    16.610562701   0   1   0 # oc12
   1882     36   8 -0.940000     9.032709044     1.935704223    15.149544850   0   1   0 # oc13
   1883     36   3 -1.080000     2.259200100    14.633096160    69.520021030   1   0   0 # oc22
   1884     36   9 -0.670000    12.753635455    18.895397703    17.586572548   0   0   0 # oc14
   1885     36   1 -0.820000    21.746330570    14.540144764    70.962111130   0  -2   0 # o*
   1886     36   7 -0.580000    10.350686129    20.101419084    17.403356379   0   0   0 # oc12
   1887     36   8 -0.940000     9.018850150    20.701800122    15.186299997   0   0   0 # oc13
   1888     36   8 -0.940000    11.591864886    20.751093851    15.127839422   0   0   0 # oc13
   1889     36   1 -0.820000    15.135497580     3.439055083    19.755345670  -1   0   0 # o*
   1890     36   1 -0.820000    20.175011626    16.025736604    20.410619485   0   0   0 # o*
   1891     36   1 -0.820000     4.720412722     3.678095151    21.994418661   1   1   0 # o*
   1892     36  11  1.700000    11.048541758     7.274502410    68.762654873   2   1   0 # casl
   1893     36   1 -0.820000    16.290223515     1.959270122    22.372843276  -1   1   0 # o*
   1894     36  10  0.400000     7.316006153    15.788828333    79.855780618   1   0   0 # hoy
   1895     36  10  0.400000     4.462532838    13.690382133    70.530129295   1   0   0 # hoy
   1896     36  10  0.400000    13.125491328    18.516570910    18.386678925   0   0   0 # hoy
   1897     36  10  0.400000    15.875118874    20.043778212     9.467644157   0   0   0 # hoy
   1898     36   2  0.410000    13.131117566     2.683771464     7.970275797   0   1   0 # h*
   1899     36   2  0.410000    13.283134367     1.781793834     9.058184533   0   1   0 # h*
   1900     36   2  0.410000    11.530925387    21.634562200     7.965067266   0   0   0 # h*
   1901     36   2  0.410000    10.507043895    21.512381552     6.851921929   0   0   0 # h*
   1902     36   2  0.410000    11.530879340    18.961990075     9.020622014   0   0   0 # h*
   1903     36   2  0.410000    11.744129072    18.502238759     7.683231849   0   0   0 # h*
   1904     36   2  0.410000    13.980710535    18.736036012     6.033755109   0   0   0 # h*
   1905     36   2  0.410000    13.131849702    19.539903007     7.072344166   0   0   0 # h*
   1906     36   2  0.410000    21.595037131    15.487741978    71.021373475   0  -2   0 # h*
   1907     36   2  0.410000    22.711108285    14.464580616    70.777756237   0  -2   0 # h*
   1908     36   2  0.410000    12.218155602     2.151247904    70.360447710   0   1   0 # h*
   1909     36   2  0.410000    11.983649548     1.464323282    69.104704259   0   1   0 # h*
   1910     36   2  0.410000     5.587040636     4.124113967    22.231840851   1   1   0 # h*
   1911     36   2  0.410000     4.089096978     4.375130316    22.304700777   1   1   0 # h*
   1912     36   2  0.410000    19.692242851    15.227312958    20.768871551   0   0   0 # h*
   1913     36   2  0.410000    20.870531586    15.578774561    19.848007088   0   0   0 # h*
   1914     36   2  0.410000    15.115613601     4.365638808    20.113632451  -1   0   0 # h*
   1915     36   2  0.410000    15.597554563     3.568491251    18.874529101  -1   0   0 # h*
   1916     36   2  0.410000    16.430876051     2.889367955    22.465182067  -1   1   0 # h*
   1917     36   2  0.410000    17.084335397     1.641003795    22.886246544  -1   1   0 # h*
   1918     36   2  0.410000    18.276364046    19.723088439    18.027203188   0   0   0 # h*
   1919     36   2  0.410000    17.873586772    18.356488535    17.688813123   0   0   0 # h*
   1920     36   2  0.410000     2.956290599    17.173715134    79.205587374   1   0   0 # h*
   1921     36   2  0.410000     2.072034488    16.001534547    79.504019932   1   0   0 # h*
   1922     36   2  0.410000     2.207971456    13.854790004    80.363260836   1   0   0 # h*
   1923     36   2  0.410000     1.440859332    14.225670257    81.576885803   1   0   0 # h*
   1924     36   2  0.410000     5.184715552    12.532025888    79.892386618   1   0   0 # h*
   1925     36   2  0.410000     6.499415129    13.057771576    80.328704178   1   0   0 # h*
   1926     37   4  1.500000    14.315500317    18.384572320    90.147350512   0  -1   0 # ca+t
   1927     37   4  1.500000    11.643258185    20.348322968    88.082614589   0  -1   0 # ca+t
   1928     37   5  1.000000    14.360054229     3.266013031    86.995394050   0   0   0 # sc2
   1929     37   6  1.000000    15.295125355    20.334609095    84.985105164   0  -1   0 # sc3
   1930     37   5  1.000000    14.358100178     0.197369192    86.921330723   0   0   0 # sc2
   1931     37   7 -0.580000    14.587531906    18.983927848    85.478523160   0  -1   0 # oc12
   1932     37   7 -0.580000    14.313505813     1.731462223    86.394266861   0   0   0 # oc12
   1933     37   8 -0.940000    15.686309203     3.546077892    87.855341324   0   0   0 # oc13
   1934     37   8 -0.940000    13.109120597     3.533422961    87.912965636   0   0   0 # oc13
   1935     37   9 -0.670000    16.857214191    20.353424890    85.549718206   0  -1   0 # oc14
   1936     37   1 -0.820000    12.057389747    19.023150843    84.067889758   0  -1   0 # o*
   1937     37   7 -0.580000    14.408128947    21.635746313    85.553806257   0  -1   0 # oc12
   1938     37   8 -0.940000    13.076506162    -0.192372918    87.788023427   0   0   0 # oc13
   1939     37   1 -0.820000    12.134791440    16.962806714    81.759542907   0  -1   0 # o*
   1940     37  11  1.700000    15.953526734    -0.014633177    82.101711826   0   0   0 # casl
   1941     37   1 -0.820000    14.325785429    18.823132681    81.464714205   0  -1   0 # o*
   1942     37   4  1.500000    16.010084828    18.291379879   101.714220667   0  -1   0 # ca+t
   1943     37   5  1.000000    13.133696575    19.885386348   100.726590594   0  -1   0 # sc2
   1944     37   6  1.000000    13.683113205    -0.190923895    98.774846010   0   0   0 # sc3
   1945     37   5  1.000000    13.100306888     2.075100835   100.883372727   0   0   0 # sc2
   1946     37   7 -0.580000    13.011823315    20.757934030    99.333857749   0  -1   0 # oc12
   1947     37   7 -0.580000    13.071497665     3.584038388   100.318362986   0   0   0 # oc12
   1948     37   8 -0.940000    14.390953484    20.317283892   101.549207191   0  -1   0 # oc13
   1949     37   8 -0.940000    11.744844947    20.140430254   101.579493329   0  -1   0 # oc13
   1950     37   3 -1.080000    12.166982794    18.419287723    94.728258073   0  -1   0 # oc22
   1951     37   9 -0.670000    15.285266128    -0.199182592    98.973281061   0   0   0 # oc14
   1952     37   1 -0.820000    16.069925839    19.001776724    99.005224096   0  -1   0 # o*
   1953     37   7 -0.580000    13.000295052     1.121398627    99.451554910   0   0   0 # oc12
   1954     37   8 -0.940000    11.798370309     1.852854644   101.760857022   0   0   0 # oc13
   1955     37   1 -0.820000    12.030899190    -0.250670385    94.542603893   0   0   0 # o*
   1956     37   4  1.500000    15.725031769    -0.248491490   101.764431054   0   0   0 # ca+t
   1957     37   3 -1.080000    15.308711908    20.416012452    83.412914674   0  -1   0 # oc22
   1958     37   1 -0.820000    13.641589101    -0.271661606    81.120957876   0   0   0 # o*
   1959     37   4  1.500000    11.485869242     1.757827331    88.068760667   0   0   0 # ca+t
   1960     37   4  1.500000    14.368405385    -0.170070380    90.261228759   0   0   0 # ca+t
   1961     37   5  1.000000    11.552833640     1.406023576    91.310970142   0   0   0 # sc2
   1962     37   6  1.000000    12.297042076    18.460856815    93.171889530   0  -1   0 # sc3
   1963     37   5  1.000000    11.528329809    20.513547523    91.209200372   0  -1   0 # sc2
   1964     37   7 -0.580000    11.705709628     2.236543255    92.706701281   0   0   0 # oc12
   1965     37   7 -0.580000    11.545602088    -0.214383812    91.822136275   0   0   0 # oc12
   1966     37   8 -0.940000    10.220397116     1.773246047    90.563213281   0   0   0 # oc13
   1967     37   3 -1.080000    13.281373664    -0.087683953    97.292472839   0   0   0 # oc22
   1968     37   9 -0.670000    13.917144189    18.493028666    92.832344208   0  -1   0 # oc14
   1969     37   1 -0.820000    14.484655234     0.148524465    92.865002431   0   0   0 # o*
   1970     37   7 -0.580000    11.463227431    19.611328610    92.573028801   0  -1   0 # oc12
   1971     37   8 -0.940000    10.269591206    20.284930867    90.250947895   0  -1   0 # oc13
   1972     37   8 -0.940000    12.876682928    20.206804271    90.392630853   0  -1   0 # oc13
   1973     37   1 -0.820000    14.270691635     1.621314213    95.195398719   0   0   0 # o*
   1974     37   1 -0.820000    15.072658487    20.268653240    95.174917238   0  -1   0 # o*
   1975     37  11  1.700000    12.712826343    20.202180228    96.075704177   0  -1   0 # casl
   1976     37   1 -0.820000    11.226627204     2.144455784    97.079297161   0   0   0 # o*
   1977     37  10  0.400000    15.628393534    21.556714674    98.256231770   0  -1   0 # hoy
   1978     37  10  0.400000    17.349745374    20.666189039    84.762231707   0  -1   0 # hoy
   1979     37   2  0.410000    12.913220680    21.661627297    81.672127435   0  -1   0 # h*
   1980     37   2  0.410000    13.188431063    -0.511706350    80.205788498   0   0   0 # h*
   1981     37   2  0.410000    12.711179979    19.673714470    84.337652185   0  -1   0 # h*
   1982     37   2  0.410000    12.466020128    18.185025632    84.423337922   0  -1   0 # h*
   1983     37   2  0.410000    12.465145448    16.052191301    81.858106446   0  -1   0 # h*
   1984     37   2  0.410000    13.060080858    17.370821292    81.863461920   0  -1   0 # h*
   1985     37   2  0.410000    14.469707781    19.475711392    82.220189035   0  -1   0 # h*
   1986     37   2  0.410000    15.267818378    18.627675421    81.282890240   0  -1   0 # h*
   1987     37   2  0.410000    13.929426962     0.603475587    93.539993042   0   0   0 # h*
   1988     37   2  0.410000    15.374850909     0.408307315    93.198369838   0   0   0 # h*
   1989     37   2  0.410000    11.446141394     0.539342564    94.830450007   0   0   0 # h*
   1990     37   2  0.410000    11.813540225    -0.217274183    93.596650910   0   0   0 # h*
   1991     37   2  0.410000    15.400214364    20.971078989    94.574833070   0  -1   0 # h*
   1992     37   2  0.410000    15.853043449    20.176004143    95.760824049   0  -1   0 # h*
   1993     37   2  0.410000    13.890156688     0.978310627    95.822096019   0   0   0 # h*
   1994     37   2  0.410000    13.586355135     2.289052231    95.211681759   0   0   0 # h*
   1995     37   2  0.410000    12.032737000     1.501961709    97.151020809   0   0   0 # h*
   1996     37   2  0.410000    11.518625032     2.735568163    96.351664605   0   0   0 # h*
   1997     37   2  0.410000    16.751602124    19.680712543    98.738501280   0  -1   0 # h*
   1998     37   2  0.410000    16.223853863    18.354285648    98.287427188   0  -1   0 # h*
   1999     38   4  1.500000     3.023262956    18.347924141    90.248536852   1  -1   0 # ca+t
   2000     38   4  1.500000    22.942978293    20.056153854    87.916972985   0  -1   0 # ca+t
   2001     38   5  1.000000     3.072350926     3.226177086    86.979290328   1   0   0 # sc2
   2002     38   6  1.000000     3.802815026    20.242582086    85.013705256   1  -1   0 # sc3
   2003     38   5  1.000000     3.091290558     0.129741793    87.043416719   1   0   0 # sc2
   2004     38   7 -0.580000     3.110646546    18.861958782    85.466351235   1  -1   0 # oc12
   2005     38   7 -0.580000     3.023265860     1.652455514    86.483107450   1   0   0 # oc12
   2006     38   8 -0.940000     4.412172624     3.485454714    87.841613637   1   0   0 # oc13
   2007     38   8 -0.940000     1.779348919     3.485708197    87.865240763   1   0   0 # oc13
   2008     38   9 -0.670000     5.410346904    20.206566399    85.211010530   1  -1   0 # oc14
   2009     38   1 -0.820000    22.855593514    20.881877390    85.031317222   0  -1   0 # o*
   2010     38   7 -0.580000     3.105442962    21.539220432    85.656549814   1  -1   0 # oc12
   2011     38   8 -0.940000     1.850375373    -0.215568819    87.951205764   1   0   0 # oc13
   2012     38   1 -0.820000     0.711274717    18.601576496    83.058124263   1  -1   0 # o*
   2013     38  11  1.700000     4.212421831    -0.121251261    82.060711801   1   0   0 # casl
   2014     38   1 -0.820000     3.143598207    18.678858533    81.378555983   1  -1   0 # o*
   2015     38   4  1.500000     4.853161149    18.429075758   101.991682097   1  -1   0 # ca+t
   2016     38   5  1.000000     1.797907265    20.019223750   101.316414951   1  -1   0 # sc2
   2017     38   6  1.000000     2.418874006    -0.293523304    99.193048364   1   0   0 # sc3
   2018     38   5  1.000000     1.869975476     1.922505937   101.024948178   1   0   0 # sc2
   2019     38   7 -0.580000     1.591972391    20.835986631    99.930653071   1  -1   0 # oc12
   2020     38   7 -0.580000     1.778320855     3.462741792   100.421198453   1   0   0 # oc12
   2021     38   8 -0.940000     3.160322366    20.352262464   102.115110321   1  -1   0 # oc13
   2022     38   8 -0.940000     0.466928377    20.212092683   102.249903896   1  -1   0 # oc13
   2023     38   3 -1.080000     0.971909775    18.378054232    94.717421401   1  -1   0 # oc22
   2024     38   9 -0.670000     4.048897541    -0.498598017    99.353257424   1   0   0 # oc14
   2025     38   1 -0.820000     5.436197289    20.456781445    97.268897414   1  -1   0 # o*
   2026     38   7 -0.580000     1.853863065     1.064027087    99.675895196   1   0   0 # oc12
   2027     38   8 -0.940000     0.507533120     1.690817080   101.902423670   1   0   0 # oc13
   2028     38   1 -0.820000     0.707387752    -0.433603962    94.652103153   1   0   0 # o*
   2029     38   4  1.500000     4.643387936    -0.100807516   101.981879802   1   0   0 # ca+t
   2030     38   3 -1.080000     3.578493595    20.361628782    83.467170727   1  -1   0 # oc22
   2031     38   1 -0.820000     3.593669053     1.588570114    83.754137666   1   0   0 # o*
   2032     38   4  1.500000    22.667093752     1.688326842    88.224512971   0   0   0 # ca+t
   2033     38   4  1.500000     3.180169836    -0.132407760    90.296605212   1   0   0 # ca+t
   2034     38   5  1.000000    22.830765981     1.291216516    91.290128151   0   0   0 # sc2
   2035     38   6  1.000000     1.099281708    18.384828529    93.115158169   1  -1   0 # sc3
   2036     38   5  1.000000    22.760741289    20.539823660    91.230173281   0  -1   0 # sc2
   2037     38   7 -0.580000    22.961253629     2.212735763    92.648054961   0   0   0 # oc12
   2038     38   7 -0.580000    22.833282211    -0.188858756    91.844157614   0   0   0 # oc12
   2039     38   8 -0.940000    21.526290047     1.639532690    90.464269619   0   0   0 # oc13
   2040     38   3 -1.080000     2.000630927    -0.323684967    97.670135254   1   0   0 # oc22
   2041     38   9 -0.670000     2.704419100    18.464961622    92.682204470   1  -1   0 # oc14
   2042     38   1 -0.820000     2.495550027     1.499555542    95.452651980   1   0   0 # o*
   2043     38   7 -0.580000    22.827059110    19.654568121    92.565068710   0  -1   0 # oc12
   2044     38   8 -0.940000    21.390580596    20.318763289    90.379667164   0  -1   0 # oc13
   2045     38   8 -0.940000     1.499815295    20.165128338    90.317919890   1  -1   0 # oc13
   2046     38   1 -0.820000     4.817274660     1.613447412    97.145096916   1   0   0 # o*
   2047     38   1 -0.820000     3.161330912     0.099836641    93.093742079   1   0   0 # o*
   2048     38  11  1.700000     1.289183206    20.143388365    96.297776630   1  -1   0 # casl
   2049     38   1 -0.820000    21.103105573     1.856306589    95.347615548   0   0   0 # o*
   2050     38  10  0.400000     4.351853528    21.180363449    98.732124606   1  -1   0 # hoy
   2051     38  10  0.400000     5.692683007    19.752188790    84.474140219   1  -1   0 # hoy
   2052     38   2  0.410000     3.192301695     1.499206745    84.669643556   1   0   0 # h*
   2053     38   2  0.410000     4.427541455     1.948867068    84.071344260   1   0   0 # h*
   2054     38   2  0.410000    22.384338121    21.620757592    84.502152585   0  -1   0 # h*
   2055     38   2  0.410000     1.280162767    21.201369489    84.952075274   1  -1   0 # h*
   2056     38   2  0.410000     1.532785726    18.703679754    82.485157999   1  -1   0 # h*
   2057     38   2  0.410000     0.881466650    19.219849766    83.793277139   1  -1   0 # h*
   2058     38   2  0.410000     3.613635397    19.322153801    82.081662701   1  -1   0 # h*
   2059     38   2  0.410000     3.979384606    18.213980716    81.069056365   1  -1   0 # h*
   2060     38   2  0.410000     1.986109667     2.267149140    95.217096260   1   0   0 # h*
   2061     38   2  0.410000     1.948793741     1.103471375    96.107458628   1   0   0 # h*
   2062     38   2  0.410000     0.628788625    21.215561402    93.861213314   1  -1   0 # h*
   2063     38   2  0.410000     0.590083946     0.414852540    94.096505608   1   0   0 # h*
   2064     38   2  0.410000     2.650373023     0.390997857    93.836403743   1   0   0 # h*
   2065     38   2  0.410000     3.866179757     0.706033054    93.142599273   1   0   0 # h*
   2066     38   2  0.410000     4.291348161     1.154319660    96.465408507   1   0   0 # h*
   2067     38   2  0.410000     4.503086913     1.211747887    97.996916943   1   0   0 # h*
   2068     38   2  0.410000    21.760054134     2.523297476    95.126030540   0   0   0 # h*
   2069     38   2  0.410000    21.726759788     1.381320549    95.912310189   0   0   0 # h*
   2070     38   2  0.410000     6.094330146    21.055048864    96.799907677   1  -1   0 # h*
   2071     38   2  0.410000     5.944216325    19.685008920    97.558069277   1  -1   0 # h*
   2072     39   4  1.500000    14.327545939     3.473931911    90.077330098   0   0   0 # ca+t
   2073     39   4  1.500000    11.653052686     5.498664783    88.036820370   0   0   0 # ca+t
   2074     39   5  1.000000    14.421529863    10.710493063    86.952039605   0   0   0 # sc2
   2075     39   6  1.000000    15.140915735     5.397068334    85.105135941   0   0   0 # sc3
   2076     39   5  1.000000    14.354603504     7.656876834    86.987588503   0   0   0 # sc2
   2077     39   7 -0.580000    14.323089160     4.136082177    85.651013318   0   0   0 # oc12
   2078     39   7 -0.580000    14.426669932     9.189080750    86.412124211   0   0   0 # oc12
   2079     39   8 -0.940000    15.780452096    10.984750661    87.827322328   0   0   0 # oc13
   2080     39   8 -0.940000    13.201405669    11.043816148    87.985285369   0   0   0 # oc13
   2081     39   9 -0.670000    16.716190030     5.314565921    85.452855776   0   0   0 # oc14
   2082     39   1 -0.820000    11.681266065     5.752760221    85.083037874   0   0   0 # o*
   2083     39   7 -0.580000    14.508954683     6.808987861    85.603537085   0   0   0 # oc12
   2084     39   8 -0.940000    12.961211378     7.413622967    87.709962228   0   0   0 # oc13
   2085     39   1 -0.820000    12.084755724     3.822123286    83.315740955   0   0   0 # o*
   2086     39  11  1.700000    15.319505661     7.063682527    81.965701407   0   0   0 # casl
   2087     39   1 -0.820000    14.172683314     3.956519465    81.334275032   0   0   0 # o*
   2088     39   4  1.500000    16.091889719     3.564305688   101.845050188   0   0   0 # ca+t
   2089     39   5  1.000000    13.154743514     5.178496485   100.887786942   0   0   0 # sc2
   2090     39   6  1.000000    13.800159009     7.362889105    98.887147966   0   0   0 # sc3
   2091     39   5  1.000000    12.934450626     9.388659996   100.994673829   0   0   0 # sc2
   2092     39   7 -0.580000    13.251561083     5.891346115    99.419460682   0   0   0 # oc12
   2093     39   7 -0.580000    12.993242744    11.000505035   100.403744350   0   0   0 # oc12
   2094     39   8 -0.940000    14.525768704     5.423184715   101.765997946   0   0   0 # oc13
   2095     39   8 -0.940000    11.714227199     5.441745853   101.621569641   0   0   0 # oc13
   2096     39   3 -1.080000    12.361274817     3.538795174    94.770536136   0   0   0 # oc22
   2097     39   9 -0.670000    15.394217316     7.498818315    99.114057138   0   0   0 # oc14
   2098     39   1 -0.820000    16.453561460     1.773206255    97.068185351   0   0   0 # o*
   2099     39   7 -0.580000    12.967338348     8.554816455    99.557831182   0   0   0 # oc12
   2100     39   8 -0.940000    11.613709211     9.116892791   101.761748167   0   0   0 # oc13
   2101     39   1 -0.820000    10.859104791     5.404951639    97.237165189   0   0   0 # o*
   2102     39   4  1.500000    15.769563623     7.363563583   102.004627409   0   0   0 # ca+t
   2103     39   3 -1.080000    15.067379079     5.358454018    83.539368947   0   0   0 # oc22
   2104     39   1 -0.820000    15.060346725     8.926376865    83.642675187   0   0   0 # o*
   2105     39   4  1.500000    11.624142936     9.187433918    88.099434530   0   0   0 # ca+t
   2106     39   4  1.500000    14.541890872     7.258327178    90.161439431   0   0   0 # ca+t
   2107     39   5  1.000000    11.520200306     8.753703637    91.242942700   0   0   0 # sc2
   2108     39   6  1.000000    12.449475172     3.576941184    93.183875838   0   0   0 # sc3
   2109     39   5  1.000000    11.579306956     5.650709750    91.232047179   0   0   0 # sc2
   2110     39   7 -0.580000    11.459447308     9.651476378    92.612774253   0   0   0 # oc12
   2111     39   7 -0.580000    11.421704380     7.206886597    91.784767685   0   0   0 # oc12
   2112     39   8 -0.940000    10.328049176     9.052756039    90.321020986   0   0   0 # oc13
   2113     39   3 -1.080000    13.494493789     7.357904153    97.336930287   0   0   0 # oc22
   2114     39   9 -0.670000    14.040339012     3.549298948    92.723535773   0   0   0 # oc14
   2115     39   1 -0.820000    12.521702632     7.224029104    94.315762144   0   0   0 # o*
   2116     39   7 -0.580000    11.686020367     4.831730620    92.601154087   0   0   0 # oc12
   2117     39   8 -0.940000    10.267533008     5.360109407    90.355535138   0   0   0 # oc13
   2118     39   8 -0.940000    12.876622757     5.443516318    90.217633931   0   0   0 # oc13
   2119     39   1 -0.820000    13.820642329     3.719352706    97.554717341   0   0   0 # o*
   2120     39   1 -0.820000    15.268021038     8.896751559    95.962034606   0   0   0 # o*
   2121     39   1 -0.820000    15.132885925     5.716880090    94.847562895   0   0   0 # o*
   2122     39  11  1.700000    12.943794545     5.533389185    96.053399669   0   0   0 # casl
   2123     39   1 -0.820000    13.305473259    10.969991965    97.468893572   0   0   0 # o*
   2124     39  10  0.400000    15.743290279     6.863321746    98.442332179   0   0   0 # hoy
   2125     39  10  0.400000    14.423882185     2.832765448    93.238082292   0   0   0 # hoy
   2126     39  10  0.400000    17.021224633     5.690798586    84.606174606   0   0   0 # hoy
   2127     39   2  0.410000    15.018048976     9.951770188    83.639631723   0   0   0 # h*
   2128     39   2  0.410000    14.891165972     8.783106592    84.597058724   0   0   0 # h*
   2129     39   2  0.410000    10.953283453     5.989247558    84.415452993   0   0   0 # h*
   2130     39   2  0.410000    12.372935023     6.471677225    84.782777483   0   0   0 # h*
   2131     39   2  0.410000    12.176953247     4.039411892    84.267202055   0   0   0 # h*
   2132     39   2  0.410000    12.928218828     4.121039573    82.925957695   0   0   0 # h*
   2133     39   2  0.410000    14.845184094     3.162262271    81.350264518   0   0   0 # h*
   2134     39   2  0.410000    14.627364089     4.397538201    82.092787550   0   0   0 # h*
   2135     39   2  0.410000    12.195151222     6.955801476    93.433327358   0   0   0 # h*
   2136     39   2  0.410000    12.170625216     8.170990821    94.307388696   0   0   0 # h*
   2137     39   2  0.410000    10.353352700     4.819888425    97.867443195   0   0   0 # h*
   2138     39   2  0.410000    10.089641383     5.752147111    96.770618954   0   0   0 # h*
   2139     39   2  0.410000    15.496215278     5.899913669    93.970942954   0   0   0 # h*
   2140     39   2  0.410000    15.986105519     6.171439228    95.152003875   0   0   0 # h*
   2141     39   2  0.410000    14.804236408     8.851805704    95.122500273   0   0   0 # h*
   2142     39   2  0.410000    14.679287650     8.371711436    96.556766401   0   0   0 # h*
   2143     39   2  0.410000    14.011980525     4.210726644    98.382067553   0   0   0 # h*
   2144     39   2  0.410000    13.409619943     2.918410220    97.970322516   0   0   0 # h*
   2145     39   2  0.410000    14.274498262    10.660488810    97.397296871   0   0   0 # h*
   2146     39   2  0.410000    13.114823963    10.904768525    98.413974500   0   0   0 # h*
   2147     39   2  0.410000    15.866368464     2.272816296    97.671086929   0   0   0 # h*
   2148     39   2  0.410000    15.663974922     1.492589547    96.511765534   0   0   0 # h*
   2149     40   4  1.500000     3.041135561     3.607984400    90.166723847   1   0   0 # ca+t
   2150     40   4  1.500000     0.505011705     5.440829467    87.938372090   1   0   0 # ca+t
   2151     40   5  1.000000     3.099558161    10.639294802    86.903844877   1   0   0 # sc2
   2152     40   6  1.000000     3.772208028     5.384147068    84.963010173   1   0   0 # sc3
   2153     40   5  1.000000     3.119544479     7.599926820    86.946528362   1   0   0 # sc2
   2154     40   7 -0.580000     3.007758667     4.078569572    85.555905106   1   0   0 # oc12
   2155     40   7 -0.580000     3.108426741     9.132104324    86.413881767   1   0   0 # oc12
   2156     40   8 -0.940000     4.399109179    11.011903105    87.830500392   1   0   0 # oc13
   2157     40   8 -0.940000     1.827739771    10.909199834    87.785362759   1   0   0 # oc13
   2158     40   9 -0.670000     5.398842719     5.372057890    85.123629513   1   0   0 # oc14
   2159     40   1 -0.820000    22.915191094     5.748853635    85.448413310   0   0   0 # o*
   2160     40   7 -0.580000     3.063230119     6.753399982    85.512621468   1   0   0 # oc12
   2161     40   8 -0.940000     1.813501303     7.353811560    87.946823391   1   0   0 # oc13
   2162     40   1 -0.820000     0.696755766     3.833253256    83.444776561   1   0   0 # o*
   2163     40  11  1.700000     4.338714294     7.240770589    81.925063152   1   0   0 # casl
   2164     40   1 -0.820000     2.768185727     3.682929892    81.391168222   1   0   0 # o*
   2165     40   4  1.500000     4.810220423     3.606879936   101.536958419   1   0   0 # ca+t
   2166     40   5  1.000000     1.872157290     5.062262619   100.919701430   1   0   0 # sc2
   2167     40   6  1.000000     2.564162624     7.166094530    98.804931249   1   0   0 # sc3
   2168     40   5  1.000000     1.825892541     9.437955067   100.570831470   1   0   0 # sc2
   2169     40   7 -0.580000     1.824348783     5.865104847    99.528912855   1   0   0 # oc12
   2170     40   7 -0.580000     1.838136878    10.969612688   100.006196332   1   0   0 # oc12
   2171     40   8 -0.940000     3.222791940     5.335755401   101.717377433   1   0   0 # oc13
   2172     40   8 -0.940000     0.503596300     5.460238062   101.686371241   1   0   0 # oc13
   2173     40   3 -1.080000     0.857594835     3.609586745    94.634185574   1   0   0 # oc22
   2174     40   9 -0.670000     4.167543317     7.235500662    99.159156102   1   0   0 # oc14
   2175     40   1 -0.820000     4.602668834     3.916706380    98.942718058   1   0   0 # o*
   2176     40   7 -0.580000     1.860105838     8.509874687    99.256899053   1   0   0 # oc12
   2177     40   8 -0.940000     0.452684126     9.191241059   101.393698993   1   0   0 # oc13
   2178     40   1 -0.820000     0.957852525     7.380325580    94.425603294   1   0   0 # o*
   2179     40   4  1.500000     4.348711804     7.300126609   101.953204105   1   0   0 # ca+t
   2180     40   3 -1.080000     3.499809954     5.477868823    83.335882479   1   0   0 # oc22
   2181     40   1 -0.820000     3.487565827     8.986717394    83.559702489   1   0   0 # o*
   2182     40   4  1.500000    22.747905276     9.227265664    88.090751420   0   0   0 # ca+t
   2183     40   4  1.500000     3.322202068     7.214373077    90.254508807   1   0   0 # ca+t
   2184     40   5  1.000000    22.937423941     8.797335169    91.213185457   0   0   0 # sc2
   2185     40   6  1.000000     1.152717990     3.546788638    93.111440314   1   0   0 # sc3
   2186     40   5  1.000000    22.871801692     5.737324279    91.167108078   0   0   0 # sc2
   2187     40   7 -0.580000     0.526911345     9.648699108    92.581104463   1   0   0 # oc12
   2188     40   7 -0.580000    22.868403897     7.294044949    91.770684120   0   0   0 # oc12
   2189     40   8 -0.940000    21.546109374     9.068341295    90.372565164   0   0   0 # oc13
   2190     40   3 -1.080000     2.354439173     7.065145966    97.293252211   1   0   0 # oc22
   2191     40   9 -0.670000     2.730203914     3.518461364    92.794720899   1   0   0 # oc14
   2192     40   1 -0.820000     3.295061069     7.345328306    92.718622333   1   0   0 # o*
   2193     40   7 -0.580000    22.903445855     4.817539023    92.559042410   0   0   0 # oc12
   2194     40   8 -0.940000    21.555475266     5.393544237    90.337299023   0   0   0 # oc13
   2195     40   8 -0.940000     1.608127346     5.462419590    90.161330613   1   0   0 # oc13
   2196     40   1 -0.820000     2.217468027     3.606837538    97.438498775   1   0   0 # o*
   2197     40   1 -0.820000     3.682924336     8.937467919    95.314672361   1   0   0 # o*
   2198     40   1 -0.820000     3.906513830     5.387524908    95.251612001   1   0   0 # o*
   2199     40  11  1.700000     1.448482804     5.394592405    95.931538940   1   0   0 # casl
   2200     40   1 -0.820000    22.682024000     9.409984484    96.812995530   0   0   0 # o*
   2201     40  10  0.400000     4.544032683     6.684726028    98.525872787   1   0   0 # hoy
   2202     40  10  0.400000     3.126246021     3.747307941    93.587769648   1   0   0 # hoy
   2203     40  10  0.400000     5.711912549     6.005979396    84.433492950   1   0   0 # hoy
   2204     40   2  0.410000     3.502646663     9.941095291    83.862149009   1   0   0 # h*
   2205     40   2  0.410000     3.292824328     8.506383719    84.392974238   1   0   0 # h*
   2206     40   2  0.410000    22.166222545     5.639708946    84.773940996   0   0   0 # h*
   2207     40   2  0.410000     0.941627202     6.492065198    85.049148281   1   0   0 # h*
   2208     40   2  0.410000     1.327944855     3.744978371    82.620578612   1   0   0 # h*
   2209     40   2  0.410000     1.361562711     4.337127100    83.995975524   1   0   0 # h*
   2210     40   2  0.410000     3.455652286     3.007396060    81.673865518   1   0   0 # h*
   2211     40   2  0.410000     3.094069621     4.471821882    81.974301587   1   0   0 # h*
   2212     40   2  0.410000     4.097515548     6.896868690    93.040810516   1   0   0 # h*
   2213     40   2  0.410000     3.103143681     8.030703979    93.345248657   1   0   0 # h*
   2214     40   2  0.410000     1.247018834     8.307430263    94.135642236   1   0   0 # h*
   2215     40   2  0.410000     0.590353274     6.951976761    93.573436566   1   0   0 # h*
   2216     40   2  0.410000     4.308485198     5.327648105    96.146165549   1   0   0 # h*
   2217     40   2  0.410000     4.213121026     6.310605917    95.064224195   1   0   0 # h*
   2218     40   2  0.410000     3.037993574     8.449780521    95.941932102   1   0   0 # h*
   2219     40   2  0.410000     3.105071803     9.669248352    95.071141617   1   0   0 # h*
   2220     40   2  0.410000     2.278009778     2.591545130    97.430581277   1   0   0 # h*
   2221     40   2  0.410000     1.922336390     3.630241385    98.376447351   1   0   0 # h*
   2222     40   2  0.410000     0.993437870     8.939071345    97.062530422   1   0   0 # h*
   2223     40   2  0.410000     0.453971153     9.893871931    96.000181852   1   0   0 # h*
   2224     40   2  0.410000     4.460057119     3.341542802    98.162297897   1   0   0 # h*
   2225     40   2  0.410000     5.439544163     4.406339815    98.606771143   1   0   0 # h*
   2226     41   4  1.500000    14.204578030    10.947683042    90.280011698   0   0   0 # ca+t
   2227     41   4  1.500000    11.721524188    12.842793983    88.003450601   0   0   0 # ca+t
   2228     41   5  1.000000    14.462692830    18.120332516    86.918493159   0   0   0 # sc2
   2229     41   6  1.000000    15.175365286    12.823396695    84.951373590   0   0   0 # sc3
   2230     41   5  1.000000    14.436962829    15.002379122    86.903177601   0   0   0 # sc2
   2231     41   7 -0.580000    14.404861847    11.583151579    85.520839726   0   0   0 # oc12
   2232     41   7 -0.580000    14.435746888    16.523780315    86.372940516   0   0   0 # oc12
   2233     41   8 -0.940000    13.077925066    18.404257328    87.711264038   0   0   0 # oc13
   2234     41   9 -0.670000    16.832330978    12.744510315    85.254652611   0   0   0 # oc14
   2235     41   1 -0.820000    11.885472952    13.670574726    83.818431870   0   0   0 # o*
   2236     41   7 -0.580000    14.477993150    14.148660041    85.479770557   0   0   0 # oc12
   2237     41   8 -0.940000    13.120724414    14.738221678    87.701239479   0   0   0 # oc13
   2238     41   1 -0.820000    12.631194009    10.955956964    83.240750964   0   0   0 # o*
   2239     41  11  1.700000    15.827644542    14.808346204    82.135178549   0   0   0 # casl
   2240     41   1 -0.820000    14.191128708    11.376786687    80.890660500   0   0   0 # o*
   2241     41   4  1.500000    15.843713651    10.994616566   101.494335266   0   0   0 # ca+t
   2242     41   5  1.000000    12.973375876    12.547246389   100.952213512   0   0   0 # sc2
   2243     41   6  1.000000    13.841704850    14.500657974    98.898743406   0   0   0 # sc3
   2244     41   5  1.000000    13.236662655    16.795952467   100.733065419   0   0   0 # sc2
   2245     41   7 -0.580000    12.914070800    13.369739819    99.555180123   0   0   0 # oc12
   2246     41   8 -0.940000    14.332609661    12.882101929   101.771669193   0   0   0 # oc13
   2247     41   8 -0.940000    11.670440137    12.803587953   101.952149039   0   0   0 # oc13
   2248     41   3 -1.080000    11.967547007    10.960592550    94.691229354   0   0   0 # oc22
   2249     41   9 -0.670000    15.449708435    14.357646773    99.213166179   0   0   0 # oc14
   2250     41   1 -0.820000    16.761207509    13.346221048    96.736369869   0   0   0 # o*
   2251     41   7 -0.580000    13.304878835    15.926536924    99.302072316   0   0   0 # oc12
   2252     41   8 -0.940000    11.888383129    16.380245277   101.590898074   0   0   0 # oc13
   2253     41   1 -0.820000    11.716260256    14.452934657    94.596008782   0   0   0 # o*
   2254     41   4  1.500000    15.804287020    14.517319962   102.021674430   0   0   0 # ca+t
   2255     41   3 -1.080000    14.935258015    12.834787758    83.436619439   0   0   0 # oc22
   2256     41   1 -0.820000    14.782757020    16.523343742    83.616047935   0   0   0 # o*
   2257     41   4  1.500000    11.519583731    16.570245472    87.935793747   0   0   0 # ca+t
   2258     41   4  1.500000    14.383716638    14.692957607    90.199005882   0   0   0 # ca+t
   2259     41   5  1.000000    11.617018789    16.221470771    91.255506726   0   0   0 # sc2
   2260     41   6  1.000000    12.176456970    10.959772072    93.150202515   0   0   0 # sc3
   2261     41   5  1.000000    11.511851693    13.160877081    91.236308143   0   0   0 # sc2
   2262     41   7 -0.580000    11.656184950    17.048483970    92.639356317   0   0   0 # oc12
   2263     41   7 -0.580000    11.506075700    14.679670172    91.788206293   0   0   0 # oc12
   2264     41   8 -0.940000    10.436233831    16.529832281    90.302848339   0   0   0 # oc13
   2265     41   3 -1.080000    13.598810051    14.433388962    97.393870164   0   0   0 # oc22
   2266     41   9 -0.670000    13.798450089    10.987104339    92.875942229   0   0   0 # oc14
   2267     41   1 -0.820000    14.143534961    15.892000015    95.337603478   0   0   0 # o*
   2268     41   7 -0.580000    11.430184276    12.239759608    92.605872530   0   0   0 # oc12
   2269     41   8 -0.940000    10.274414516    12.837886259    90.260568112   0   0   0 # oc13
   2270     41   8 -0.940000    12.840821819    12.903122360    90.355608686   0   0   0 # oc13
   2271     41   1 -0.820000    15.962132584    10.817051312    98.744548637   0   0   0 # o*
   2272     41   1 -0.820000    16.532522241    16.326514953    97.299439138   0   0   0 # o*
   2273     41   1 -0.820000    14.537240256    15.040803459    92.673759453   0   0   0 # o*
   2274     41  11  1.700000    12.342195889    12.711783602    96.233266088   0   0   0 # casl
   2275     41   1 -0.820000    11.297039763    16.599227879    97.039001154   0   0   0 # o*
   2276     41  10  0.400000    15.805954204    13.861490985    98.516055766   0   0   0 # hoy
   2277     41  10  0.400000    14.158535564    11.157588000    93.752010038   0   0   0 # hoy
   2278     41  10  0.400000    17.162410445    12.294847251    84.518400605   0   0   0 # hoy
   2279     41   2  0.410000    14.897470919    17.534216441    83.763238757   0   0   0 # h*
   2280     41   2  0.410000    14.570720172    16.227899769    84.536114578   0   0   0 # h*
   2281     41   2  0.410000    12.871627355    13.662876340    83.833237733   0   0   0 # h*
   2282     41   2  0.410000    11.827600239    13.327355168    82.867646270   0   0   0 # h*
   2283     41   2  0.410000    13.015501422    11.523626407    83.953705884   0   0   0 # h*
   2284     41   2  0.410000    13.276429910    11.168811670    82.521244821   0   0   0 # h*
   2285     41   2  0.410000    14.813336866    10.608166420    80.788210560   0   0   0 # h*
   2286     41   2  0.410000    14.555179542    11.925391327    81.621015023   0   0   0 # h*
   2287     41   2  0.410000    14.056435256    16.801348486    95.748539927   0   0   0 # h*
   2288     41   2  0.410000    13.934833078    15.316938476    96.047737973   0   0   0 # h*
   2289     41   2  0.410000    11.121768157    14.192762208    93.883256314   0   0   0 # h*
   2290     41   2  0.410000    12.112086893    15.162974011    94.096315621   0   0   0 # h*
   2291     41   2  0.410000    15.429881764    14.830948220    92.935488662   0   0   0 # h*
   2292     41   2  0.410000    14.405679559    15.795217605    93.354291510   0   0   0 # h*
   2293     41   2  0.410000    15.604898561    16.136750463    97.235917637   0   0   0 # h*
   2294     41   2  0.410000    16.766215258    16.000599547    98.233344122   0   0   0 # h*
   2295     41   2  0.410000    16.715593279    11.451150070    98.467895095   0   0   0 # h*
   2296     41   2  0.410000    16.425529196     9.964159008    98.816220890   0   0   0 # h*
   2297     41   2  0.410000    11.693251288    17.389533948    96.508463251   0   0   0 # h*
   2298     41   2  0.410000    12.160561726    16.123263497    97.249462993   0   0   0 # h*
   2299     41   2  0.410000    17.280351575    13.891885887    96.119043568   0   0   0 # h*
   2300     41   2  0.410000    17.446467603    12.685545325    96.902017728   0   0   0 # h*
   2301     42   4  1.500000     3.036966403    11.058817730    89.998083174   1   0   0 # ca+t
   2302     42   4  1.500000    22.913942672    12.833698583    87.989106805   0   0   0 # ca+t
   2303     42   5  1.000000     3.108178156    18.023925132    86.852616650   1   0   0 # sc2
   2304     42   6  1.000000     3.924443471    12.787729253    84.987520589   1   0   0 # sc3
   2305     42   5  1.000000     3.163424418    14.972532523    86.829875524   1   0   0 # sc2
   2306     42   7 -0.580000     3.162646774    11.451798780    85.491851652   1   0   0 # oc12
   2307     42   7 -0.580000     3.099798059    16.489252174    86.268454228   1   0   0 # oc12
   2308     42   8 -0.940000     1.779166792    18.308737629    87.767828164   1   0   0 # oc13
   2309     42   9 -0.670000     5.515716670    12.895451852    85.495052245   1   0   0 # oc14
   2310     42   1 -0.820000    22.710043627    14.563872805    83.009784051   0   0   0 # o*
   2311     42   7 -0.580000     3.079112264    14.033446439    85.507888886   1   0   0 # oc12
   2312     42   8 -0.940000     1.924108766    14.723778012    87.781571508   1   0   0 # oc13
   2313     42   1 -0.820000     0.467390465    13.393355388    85.631213055   1   0   0 # o*
   2314     42  11  1.700000     4.449731016    14.610323586    82.121069035   1   0   0 # casl
   2315     42   1 -0.820000     0.798499961    11.380634058    83.607940892   1   0   0 # o*
   2316     42   4  1.500000     4.673497843    10.857306202   101.808998919   1   0   0 # ca+t
   2317     42   5  1.000000     1.817871539    12.430642110   100.701025861   1   0   0 # sc2
   2318     42   6  1.000000     2.663267294    14.760080691    98.965287640   1   0   0 # sc3
   2319     42   5  1.000000     1.930731480    16.865896509   101.043851235   1   0   0 # sc2
   2320     42   7 -0.580000     1.836271555    13.443638028    99.416986025   1   0   0 # oc12
   2321     42   8 -0.940000     3.229825229    12.669469169   101.602572095   1   0   0 # oc13
   2322     42   8 -0.940000    22.961915587    12.748463050   101.542657651   0   0   0 # oc13
   2323     42   3 -1.080000     1.364477890    10.911165470    94.718304725   1   0   0 # oc22
   2324     42   9 -0.670000     4.309253623    14.609111491    99.173032006   1   0   0 # oc14
   2325     42   1 -0.820000     5.199941647     9.353583020    97.780112643   1   0   0 # o*
   2326     42   7 -0.580000     2.002136419    16.107772434    99.575671570   1   0   0 # oc12
   2327     42   8 -0.940000     0.538793872    16.524775370   101.916497308   1   0   0 # oc13
   2328     42   1 -0.820000    22.853945982    14.412767837    94.920896242   0   0   0 # o*
   2329     42   4  1.500000     4.541793666    14.590092777   101.752291629   1   0   0 # ca+t
   2330     42   3 -1.080000     3.762242014    12.832791306    83.409211215   1   0   0 # oc22
   2331     42   1 -0.820000     3.127138121    16.176426725    83.410567586   1   0   0 # o*
   2332     42   4  1.500000    22.691482086    16.526458736    87.920484725   0   0   0 # ca+t
   2333     42   4  1.500000     3.149928889    14.630849051    89.878703588   1   0   0 # ca+t
   2334     42   5  1.000000    22.913959687    16.214404013    91.214726083   0   0   0 # sc2
   2335     42   6  1.000000     1.351296881    10.938676417    93.131540191   1   0   0 # sc3
   2336     42   5  1.000000     0.504106999    13.154826988    91.270437276   1   0   0 # sc2
   2337     42   7 -0.580000    22.894292854    17.082592996    92.574034917   0   0   0 # oc12
   2338     42   7 -0.580000     0.491592251    14.699179534    91.791158558   1   0   0 # oc12
   2339     42   8 -0.940000    21.508285957    16.471338183    90.420511498   0   0   0 # oc13
   2340     42   3 -1.080000     2.372429052    14.918883575    97.427501967   1   0   0 # oc22
   2341     42   9 -0.670000     2.927598337    10.890868615    92.637607132   1   0   0 # oc14
   2342     42   1 -0.820000     3.534480690    13.989082306    94.472699861   1   0   0 # o*
   2343     42   7 -0.580000     0.676391509    12.260178586    92.666644544   1   0   0 # oc12
   2344     42   8 -0.940000    21.679904973    12.810393738    90.467319057   0   0   0 # oc13
   2345     42   8 -0.940000     1.733354532    12.880175545    90.285157951   1   0   0 # oc13
   2346     42   1 -0.820000     2.963205508    11.200377448    97.363936447   1   0   0 # o*
   2347     42   1 -0.820000     4.267039360    16.447134681    95.872683591   1   0   0 # o*
   2348     42   1 -0.820000     7.879432715    14.693048036    97.698790158   1   0   0 # o*
   2349     42  11  1.700000     1.910001759    12.917191924    96.133396121   1   0   0 # casl
   2350     42   1 -0.820000    21.745221129    14.891459422    98.965730455   0   0   0 # o*
   2351     42  10  0.400000     4.669852082    14.367492916    98.316015952   1   0   0 # hoy
   2352     42  10  0.400000     3.535483153    10.993548758    93.314274727   1   0   0 # hoy
   2353     42  10  0.400000     5.977078685    13.303554448    84.746029463   1   0   0 # hoy
   2354     42   2  0.410000     2.408573195    16.756130643    83.180415439   1   0   0 # h*
   2355     42   2  0.410000     3.212760757    16.349765007    84.396803729   1   0   0 # h*
   2356     42   2  0.410000    22.132156492    15.361189260    82.834667608   0   0   0 # h*
   2357     42   2  0.410000    22.242997273    13.818428944    82.543577013   0   0   0 # h*
   2358     42   2  0.410000     1.371816384    13.817495878    85.527536514   1   0   0 # h*
   2359     42   2  0.410000    22.557215851    13.687255844    84.847617469   0   0   0 # h*
   2360     42   2  0.410000     1.043837951    11.694669998    84.502113728   1   0   0 # h*
   2361     42   2  0.410000     1.627194792    11.461838509    83.068672611   1   0   0 # h*
   2362     42   2  0.410000     4.103300570    14.817907311    94.673672012   1   0   0 # h*
   2363     42   2  0.410000     4.060845241    13.676339338    93.686582296   1   0   0 # h*
   2364     42   2  0.410000     0.646676585    15.353660446    94.726702189   1   0   0 # h*
   2365     42   2  0.410000    22.852460520    14.193802466    93.925769457   0   0   0 # h*
   2366     42   2  0.410000     7.584269350    13.881560960    98.135228822   1   0   0 # h*
   2367     42   2  0.410000     8.190330642    15.178799590    98.482543050   1   0   0 # h*
   2368     42   2  0.410000     3.728291884    15.806597941    96.372726018   1   0   0 # h*
   2369     42   2  0.410000     3.619051711    17.189514370    95.980514341   1   0   0 # h*
   2370     42   2  0.410000     3.703596032    10.581743647    97.294844962   1   0   0 # h*
   2371     42   2  0.410000     2.498417544    10.923376120    98.204628890   1   0   0 # h*
   2372     42   2  0.410000    22.676026432    14.647079451    98.599097784   0   0   0 # h*
   2373     42   2  0.410000    21.810357767    15.887017367    98.833790254   0   0   0 # h*
   2374     42   2  0.410000     5.999346111     9.283469826    98.376340996   1   0   0 # h*
   2375     42   2  0.410000     4.719839557     8.615830254    98.030527523   1   0   0 # h*
   2376     43   8 -0.940000     3.227966671     3.839246608    12.436072326   0   0   0 # oc13
   2377     43   7 -0.580000    13.249694892    18.374015101    72.634546956   0  -1   0 # oc12
   2378     44   8 -0.940000    14.472167224     3.817359277    12.635122431   0   0   0 # oc13
   2379     44   7 -0.580000     1.980848444    18.489044375    72.463139279   1  -1   0 # oc12
   2380     45   8 -0.940000    15.727900119    18.402355144    87.830969539   0  -1   0 # oc13
   2381     45   7 -0.580000    13.175931807    18.358326754   100.197476119   0  -1   0 # oc12
   2382     46   8 -0.940000     4.465259127    18.255881779    87.676819391   1  -1   0 # oc13
   2383     46   7 -0.580000     1.936073637    18.469058539   100.675165823   1  -1   0 # oc12
   2384     49   8 -0.940000     4.935051152     3.815449818     1.170172254   0   1   0 # oc13
   2385     50   8 -0.940000    16.307990206     3.748192440     1.172676354   0   1   0 # oc13
   2386     51   8 -0.940000    17.267197390    18.547520178    76.502201647   0   0   0 # oc13
   2387     51   1 -0.820000     3.587979746     4.915374158    19.354919008  -1   1   0 # o*
   2388     51  10  0.400000     1.879519469     4.026645366    18.462546348   0   1   0 # hoy
   2389     51   2  0.410000     3.252778300     5.436973912    20.128948647  -1   1   0 # h*
   2390     51   2  0.410000     4.113660405     5.662453308    18.970855096  -1   1   0 # h*
   2391     52   8 -0.940000     6.057001954    18.363746180    76.502445721   1   0   0 # oc13
   2392     52   1 -0.820000    22.403780769    15.344106814    68.336427906   0   1   0 # o*
   2393     52  10  0.400000    12.960954873     3.329887956    18.478913841   0   1   0 # hoy
   2394     52   2  0.410000    22.690735326    16.288269143    68.045725337   0   1   0 # h*
   2395     52   2  0.410000     0.607192530    15.109525177    68.969083841   1   1   0 # h*
   2396     53   1 -0.820000    13.612885556    18.477099623    97.431794996   0   0   0 # o*
   2397     53  10  0.400000    14.279853017    18.878491707    93.633208555   0   0   0 # hoy
   2398     53   2  0.410000    13.300314015    17.835944364    98.128581753   0   0   0 # h*
   2399     53   2  0.410000    14.232124505    18.840086892    98.070218537   0   0   0 # h*
   2400     54   1 -0.820000     2.600314060    18.395007096    97.681951462   1   0   0 # o*
   2401     54  10  0.400000     2.922966112    18.840588147    93.585449298   1   0   0 # hoy
   2402     54   2  0.410000     3.020724976    18.883858978    98.410625351   1   0   0 # h*
   2403     54   2  0.410000     2.580120105    17.518151129    98.000977463   1   0   0 # h*
   2404     55   8 -0.940000    20.227842847    11.481120087    12.663924567  -1   0   0 # oc13
   2405     55   8 -0.940000     8.803192417     5.601658973    73.893136858   0   0   0 # oc13
   2406     55   8 -0.940000    11.588717872    10.899042525    76.201749251   0   0   0 # oc13
   2407     55   8 -0.940000    17.213563189    13.135142684    15.003633293  -1   0   0 # oc13
   2408     56   8 -0.940000     8.841709885    11.333621536    12.686704599   0   0   0 # oc13
   2409     56   8 -0.940000    20.001892050     5.505498103    73.940306668   0   0   0 # oc13
   2410     56   8 -0.940000    22.940791037    10.994248428    76.574458688   0   0   0 # oc13
   2411     56   8 -0.940000     5.966882375    13.258384192    15.168043904   0   0   0 # oc13
   2412     57   8 -0.940000    20.130504540    18.730611429    12.487789586  -1   0   0 # oc13
   2413     57   8 -0.940000     8.800991378    12.822156495    73.924776665   0   0   0 # oc13
   2414     57   8 -0.940000    17.377451630    20.553834545    14.968372260  -1   0   0 # oc13
   2415     58   8 -0.940000     8.788011995    18.782802296    12.688752888   0   0   0 # oc13
   2416     58   8 -0.940000    20.024779817    12.965886828    73.960308150   0   0   0 # oc13
   2417     58   8 -0.940000     6.126205305    20.687254938    15.094104820   0   0   0 # oc13
   2418     59   8 -0.940000    20.114502200     3.900397777    12.403880399  -1   1   0 # oc13
   2419     60   8 -0.940000     8.851852222     3.978184394    12.685420483   0   1   0 # oc13
   2420     61   8 -0.940000    10.121805006     3.619417710    88.033220472   0   0   0 # oc13
   2421     61   8 -0.940000     8.745419718     5.363465992   101.788474337   0   0   0 # oc13
   2422     61   8 -0.940000     7.279260030     5.355148943    90.379323375   0   0   0 # oc13
   2423     62   8 -0.940000    21.373807228     3.589103209    87.869363878   0   0   0 # oc13
   2424     62   8 -0.940000    19.916096279     5.406597184   101.901968492   0   0   0 # oc13
   2425     62   8 -0.940000    18.393507582     5.444038358    90.346504764   0   0   0 # oc13
   2426     63   8 -0.940000    10.000025125    10.955011479    87.788826847   0   0   0 # oc13
   2427     63   8 -0.940000     8.803696345    12.916147049   101.954752142   0   0   0 # oc13
   2428     63   8 -0.940000     7.224045403    12.904513376    90.216221279   0   0   0 # oc13
   2429     64   8 -0.940000    21.357829008    11.144695312    87.948402530   0   0   0 # oc13
   2430     64   8 -0.940000    20.022875438    12.839036619   101.647245522   0   0   0 # oc13
   2431     64   8 -0.940000    18.561619145    12.777366918    90.340921350   0   0   0 # oc13
   2432     65   8 -0.940000    10.192606251    18.426622198    87.816210085   0   0   0 # oc13
   2433     66   8 -0.940000    21.232605365    18.453697660    87.835139917   0   0   0 # oc13
   2434     67   8 -0.940000    21.893278615    11.175644153     1.073190730  -1   0   0 # oc13
   2435     68   8 -0.940000    10.440605174    11.326509809     0.976046563   0   0   0 # oc13
   2436     69   8 -0.940000    21.688452747    18.739408589     1.020976850  -1   0   0 # oc13
   2437     70   8 -0.940000    10.541549404    18.712563722     1.232556863   0   0   0 # oc13
   2438     73   8 -0.940000     8.924082531    20.345183448    73.884525753   0  -1   0 # oc13
   2439     73   8 -0.940000    11.511281206     3.603604252    76.492112039   0   0   0 # oc13
   2440     73   8 -0.940000    17.442720241     5.606452699    15.065046804  -1   0   0 # oc13
   2441     74   8 -0.940000    20.274291496    20.222836462    73.897039425   0  -1   0 # oc13
   2442     74   8 -0.940000    22.913143286     3.523939161    76.659829903   0   0   0 # oc13
   2443     74   8 -0.940000     6.157814700     5.646116914    15.128441319   0   0   0 # oc13
   2444     75   8 -0.940000     8.908277279    20.423644414   101.683206604   0  -1   0 # oc13
   2445     75   8 -0.940000     7.088716054    20.122897818    90.356099495   0  -1   0 # oc13
   2446     76   8 -0.940000    20.063161222    20.277719528   101.893792689   0  -1   0 # oc13
   2447     76   8 -0.940000    18.472884018    20.268967400    90.220719181   0  -1   0 # oc13
   2448     77   8 -0.940000    21.788492688     3.864569653     1.076413596  -1   0   0 # oc13
   2449     78   8 -0.940000    10.485217302     3.834496304     1.355208913   0   0   0 # oc13
   2450     79   8 -0.940000    11.645947988    18.429859368    76.457247353   0  -1   0 # oc13
   2451     80   8 -0.940000    22.866648116    18.266748439    76.375633147   0  -1   0 # oc13
   2452     81   8 -0.940000     3.372173103     7.789859406    12.504073660   0   0   0 # oc13
   2453     81   8 -0.940000    14.351745816     1.737924042    74.069681084   0   0   0 # oc13
   2454     81   8 -0.940000    17.286897559    -0.235150183    76.457195043   0   0   0 # oc13
   2455     81   8 -0.940000     0.480130879     9.517451639    15.054349558   0   0   0 # oc13
   2456     82   8 -0.940000    14.561427182     7.575071155    12.537777248   0   0   0 # oc13
   2457     82   8 -0.940000     3.177601862     1.762931624    74.094683815   1   0   0 # oc13
   2458     82   8 -0.940000     6.041152861    -0.163625415    76.572952307   1   0   0 # oc13
   2459     82   8 -0.940000    11.641710017     9.338855612    15.085918797   0   0   0 # oc13
   2460     83   8 -0.940000     3.306539263    15.060419434    12.503339057   0   0   0 # oc13
   2461     83   8 -0.940000    14.547148632     9.224708605    73.683391895   0   0   0 # oc13
   2462     83   8 -0.940000    17.404810029     7.290086611    76.527391590   0   0   0 # oc13
   2463     83   8 -0.940000     0.546558867    16.820621943    14.970131039   0   0   0 # oc13
   2464     84   8 -0.940000    14.530363043    15.091193191    12.575081808   0   0   0 # oc13
   2465     84   8 -0.940000     3.137800995     9.176664601    74.103448018   1   0   0 # oc13
   2466     84   8 -0.940000     5.943315583     7.273806689    76.615708132   1   0   0 # oc13
   2467     84   8 -0.940000    11.561501100    16.924981972    15.084116343   0   0   0 # oc13
   2468     85   8 -0.940000     3.294605685     0.290876242    12.275897107   0   1   0 # oc13
   2469     85   8 -0.940000    14.485366937    16.644317852    74.157174984   0   0   0 # oc13
   2470     85   8 -0.940000    17.210012695    14.525545937    76.415000947   0   0   0 # oc13
   2471     85   8 -0.940000     0.542033655     1.960748641    15.022111865   0   1   0 # oc13
   2472     86   8 -0.940000    14.322067592     0.145345951    12.739017033   0   1   0 # oc13
   2473     86   8 -0.940000     3.255903591    16.748844945    74.034675200   1   0   0 # oc13
   2474     86   8 -0.940000     5.970282987    14.631832340    76.347809935   1   0   0 # oc13
   2475     86   8 -0.940000    11.628188896     2.069657130    15.209694723   0   1   0 # oc13
   2476     87   8 -0.940000    15.673630431    -0.121631665    87.701986495   0   0   0 # oc13
   2477     87   8 -0.940000    14.473828085     1.868434116   101.679843527   0   0   0 # oc13
   2478     87   8 -0.940000    12.811208682     1.659797822    90.303533178   0   0   0 # oc13
   2479     88   8 -0.940000     4.420871879    -0.162136894    87.892772235   1   0   0 # oc13
   2480     88   8 -0.940000     3.171309493     1.732995683   101.913729669   1   0   0 # oc13
   2481     88   8 -0.940000     1.572638331     1.510806851    90.366209690   1   0   0 # oc13
   2482     89   8 -0.940000    15.571583412     7.315257564    87.942910773   0   0   0 # oc13
   2483     89   8 -0.940000    14.200961229     9.059586173   101.911807551   0   0   0 # oc13
   2484     89   8 -0.940000    12.939185948     8.853791720    90.490495011   0   0   0 # oc13
   2485     90   8 -0.940000     4.393363530     7.300729035    87.813337410   1   0   0 # oc13
   2486     90   8 -0.940000     3.097670535     9.221235283   101.462097079   1   0   0 # oc13
   2487     90   8 -0.940000     1.734700504     8.998886998    90.265416690   1   0   0 # oc13
   2488     91   8 -0.940000    15.677776366    14.700356784    87.849310655   0   0   0 # oc13
   2489     91   8 -0.940000    14.588027854    16.491270405   101.609443549   0   0   0 # oc13
   2490     91   8 -0.940000    12.892865041    16.465621804    90.366080865   0   0   0 # oc13
   2491     92   8 -0.940000     4.545871459    14.821059333    87.673391466   1   0   0 # oc13
   2492     92   8 -0.940000     3.243569532    16.560097603   101.926589571   1   0   0 # oc13
   2493     92   8 -0.940000     1.628790786    16.547844011    90.184434418   1   0   0 # oc13
   2494     93   8 -0.940000     4.970276976     7.469795618     1.070179322   0   0   0 # oc13
   2495     94   8 -0.940000    16.191606650     7.590706945     1.198455068   0   0   0 # oc13
   2496     95   8 -0.940000     4.937904154    14.946605512     1.250402878   0   0   0 # oc13
   2497     96   8 -0.940000    16.213376940    14.904145021     1.283423000   0   0   0 # oc13
   2498     97   8 -0.940000     4.936166510    -0.067303454     1.132337227   0   1   0 # oc13
   2499     98   8 -0.940000    16.157412203     0.036863177     1.276754745   0   1   0 # oc13
   2500      1   1 -0.820000    10.029776716    12.933400887    31.769435327   0   0   0 # o*
   2501      1   2  0.410000    10.215568922    13.652752735    31.093004997   0   0   0 # h*
   2502      1   2  0.410000     9.549355896    12.307868789    31.178925498   0   0   0 # h*
   2503      1   1 -0.820000     1.596481590    13.952463871    30.863724033   0   0   0 # o*
   2504      1   2  0.410000     1.813192362    14.506303365    31.615310925   0   0   0 # h*
   2505      1   2  0.410000     2.220446697    13.190810114    31.024602338   0   0   0 # h*
   2506      1   1 -0.820000    18.423709796    20.070586830    41.577230156   0   0   0 # o*
   2507      1   2  0.410000    17.645902715    20.277576212    42.110656534   0   0   0 # h*
   2508      1   2  0.410000    19.005753101    19.699402886    42.282590618   0   0   0 # h*
   2509      1   1 -0.820000    17.892076219     0.334215260    25.179706085   0   0   0 # o*
   2510      1   2  0.410000    18.441235397    -0.200933972    25.778601801   0   0   0 # h*
   2511      1   2  0.410000    17.314136660     0.810379329    25.796173297   0   0   0 # h*
   2512      1   1 -0.820000     3.007757786     6.656707400    29.049144044   0   0   0 # o*
   2513      1   2  0.410000     2.491168914     6.764203467    28.239922067   0   0   0 # h*
   2514      1   2  0.410000     2.323622090     6.394723270    29.698472142   0   0   0 # h*
   2515      1   1 -0.820000     3.414171485     3.769027271    61.988556781   0   0   0 # o*
   2516      1   2  0.410000     3.478035623     4.383527779    61.227443313   0   0   0 # h*
   2517      1   2  0.410000     2.992066042     4.332999106    62.658681750   0   0   0 # h*
   2518      1   1 -0.820000     1.061591511    11.213061733    53.246165193   0   0   0 # o*
   2519      1   2  0.410000     0.640159314    10.352295572    53.441832059   0   0   0 # h*
   2520      1   2  0.410000     1.932299880    10.880551759    52.899430162   0   0   0 # h*
   2521      1   1 -0.820000    19.990410293    21.456307181    24.774939400   0   0   0 # o*
   2522      1   2  0.410000    20.866228446    21.619497366    25.173967575   0   0   0 # h*
   2523      1   2  0.410000    19.893830904    20.456733749    24.874761913   0   0   0 # h*
   2524      1   1 -0.820000    18.629769945    10.930655128    66.034094916   0   0   0 # o*
   2525      1   2  0.410000    18.076494237    11.755095085    66.141899613   0   0   0 # h*
   2526      1   2  0.410000    18.109256335    10.461749143    65.354271323   0   0   0 # h*
   2527      1   1 -0.820000    10.582121460    17.186439226    47.738236453   0   0   0 # o*
   2528      1   2  0.410000    10.613381231    16.267530041    47.371749928   0   0   0 # h*
   2529      1   2  0.410000    10.943875599    16.970580316    48.651428987   0   0   0 # h*
   2530      1   1 -0.820000     8.641284091     4.254920407    22.933959482   0   0   0 # o*
   2531      1   2  0.410000     9.328414316     4.311771886    22.192213396   0   0   0 # h*
   2532      1   2  0.410000     7.887901073     4.564511358    22.401122730   0   0   0 # h*
   2533      1   1 -0.820000    20.950610646    -0.253700783    52.459398033   0   1   0 # o*
   2534      1   2  0.410000    21.420052658    21.354276470    53.008041353   0   0   0 # h*
   2535      1   2  0.410000    20.731537253    21.450528892    51.646913976   0   0   0 # h*
   2536      1   1 -0.820000    14.980780587    18.796149202    28.915673696   0   0   0 # o*
   2537      1   2  0.410000    14.921793209    19.750920659    28.941457671   0   0   0 # h*
   2538      1   2  0.410000    14.960162619    18.691536340    27.955942285   0   0   0 # h*
   2539      1   1 -0.820000    21.905388845    -0.235945429    34.623576690   0   0   0 # o*
   2540      1   2  0.410000    21.081147383     0.108789257    35.009731491   0   0   0 # h*
   2541      1   2  0.410000    22.487699071     0.074894948    35.392751764   0   0   0 # h*
   2542      1   1 -0.820000    17.086054581    15.853507385    22.535026850   0   0   0 # o*
   2543      1   2  0.410000    16.347164570    16.523094753    22.587250093   0   0   0 # h*
   2544      1   2  0.410000    17.579343231    16.054724436    23.314550013   0   0   0 # h*
   2545      1   1 -0.820000    15.271533535     7.134611733    42.720759846   0   0   0 # o*
   2546      1   2  0.410000    14.479509333     7.415354768    43.226888092   0   0   0 # h*
   2547      1   2  0.410000    15.763723101     6.583148081    43.380927696   0   0   0 # h*
   2548      1   1 -0.820000    17.512840086     9.721485068    23.515460158   0   0   0 # o*
   2549      1   2  0.410000    17.382654294    10.628626904    23.921635343   0   0   0 # h*
   2550      1   2  0.410000    17.993593412    10.044495918    22.743881301   0   0   0 # h*
   2551      1   1 -0.820000    11.660071163     2.059784754    26.635075552   0   0   0 # o*
   2552      1   2  0.410000    12.267511561     2.207683957    27.349168277   0   0   0 # h*
   2553      1   2  0.410000    11.153287886     1.313544790    27.013464011   0   0   0 # h*
   2554      1   1 -0.820000    10.075948624    15.777302667    33.492260922   0   0   0 # o*
   2555      1   2  0.410000    10.063743907    16.352152865    32.721983209   0   0   0 # h*
   2556      1   2  0.410000    10.835054155    16.209577417    33.981026076   0   0   0 # h*
   2557      1   1 -0.820000    10.743833624    10.550532123    58.600529426   0   0   0 # o*
   2558      1   2  0.410000    10.173186496    11.128430355    59.115875785   0   0   0 # h*
   2559      1   2  0.410000    10.325424494    10.718931848    57.695055774   0   0   0 # h*
   2560      1   1 -0.820000     4.463137694     9.014724549    22.256467534   0   0   0 # o*
   2561      1   2  0.410000     4.438035202     9.603447986    23.059511551   0   0   0 # h*
   2562      1   2  0.410000     4.986991474     9.617797762    21.671569884   0   0   0 # h*
   2563      1   1 -0.820000    11.583278342     4.879923207    43.162407831   0   0   0 # o*
   2564      1   2  0.410000    11.946434938     4.276535715    43.828510891   0   0   0 # h*
   2565      1   2  0.410000    12.051092705     4.551697363    42.329127307   0   0   0 # h*
   2566      1   1 -0.820000    15.675171235    16.220678446    38.665294476   0   0   0 # o*
   2567      1   2  0.410000    15.028103349    16.621028862    38.097560788   0   0   0 # h*
   2568      1   2  0.410000    16.517939764    16.715834714    38.403928192   0   0   0 # h*
   2569      1   1 -0.820000     7.235807830    20.303122563    22.430865864   0   0   0 # o*
   2570      1   2  0.410000     6.915399164    19.506103380    22.920650323   0   0   0 # h*
   2571      1   2  0.410000     8.185373521    20.055056692    22.407095906   0   0   0 # h*
   2572      1   1 -0.820000     5.615173836     3.869429028    43.546171387   0   0   0 # o*
   2573      1   2  0.410000     5.156313923     3.838920951    42.655145661   0   0   0 # h*
   2574      1   2  0.410000     5.289781159     4.736406487    43.854466251   0   0   0 # h*
   2575      1   1 -0.820000    10.394592589    18.900624180    65.118369797   0   0   0 # o*
   2576      1   2  0.410000     9.946082911    19.777015471    65.203665824   0   0   0 # h*
   2577      1   2  0.410000    10.702290626    18.828743080    64.198553316   0   0   0 # h*
   2578      1   1 -0.820000    16.999889401    19.992844741    48.205347422   0   0   0 # o*
   2579      1   2  0.410000    17.706288898    19.786551756    48.920307172   0   0   0 # h*
   2580      1   2  0.410000    16.683788376    20.798462097    48.652401761   0   0   0 # h*
   2581      1   1 -0.820000    20.181017228    15.053319428    45.562586811   0   0   0 # o*
   2582      1   2  0.410000    19.823318734    15.807781973    46.028336631   0   0   0 # h*
   2583      1   2  0.410000    21.141434425    15.272458916    45.420108390   0   0   0 # h*
   2584      1   1 -0.820000    10.629496666    20.027353370    67.496372478   0   0   0 # o*
   2585      1   2  0.410000     9.953199865    19.762188274    68.153313454   0   0   0 # h*
   2586      1   2  0.410000    11.132486190    20.625933404    68.093877682   0   0   0 # h*
   2587      1   1 -0.820000    22.231200843     6.866131375    26.891521499   0   0   0 # o*
   2588      1   2  0.410000    21.803068596     5.970614453    27.062863496   0   0   0 # h*
   2589      1   2  0.410000    22.307242198     7.155566028    27.861642961   0   0   0 # h*
   2590      1   1 -0.820000    12.288047066    11.977975381    33.807861041   0   0   0 # o*
   2591      1   2  0.410000    12.368875035    12.569103942    34.596877660   0   0   0 # h*
   2592      1   2  0.410000    11.794802326    12.597822703    33.194270662   0   0   0 # h*
   2593      1   1 -0.820000     7.282287921     2.367248279    37.097927567   0   0   0 # o*
   2594      1   2  0.410000     6.301316854     2.291003397    37.092329086   0   0   0 # h*
   2595      1   2  0.410000     7.403575718     2.742847525    38.015615139   0   0   0 # h*
   2596      1   1 -0.820000     5.162142338     7.842030554    64.133553859   0   0   0 # o*
   2597      1   2  0.410000     6.004672200     8.287908729    64.064986623   0   0   0 # h*
   2598      1   2  0.410000     5.450832910     6.906745941    64.053206791   0   0   0 # h*
   2599      1   1 -0.820000    17.837234316     4.072188892    55.095211535   0   0   0 # o*
   2600      1   2  0.410000    18.753705639     3.880530815    54.779475386   0   0   0 # h*
   2601      1   2  0.410000    17.471922279     4.666112357    54.340282861   0   0   0 # h*
   2602      1   1 -0.820000     0.690332151     1.761362657    47.077767092   0   0   0 # o*
   2603      1   2  0.410000     0.467667791     2.149584219    46.189456956   0   0   0 # h*
   2604      1   2  0.410000    22.313972615     1.320227437    47.240546582  -1   0   0 # h*
   2605      1   1 -0.820000     7.940258395    10.804112426    54.225739945   0   0   0 # o*
   2606      1   2  0.410000     8.216379948    11.691405569    53.972830503   0   0   0 # h*
   2607      1   2  0.410000     7.873035865    10.965623781    55.190594218   0   0   0 # h*
   2608      1   1 -0.820000    12.767924819     8.368817889    59.065126465   0   0   0 # o*
   2609      1   2  0.410000    13.452278571     9.048659369    59.273994388   0   0   0 # h*
   2610      1   2  0.410000    11.935961371     8.893155987    59.046387265   0   0   0 # h*
   2611      1   1 -0.820000    10.423784936    19.153682142    29.153383237   0   0   0 # o*
   2612      1   2  0.410000     9.890246564    19.983620911    29.184616216   0   0   0 # h*
   2613      1   2  0.410000    11.351192996    19.561716730    29.397619881   0   0   0 # h*
   2614      1   1 -0.820000     9.210538143     6.654684770    61.887505862   0   0   0 # o*
   2615      1   2  0.410000     9.132919594     5.686339401    61.822936602   0   0   0 # h*
   2616      1   2  0.410000    10.189220801     6.690204314    61.778370501   0   0   0 # h*
   2617      1   1 -0.820000    16.529628667    19.670833093    52.177730765   0   0   0 # o*
   2618      1   2  0.410000    16.525186274    19.260830842    51.263746906   0   0   0 # h*
   2619      1   2  0.410000    16.075513158    20.534270632    52.047455037   0   0   0 # h*
   2620      1   1 -0.820000     3.867823591     1.148305885    25.630759335   0   0   0 # o*
   2621      1   2  0.410000     4.713883079     0.647607770    25.667455755   0   0   0 # h*
   2622      1   2  0.410000     4.077926717     1.670824326    26.452954766   0   0   0 # h*
   2623      1   1 -0.820000    13.787634653     3.815744182    55.608551370   0   0   0 # o*
   2624      1   2  0.410000    13.832557647     4.800102445    55.814766232   0   0   0 # h*
   2625      1   2  0.410000    12.828058988     3.610286683    55.555208945   0   0   0 # h*
   2626      1   1 -0.820000     9.262804314    21.277082392    44.492852717   0   0   0 # o*
   2627      1   2  0.410000     8.378610047    21.376928891    44.935280712   0   0   0 # h*
   2628      1   2  0.410000     9.577468510    -0.040039458    44.557301150   0   1   0 # h*
   2629      1   1 -0.820000     2.097122146    14.027324157    58.829633794   0   0   0 # o*
   2630      1   2  0.410000     1.492632463    14.218475154    59.584563404   0   0   0 # h*
   2631      1   2  0.410000     2.026629230    13.060752135    58.871013944   0   0   0 # h*
   2632      1   1 -0.820000    15.437212162    19.014016160    58.694206014   0   0   0 # o*
   2633      1   2  0.410000    16.051097016    18.558869601    58.081547719   0   0   0 # h*
   2634      1   2  0.410000    15.093702275    18.208003578    59.212526851   0   0   0 # h*
   2635      1   1 -0.820000    20.619400485     9.650755693    41.049387358   0   0   0 # o*
   2636      1   2  0.410000    20.763021623     9.122662751    41.913207854   0   0   0 # h*
   2637      1   2  0.410000    19.916978721     9.085558728    40.643131925   0   0   0 # h*
   2638      1   1 -0.820000    10.581930608    17.329647637    54.161308809   0   0   0 # o*
   2639      1   2  0.410000    10.422133704    16.609353417    53.510894944   0   0   0 # h*
   2640      1   2  0.410000    10.128383814    18.032861967    53.664499806   0   0   0 # h*
   2641      1   1 -0.820000     8.005026671     8.077544040    28.598515172   0   0   0 # o*
   2642      1   2  0.410000     8.055674717     8.900348266    28.079424802   0   0   0 # h*
   2643      1   2  0.410000     7.044866124     8.030193147    28.662305099   0   0   0 # h*
   2644      1   1 -0.820000     9.522447038    21.160405371    62.164794687   0   0   0 # o*
   2645      1   2  0.410000     9.567085666    21.322078533    63.094454602   0   0   0 # h*
   2646      1   2  0.410000     9.031795331    20.295346975    62.181669926   0   0   0 # h*
   2647      1   1 -0.820000     2.508336155    18.655005379    38.053333687   0   0   0 # o*
   2648      1   2  0.410000     3.442153802    18.791546374    38.373117384   0   0   0 # h*
   2649      1   2  0.410000     2.407187820    17.699784155    38.055178343   0   0   0 # h*
   2650      1   1 -0.820000    17.753304748     1.868257528    60.397082331   0   0   0 # o*
   2651      1   2  0.410000    17.238568044     2.297491073    61.107967250   0   0   0 # h*
   2652      1   2  0.410000    17.926176994     0.961426935    60.791576589   0   0   0 # h*
   2653      1   1 -0.820000    16.480230561    19.871662905    64.052258091   0   0   0 # o*
   2654      1   2  0.410000    15.918111956    20.103405156    63.292453204   0   0   0 # h*
   2655      1   2  0.410000    16.863772438    19.046661342    63.742356917   0   0   0 # h*
   2656      1   1 -0.820000    20.009007664    19.718343818    63.342153300   0   0   0 # o*
   2657      1   2  0.410000    20.709142341    20.389916725    63.491908066   0   0   0 # h*
   2658      1   2  0.410000    20.281607039    19.375271822    62.476639135   0   0   0 # h*
   2659      1   1 -0.820000    22.033672554     7.275366792    29.784920680   0   0   0 # o*
   2660      1   2  0.410000    22.469598194     7.072716162    30.633961328   0   0   0 # h*
   2661      1   2  0.410000    21.090937768     7.485751720    30.068916973   0   0   0 # h*
   2662      1   1 -0.820000    20.401452859     7.929354196    25.107666060   0   0   0 # o*
   2663      1   2  0.410000    20.540075115     7.244202719    24.399743076   0   0   0 # h*
   2664      1   2  0.410000    21.150940955     7.561779581    25.657339251   0   0   0 # h*
   2665      1   1 -0.820000    14.880921213    14.342641095    40.761077655   0   0   0 # o*
   2666      1   2  0.410000    15.122100879    14.755578889    39.887379353   0   0   0 # h*
   2667      1   2  0.410000    15.204741099    15.039311562    41.368859142   0   0   0 # h*
   2668      1   1 -0.820000     6.047788961    10.841771075    38.086856349   0   0   0 # o*
   2669      1   2  0.410000     5.913496059    11.584404946    38.728678967   0   0   0 # h*
   2670      1   2  0.410000     6.144399348    11.339035557    37.281807134   0   0   0 # h*
   2671      1   1 -0.820000    17.887062785    16.981672417    24.861549433   0   0   0 # o*
   2672      1   2  0.410000    17.895532112    17.873650053    24.358679915   0   0   0 # h*
   2673      1   2  0.410000    18.516876351    17.233182420    25.563794372   0   0   0 # h*
   2674      1   1 -0.820000    21.924208538    21.042435497    28.225493019   0   0   0 # o*
   2675      1   2  0.410000    22.183562411    20.350270977    27.626659126   0   0   0 # h*
   2676      1   2  0.410000    22.428867852    -0.482061587    27.917198125   0   1   0 # h*
   2677      1   1 -0.820000    15.347420797    17.970094692    26.238518220   0   0   0 # o*
   2678      1   2  0.410000    15.958835075    17.178794785    26.141266963   0   0   0 # h*
   2679      1   2  0.410000    15.963637936    18.715433467    26.246051001   0   0   0 # h*
   2680      1   1 -0.820000    17.381087105    14.082257237    34.980578511   0   0   0 # o*
   2681      1   2  0.410000    16.748281859    13.748690467    34.286641360   0   0   0 # h*
   2682      1   2  0.410000    18.101714735    13.421714809    34.840749674   0   0   0 # h*
   2683      1   1 -0.820000    11.382876552    14.466820661    62.505758689   0   0   0 # o*
   2684      1   2  0.410000    11.714304388    13.827970069    61.828148764   0   0   0 # h*
   2685      1   2  0.410000    10.447075099    14.656822928    62.239408977   0   0   0 # h*
   2686      1   1 -0.820000    15.092333940     5.359209038    25.539523720   0   0   0 # o*
   2687      1   2  0.410000    15.451526897     5.126318399    26.467096015   0   0   0 # h*
   2688      1   2  0.410000    15.839812760     5.261291604    24.965856381   0   0   0 # h*
   2689      1   1 -0.820000    13.484532937     0.614991840    52.499484139   0   0   0 # o*
   2690      1   2  0.410000    12.995395042     1.332528314    52.061212648   0   0   0 # h*
   2691      1   2  0.410000    14.127274812     1.105800756    53.045107976   0   0   0 # h*
   2692      1   1 -0.820000     9.971794528    17.603058733    41.968175495   0   0   0 # o*
   2693      1   2  0.410000     9.321366575    17.527607396    42.705294503   0   0   0 # h*
   2694      1   2  0.410000    10.695410936    18.091177870    42.460279884   0   0   0 # h*
   2695      1   1 -0.820000     7.111140205     0.953623968    63.730705716   0   0   0 # o*
   2696      1   2  0.410000     6.879195875     0.497817240    64.593484156   0   0   0 # h*
   2697      1   2  0.410000     6.250126746     1.454728402    63.590465928   0   0   0 # h*
   2698      1   1 -0.820000     4.761736708    18.585715660    52.290253273   0   0   0 # o*
   2699      1   2  0.410000     4.777383543    18.929457464    53.210674107   0   0   0 # h*
   2700      1   2  0.410000     4.989985285    17.626800704    52.346155198   0   0   0 # h*
   2701      1   1 -0.820000    10.106770988    16.743434736    60.331443285   0   0   0 # o*
   2702      1   2  0.410000     9.935109662    17.119341501    61.218498767   0   0   0 # h*
   2703      1   2  0.410000    10.672337440    17.483738011    59.928782893   0   0   0 # h*
   2704      1   1 -0.820000    19.896315052    20.623705240    38.328596934   0   0   0 # o*
   2705      1   2  0.410000    20.259824459    19.812947515    38.714786727   0   0   0 # h*
   2706      1   2  0.410000    20.721388044    21.149944660    38.227339450   0   0   0 # h*
   2707      1   1 -0.820000     1.172674425    18.411566717    64.269016417   0   0   0 # o*
   2708      1   2  0.410000    22.884633991    18.852026093    63.965259831  -1   0   0 # h*
   2709      1   2  0.410000     1.799480623    19.199170054    64.363732164   0   0   0 # h*
   2710      1   1 -0.820000    14.222338001     3.188723670    63.663950205   0   0   0 # o*
   2711      1   2  0.410000    14.137081997     2.402284996    64.242949152   0   0   0 # h*
   2712      1   2  0.410000    13.929097451     2.769315164    62.789641975   0   0   0 # h*
   2713      1   1 -0.820000     2.694059309     2.582105969    65.911742778   0   0   0 # o*
   2714      1   2  0.410000     2.382554806     3.271170667    66.544793079   0   0   0 # h*
   2715      1   2  0.410000     2.586710949     1.808725873    66.494085017   0   0   0 # h*
   2716      1   1 -0.820000    22.689941685     2.256238714    46.260206235  -1   0   0 # o*
   2717      1   2  0.410000     1.086666463     2.225238313    46.607222423   0   0   0 # h*
   2718      1   2  0.410000    22.695899758     1.312678714    45.882582305  -1   0   0 # h*
   2719      1   1 -0.820000    21.668335535    19.501640670    40.714435583   0   0   0 # o*
   2720      1   2  0.410000    21.296229544    19.114292618    39.893281521   0   0   0 # h*
   2721      1   2  0.410000    21.491182602    20.451380823    40.570633613   0   0   0 # h*
   2722      1   1 -0.820000    11.989293635    19.668257927    36.549919967   0   0   0 # o*
   2723      1   2  0.410000    11.650328901    19.622072544    35.630371430   0   0   0 # h*
   2724      1   2  0.410000    11.775911641    20.629081413    36.709214767   0   0   0 # h*
   2725      1   1 -0.820000    16.819289126     7.650671847    27.960406491   0   0   0 # o*
   2726      1   2  0.410000    17.457869149     6.952225648    28.254791394   0   0   0 # h*
   2727      1   2  0.410000    16.729812404     7.520931153    27.044456091   0   0   0 # h*
   2728      1   1 -0.820000    11.506297842     2.765817182    36.623438757   0   0   0 # o*
   2729      1   2  0.410000    10.676029186     3.085619993    36.137959624   0   0   0 # h*
   2730      1   2  0.410000    11.610993802     3.528651983    37.238974873   0   0   0 # h*
   2731      1   1 -0.820000     5.060325505     9.080154630    42.020390505   0   0   0 # o*
   2732      1   2  0.410000     5.824524859     9.692689878    42.211562455   0   0   0 # h*
   2733      1   2  0.410000     4.706509778     9.467620951    41.171445999   0   0   0 # h*
   2734      1   1 -0.820000    20.929043175     3.138122202    63.030985457   0   0   0 # o*
   2735      1   2  0.410000    20.625994827     3.343067973    62.151592742   0   0   0 # h*
   2736      1   2  0.410000    20.980531356     4.027060116    63.414278471   0   0   0 # h*
   2737      1   1 -0.820000    15.150736976     5.827917633    61.671539636   0   0   0 # o*
   2738      1   2  0.410000    15.922070384     5.202159829    61.895601472   0   0   0 # h*
   2739      1   2  0.410000    14.776763075     5.238560702    60.966857726   0   0   0 # h*
   2740      1   1 -0.820000    15.613581679     5.131463748    40.585942393   0   0   0 # o*
   2741      1   2  0.410000    15.269841717     5.705652944    41.271298497   0   0   0 # h*
   2742      1   2  0.410000    15.286658720     5.642326743    39.814913379   0   0   0 # h*
   2743      1   1 -0.820000     4.884107162    12.555459754    53.132348641   0   0   0 # o*
   2744      1   2  0.410000     4.131659689    12.231904729    52.587335227   0   0   0 # h*
   2745      1   2  0.410000     4.854460206    11.943950946    53.906321255   0   0   0 # h*
   2746      1   1 -0.820000     6.466268429    12.894809519    34.798615500   0   0   0 # o*
   2747      1   2  0.410000     7.243595948    12.219024523    34.786086983   0   0   0 # h*
   2748      1   2  0.410000     5.801373629    12.448339382    35.336196193   0   0   0 # h*
   2749      1   1 -0.820000     3.764832391    21.531997019    67.068011937   0   0   0 # o*
   2750      1   2  0.410000     4.429579703    -0.011296204    67.185313957   0   1   0 # h*
   2751      1   2  0.410000     3.725232307    21.286207495    68.041067987   0   0   0 # h*
   2752      1   1 -0.820000    20.994580316    20.889536073    66.485017211   0   0   0 # o*
   2753      1   2  0.410000    20.077257405    20.591385250    66.525388315   0   0   0 # h*
   2754      1   2  0.410000    20.936640449    -0.453226686    66.861000000   0   1   0 # h*
   2755      1   1 -0.820000    18.788895057    14.557786134    63.394159326   0   0   0 # o*
   2756      1   2  0.410000    18.311673378    15.417386928    63.467814985   0   0   0 # h*
   2757      1   2  0.410000    18.261337268    14.125778682    64.166002688   0   0   0 # h*
   2758      1   1 -0.820000    15.824510192    15.974845104    43.327068291   0   0   0 # o*
   2759      1   2  0.410000    15.070558552    15.495309510    43.754817552   0   0   0 # h*
   2760      1   2  0.410000    16.561928553    15.704101694    43.915906464   0   0   0 # h*
   2761      1   1 -0.820000     0.642066126     8.975987459    23.220567899   0   0   0 # o*
   2762      1   2  0.410000    22.903254876     8.958857083    24.187819597  -1   0   0 # h*
   2763      1   2  0.410000     1.593818628     9.227172233    23.283566797   0   0   0 # h*
   2764      1   1 -0.820000     8.427165001    12.197564236    41.247425530   0   0   0 # o*
   2765      1   2  0.410000     8.189819688    11.309660028    41.655455345   0   0   0 # h*
   2766      1   2  0.410000     7.630261628    12.693958751    41.515924058   0   0   0 # h*
   2767      1   1 -0.820000    14.858268243    11.895765353    49.562604228   0   0   0 # o*
   2768      1   2  0.410000    14.144641952    12.510143339    49.741480789   0   0   0 # h*
   2769      1   2  0.410000    14.758844142    11.320068723    50.314300025   0   0   0 # h*
   2770      1   1 -0.820000     4.346648660     4.650611314    54.528102460   0   0   0 # o*
   2771      1   2  0.410000     4.212546416     4.885604007    55.473689621   0   0   0 # h*
   2772      1   2  0.410000     4.866165760     5.433601136    54.268222029   0   0   0 # h*
   2773      1   1 -0.820000     7.325997155    14.953727320    55.345417325   0   0   0 # o*
   2774      1   2  0.410000     7.066688053    15.890462645    55.384166559   0   0   0 # h*
   2775      1   2  0.410000     6.454646723    14.500437054    55.437320625   0   0   0 # h*
   2776      1   1 -0.820000     6.716852922    17.096751209    29.920571001   0   0   0 # o*
   2777      1   2  0.410000     7.056907287    16.636160536    30.709365734   0   0   0 # h*
   2778      1   2  0.410000     5.794978565    17.346422286    30.229823639   0   0   0 # h*
   2779      1   1 -0.820000    14.188077386    18.623251749    48.635047025   0   0   0 # o*
   2780      1   2  0.410000    15.179270436    18.611992366    48.588422684   0   0   0 # h*
   2781      1   2  0.410000    14.166959766    18.547562216    49.613196405   0   0   0 # h*
   2782      1   1 -0.820000    19.165383229     4.106823271    25.193172227   0   0   0 # o*
   2783      1   2  0.410000    18.919519125     3.415222009    24.516158550   0   0   0 # h*
   2784      1   2  0.410000    18.486417934     4.795941894    24.977089174   0   0   0 # h*
   2785      1   1 -0.820000    15.478166814    14.135609935    53.312704884   0   0   0 # o*
   2786      1   2  0.410000    16.173079196    14.535545936    52.742168626   0   0   0 # h*
   2787      1   2  0.410000    15.685933428    14.563146524    54.186749919   0   0   0 # h*
   2788      1   1 -0.820000     9.032367657    12.784245932    60.209345186   0   0   0 # o*
   2789      1   2  0.410000     8.356241483    13.332928392    59.823368522   0   0   0 # h*
   2790      1   2  0.410000     8.925619624    13.037960536    61.125741060   0   0   0 # h*
   2791      1   1 -0.820000     3.994463355    20.269370122    24.755918287   0   0   0 # o*
   2792      1   2  0.410000     3.117244796    20.218810291    25.287798192   0   0   0 # h*
   2793      1   2  0.410000     4.324676376    21.024468972    25.253718176   0   0   0 # h*
   2794      1   1 -0.820000     1.861841676     9.743678341    27.558718204   0   0   0 # o*
   2795      1   2  0.410000     1.131777648     9.192967050    27.970146671   0   0   0 # h*
   2796      1   2  0.410000     1.585663202     9.712322877    26.595829435   0   0   0 # h*
   2797      1   1 -0.820000    14.605736530    19.689000649    23.400761262   0   0   0 # o*
   2798      1   2  0.410000    13.909893688    19.989394289    22.738583075   0   0   0 # h*
   2799      1   2  0.410000    14.398952522    18.744513007    23.452522729   0   0   0 # h*
   2800      1   1 -0.820000    19.519041422     7.676911932    31.036408341   0   0   0 # o*
   2801      1   2  0.410000    19.605602353     7.176694325    31.893982619   0   0   0 # h*
   2802      1   2  0.410000    18.543755773     7.541427296    30.913400119   0   0   0 # h*
   2803      1   1 -0.820000    17.339405566     2.905827509    41.544207486   0   0   0 # o*
   2804      1   2  0.410000    16.669006429     3.622349909    41.371260668   0   0   0 # h*
   2805      1   2  0.410000    16.769847811     2.278052767    42.017645037   0   0   0 # h*
   2806      1   1 -0.820000     1.288139315     7.880353434    37.762454675   0   0   0 # o*
   2807      1   2  0.410000    22.957254010     8.336271702    37.543678529  -1   0   0 # h*
   2808      1   2  0.410000     1.171839833     7.292432302    38.531638437   0   0   0 # h*
   2809      1   1 -0.820000     5.878957837    13.549794031    41.550937291   0   0   0 # o*
   2810      1   2  0.410000     5.466320773    13.024995019    40.827918021   0   0   0 # h*
   2811      1   2  0.410000     5.990992930    14.378971975    41.093925915   0   0   0 # h*
   2812      1   1 -0.820000    10.119923856     2.719102638    49.363155014   0   0   0 # o*
   2813      1   2  0.410000    10.067145412     2.878960384    48.374110849   0   0   0 # h*
   2814      1   2  0.410000     9.993764914     1.744411329    49.441021587   0   0   0 # h*
   2815      1   1 -0.820000    15.854248337    11.720534309    37.922688914   0   0   0 # o*
   2816      1   2  0.410000    15.560436355    12.637075664    37.691374147   0   0   0 # h*
   2817      1   2  0.410000    15.235932922    11.219949395    37.340540553   0   0   0 # h*
   2818      1   1 -0.820000    22.474864869     9.689907623    27.609696377   0   0   0 # o*
   2819      1   2  0.410000    21.915071224    10.481020989    27.527742167   0   0   0 # h*
   2820      1   2  0.410000    22.043985212     8.903962707    27.205755261   0   0   0 # h*
   2821      1   1 -0.820000     6.322884777     2.999466487    30.775635134   0   0   0 # o*
   2822      1   2  0.410000     5.503456960     3.428952894    30.514053446   0   0   0 # h*
   2823      1   2  0.410000     6.925684291     3.467219450    30.073180227   0   0   0 # h*
   2824      1   1 -0.820000     3.275812979    17.885349442    58.740161802   0   0   0 # o*
   2825      1   2  0.410000     3.897695054    17.121675375    58.632283385   0   0   0 # h*
   2826      1   2  0.410000     3.789333329    18.695187977    58.485136162   0   0   0 # h*
   2827      1   1 -0.820000    18.360455384    21.420907625    61.814917384   0   0   0 # o*
   2828      1   2  0.410000    17.639505697    20.958134231    61.287310310   0   0   0 # h*
   2829      1   2  0.410000    18.744408772    20.607916815    62.193334465   0   0   0 # h*
   2830      1   1 -0.820000    10.801545584     5.476596380    51.918497880   0   0   0 # o*
   2831      1   2  0.410000    10.398381379     6.269006709    51.398224057   0   0   0 # h*
   2832      1   2  0.410000    10.211250961     5.400276245    52.688177615   0   0   0 # h*
   2833      1   1 -0.820000     4.146437828     4.513657009    41.128642414   0   0   0 # o*
   2834      1   2  0.410000     4.687291159     5.227231375    40.752489892   0   0   0 # h*
   2835      1   2  0.410000     3.344126779     5.048896343    41.226176336   0   0   0 # h*
   2836      1   1 -0.820000    15.923869367    20.444722267    43.300700891   0   0   0 # o*
   2837      1   2  0.410000    15.766171672    19.558392045    43.716461370   0   0   0 # h*
   2838      1   2  0.410000    15.252799624    20.385067075    42.554411355   0   0   0 # h*
   2839      1   1 -0.820000    13.047174166     9.789077182    43.215720815   0   0   0 # o*
   2840      1   2  0.410000    12.883355521     8.994023203    43.802676908   0   0   0 # h*
   2841      1   2  0.410000    12.330657805    10.358590632    43.533636206   0   0   0 # h*
   2842      1   1 -0.820000    11.145082023     1.454199439    42.906701088   0   0   0 # o*
   2843      1   2  0.410000    11.045018350     1.194947107    43.843976508   0   0   0 # h*
   2844      1   2  0.410000    11.957009711     0.958791621    42.632094326   0   0   0 # h*
   2845      1   1 -0.820000     5.827544571    11.371109043    21.634389278   0   0   0 # o*
   2846      1   2  0.410000     6.677119211    11.396114476    22.141092496   0   0   0 # h*
   2847      1   2  0.410000     5.549644794    12.292773446    21.705158825   0   0   0 # h*
   2848      1   1 -0.820000     6.904686548    12.351764047    35.717249515   0   0   0 # o*
   2849      1   2  0.410000     6.066175833    12.742904251    35.318564987   0   0   0 # h*
   2850      1   2  0.410000     7.599798647    12.773452046    35.152063241   0   0   0 # h*
   2851      1   1 -0.820000     3.295521780     8.124924429    39.486190028   0   0   0 # o*
   2852      1   2  0.410000     3.196549415     7.682302649    38.678521554   0   0   0 # h*
   2853      1   2  0.410000     2.682405139     8.866688490    39.328540805   0   0   0 # h*
   2854      1   1 -0.820000     0.873694683    11.324269812    42.114325263   0   0   0 # o*
   2855      1   2  0.410000    22.797805843    10.561497722    42.314066046  -1   0   0 # h*
   2856      1   2  0.410000     1.404994348    10.892635455    41.379337565   0   0   0 # h*
   2857      1   1 -0.820000     3.459325178    10.166949397    57.906248906   0   0   0 # o*
   2858      1   2  0.410000     4.309682991    10.581729608    58.237336505   0   0   0 # h*
   2859      1   2  0.410000     2.837445359    10.669710513    58.521969217   0   0   0 # h*
   2860      1   1 -0.820000    14.390904145     1.596622783    28.627677986   0   0   0 # o*
   2861      1   2  0.410000    14.273669087     0.616104788    28.790436645   0   0   0 # h*
   2862      1   2  0.410000    15.128151677     1.797230944    29.228274397   0   0   0 # h*
   2863      1   1 -0.820000     9.836661513    12.329427658    45.767829040   0   0   0 # o*
   2864      1   2  0.410000     9.372055987    11.476866323    45.643436919   0   0   0 # h*
   2865      1   2  0.410000    10.491999959    12.309566632    45.031578452   0   0   0 # h*
   2866      1   1 -0.820000    12.857082400    21.127582831    40.586299727   0   0   0 # o*
   2867      1   2  0.410000    12.480091698    -0.266890531    40.362374808   0   1   0 # h*
   2868      1   2  0.410000    12.140500393    20.512964758    40.334282257   0   0   0 # h*
   2869      1   1 -0.820000     1.018988443     0.248289393    57.908738911   0   0   0 # o*
   2870      1   2  0.410000     1.827504416    -0.192454149    57.574318973   0   0   0 # h*
   2871      1   2  0.410000     0.917610368    -0.272026840    58.733366359   0   0   0 # h*
   2872      1   1 -0.820000     3.908019016     9.562105791    36.165739790   0   0   0 # o*
   2873      1   2  0.410000     4.339322266     8.708591616    36.504229942   0   0   0 # h*
   2874      1   2  0.410000     4.402092189    10.209403268    36.681203887   0   0   0 # h*
   2875      1   1 -0.820000     9.113242707     5.707544954    44.353381331   0   0   0 # o*
   2876      1   2  0.410000     9.767441220     5.227128290    43.787005604   0   0   0 # h*
   2877      1   2  0.410000     9.720680258     6.126495098    45.024800108   0   0   0 # h*
   2878      1   1 -0.820000     0.449714642     6.013104513    49.803260523   1   0   0 # o*
   2879      1   2  0.410000    22.049322748     6.059632266    49.479901427   0   0   0 # h*
   2880      1   2  0.410000    22.771679047     5.833016186    50.746977958   0   0   0 # h*
   2881      1   1 -0.820000     1.566202898     5.313167198    38.279882868   0   0   0 # o*
   2882      1   2  0.410000     1.142190113     6.146832725    38.539962586   0   0   0 # h*
   2883      1   2  0.410000     2.454974570     5.551412832    38.074559449   0   0   0 # h*
   2884      1   1 -0.820000     6.884514791     7.590470347    44.761638321   0   0   0 # o*
   2885      1   2  0.410000     5.959475525     7.304928062    44.630714540   0   0   0 # h*
   2886      1   2  0.410000     7.343948905     6.863269411    44.288947115   0   0   0 # h*
   2887      1   1 -0.820000    20.486934334    15.465846544    59.392959972   0   0   0 # o*
   2888      1   2  0.410000    20.410578910    14.828454071    60.122486409   0   0   0 # h*
   2889      1   2  0.410000    21.393774083    15.747257222    59.500190571   0   0   0 # h*
   2890      1   1 -0.820000    12.162337224     6.108874218    61.825544903   0   0   0 # o*
   2891      1   2  0.410000    11.687971785     5.244528796    61.994977191   0   0   0 # h*
   2892      1   2  0.410000    13.115673996     5.849679258    61.852775016   0   0   0 # h*
   2893      1   1 -0.820000    16.421038187    12.125571432    36.093482199   0   0   0 # o*
   2894      1   2  0.410000    15.464436254    12.215945626    36.132269982   0   0   0 # h*
   2895      1   2  0.410000    16.413938530    11.158648303    36.068396152   0   0   0 # h*
   2896      1   1 -0.820000     9.318623226    20.986836054    44.053820326   0   0   0 # o*
   2897      1   2  0.410000     9.453933492    -0.520453987    44.643066636   0   1   0 # h*
   2898      1   2  0.410000     9.822026731    20.305689152    44.602301743   0   0   0 # h*
   2899      1   1 -0.820000    17.969851835    21.359604077    56.861711081   0   0   0 # o*
   2900      1   2  0.410000    18.645289975    21.129584424    56.153417228   0   0   0 # h*
   2901      1   2  0.410000    18.562985109    21.472989277    57.609470862   0   0   0 # h*
   2902      1   1 -0.820000     1.419698698    17.181473468    21.678666119   0   0   0 # o*
   2903      1   2  0.410000     1.541126787    17.432095854    20.728165191   0   0   0 # h*
   2904      1   2  0.410000     1.553750172    18.094382821    22.105497271   0   0   0 # h*
   2905      1   1 -0.820000     6.193531879    17.740109809    55.561312463   0   0   0 # o*
   2906      1   2  0.410000     6.575645372    18.385387096    56.216373161   0   0   0 # h*
   2907      1   2  0.410000     5.721188800    18.390115963    55.006684140   0   0   0 # h*
   2908      1   1 -0.820000    10.529626192     6.484779239    60.722192436   0   0   0 # o*
   2909      1   2  0.410000    10.490592824     5.610084678    60.231795122   0   0   0 # h*
   2910      1   2  0.410000    10.969972696     6.184329274    61.489706674   0   0   0 # h*
   2911      1   1 -0.820000    20.550911037    10.891542429    57.146385110   0   0   0 # o*
   2912      1   2  0.410000    19.938573055    10.257280118    57.595414600   0   0   0 # h*
   2913      1   2  0.410000    20.657194484    10.421607793    56.268277133   0   0   0 # h*
   2914      1   1 -0.820000    20.114485110     6.266267386    58.256636903   0   0   0 # o*
   2915      1   2  0.410000    19.644266776     5.840217986    59.029959749   0   0   0 # h*
   2916      1   2  0.410000    20.317813004     5.458100576    57.777139781   0   0   0 # h*
   2917      1   1 -0.820000    18.268445598     7.479581438    47.002044176   0   0   0 # o*
   2918      1   2  0.410000    17.716333012     6.714242159    47.273285270   0   0   0 # h*
   2919      1   2  0.410000    19.085164490     6.986371154    46.795760185   0   0   0 # h*
   2920      1   1 -0.820000    20.694885823     5.723821784    46.621452303   0   0   0 # o*
   2921      1   2  0.410000    20.644918074     4.970464059    47.260992652   0   0   0 # h*
   2922      1   2  0.410000    20.578505735     5.249845886    45.782001752   0   0   0 # h*
   2923      1   1 -0.820000    16.382820792     5.437125117    53.128297338   0   0   0 # o*
   2924      1   2  0.410000    15.469268083     5.549512899    52.736276623   0   0   0 # h*
   2925      1   2  0.410000    16.467530645     6.302471504    53.569075619   0   0   0 # h*
   2926      1   1 -0.820000     5.492132135    19.917871776    65.286047136   0   0   0 # o*
   2927      1   2  0.410000     6.305312758    20.224357500    65.804174252   0   0   0 # h*
   2928      1   2  0.410000     4.803714085    20.181877947    65.908313201   0   0   0 # h*
   2929      1   1 -0.820000    19.974446450    12.496394001    49.687958206   0   0   0 # o*
   2930      1   2  0.410000    20.695211142    11.945145407    49.239511172   0   0   0 # h*
   2931      1   2  0.410000    19.492539920    12.725394466    48.826489207   0   0   0 # h*
   2932      1   1 -0.820000     6.703802287    11.423970743    30.194331725   0   0   0 # o*
   2933      1   2  0.410000     7.512923284    11.926355485    29.883298280   0   0   0 # h*
   2934      1   2  0.410000     6.100260415    11.616522468    29.440801530   0   0   0 # h*
   2935      1   1 -0.820000    11.138894145    16.858547780    22.313716079   0   0   0 # o*
   2936      1   2  0.410000    11.109077906    16.733927362    21.340799901   0   0   0 # h*
   2937      1   2  0.410000    10.844535228    15.987263888    22.698874381   0   0   0 # h*
   2938      1   1 -0.820000     4.331539217    16.991164463    62.139694653   0   0   0 # o*
   2939      1   2  0.410000     4.236498313    15.999343761    62.180132602   0   0   0 # h*
   2940      1   2  0.410000     4.852668164    17.137205879    61.333151145   0   0   0 # h*
   2941      1   1 -0.820000    14.238254078     1.559609797    61.199149039   0   0   0 # o*
   2942      1   2  0.410000    13.302727569     1.314721836    61.162648196   0   0   0 # h*
   2943      1   2  0.410000    14.487296824     1.364225462    60.237697863   0   0   0 # h*
   2944      1   1 -0.820000    14.988129139     3.345973253    50.746077029   0   0   0 # o*
   2945      1   2  0.410000    14.234427436     2.818819104    50.329429788   0   0   0 # h*
   2946      1   2  0.410000    14.491377867     4.132214479    51.042132597   0   0   0 # h*
   2947      1   1 -0.820000     1.932596421    21.309344337    40.329210568   0   0   0 # o*
   2948      1   2  0.410000     2.513263104    21.657965549    41.081321866   0   0   0 # h*
   2949      1   2  0.410000     1.757119748    20.431029671    40.676169883   0   0   0 # h*
   2950      1   1 -0.820000     2.300558350    10.845727358    46.901422297   0   0   0 # o*
   2951      1   2  0.410000     3.130735081    10.802979363    46.398540611   0   0   0 # h*
   2952      1   2  0.410000     1.873423910     9.972291712    46.796103679   0   0   0 # h*
   2953      1   1 -0.820000    18.500472680    20.726873175    38.762170322   0   0   0 # o*
   2954      1   2  0.410000    18.303835261    20.646992505    39.759363574   0   0   0 # h*
   2955      1   2  0.410000    19.136605944    21.463450601    38.752219084   0   0   0 # h*
   2956      1   1 -0.820000    18.839289841    14.281932736    37.672542739   0   0   0 # o*
   2957      1   2  0.410000    18.186084686    13.841880978    37.095329773   0   0   0 # h*
   2958      1   2  0.410000    18.333740678    15.074881624    37.973454173   0   0   0 # h*
   2959      1   1 -0.820000     9.086915117     3.622717546    35.420859724   0   0   0 # o*
   2960      1   2  0.410000     8.470985812     2.973112451    35.864421655   0   0   0 # h*
   2961      1   2  0.410000     8.488715658     4.384182669    35.437968720   0   0   0 # h*
   2962      1   1 -0.820000     4.753104898    13.724249336    55.788790904   0   0   0 # o*
   2963      1   2  0.410000     3.832083416    13.364492059    55.513674955   0   0   0 # h*
   2964      1   2  0.410000     4.439546237    14.660682341    55.765400353   0   0   0 # h*
   2965      1   1 -0.820000    14.309510702     2.085096051    38.642390784   0   0   0 # o*
   2966      1   2  0.410000    15.310389662     2.260843860    38.696422935   0   0   0 # h*
   2967      1   2  0.410000    14.176512957     2.047444966    37.666432469   0   0   0 # h*
   2968      1   1 -0.820000     2.000298478    16.054783996    32.570904898   0   0   0 # o*
   2969      1   2  0.410000     2.191795861    16.431166944    33.433010834   0   0   0 # h*
   2970      1   2  0.410000     1.056684861    16.366065338    32.484265055   0   0   0 # h*
   2971      1   1 -0.820000     5.350135697    19.081455016    38.836854260   0   0   0 # o*
   2972      1   2  0.410000     5.051777968    19.222942830    39.722582433   0   0   0 # h*
   2973      1   2  0.410000     5.771236212    19.943799907    38.626249013   0   0   0 # h*
   2974      1   1 -0.820000    18.856101179     9.955002740    29.546845373   0   0   0 # o*
   2975      1   2  0.410000    18.412675308     9.632070540    28.734651837   0   0   0 # h*
   2976      1   2  0.410000    19.157161461     9.146209346    29.949034191   0   0   0 # h*
   2977      1   1 -0.820000     7.869151160    15.468668715    38.154626300   0   0   0 # o*
   2978      1   2  0.410000     8.809135913    15.643280085    37.880778450   0   0   0 # h*
   2979      1   2  0.410000     7.913377071    16.001836926    39.003652357   0   0   0 # h*
   2980      1   1 -0.820000     1.024968020    15.673315422    56.922316113   0   0   0 # o*
   2981      1   2  0.410000     1.436170831    14.965056112    57.462196675   0   0   0 # h*
   2982      1   2  0.410000     1.816332200    15.978437791    56.425925396   0   0   0 # h*
   2983      1   1 -0.820000    14.014796003    15.300186466    48.814087313   0   0   0 # o*
   2984      1   2  0.410000    14.544141296    15.753088192    49.483715896   0   0   0 # h*
   2985      1   2  0.410000    14.754573657    14.797742863    48.368578166   0   0   0 # h*
   2986      1   1 -0.820000    15.083342839    10.716133903    45.210348543   0   0   0 # o*
   2987      1   2  0.410000    15.168357522    10.502871663    44.270781024   0   0   0 # h*
   2988      1   2  0.410000    14.883977479     9.820123816    45.529568300   0   0   0 # h*
   2989      1   1 -0.820000    22.033683286     8.589974526    58.238530264   0   0   0 # o*
   2990      1   2  0.410000    21.809709607     7.656815662    58.263967488   0   0   0 # h*
   2991      1   2  0.410000    21.917102008     8.883320787    57.305967735   0   0   0 # h*
   2992      1   1 -0.820000    21.157612978     3.437015418    34.502407060   0   0   0 # o*
   2993      1   2  0.410000    21.093468502     2.696576355    35.168626298   0   0   0 # h*
   2994      1   2  0.410000    22.087913126     3.244590252    34.137175948   0   0   0 # h*
   2995      1   1 -0.820000    15.524176653    21.242906899    25.708721690   0   0   0 # o*
   2996      1   2  0.410000    14.940147896    21.079993354    24.928289630   0   0   0 # h*
   2997      1   2  0.410000    16.051249760    -0.310990526    25.337530324   0   1   0 # h*
   2998      1   1 -0.820000     3.361291102     0.287635296    37.959465712   0   1   0 # o*
   2999      1   2  0.410000     2.863630174    -0.033862653    38.735473552   0   1   0 # h*
   3000      1   2  0.410000     4.287303815     0.094937082    38.232650658   0   1   0 # h*
   3001      1   1 -0.820000    18.874778270     8.721028056    58.040725974   0   0   0 # o*
   3002      1   2  0.410000    19.553700665     8.074152173    58.368770385   0   0   0 # h*
   3003      1   2  0.410000    18.056868626     8.319995013    58.445134585   0   0   0 # h*
   3004      1   1 -0.820000     9.308102946    10.967985782    45.823604008   0   0   0 # o*
   3005      1   2  0.410000     9.356271385    10.653159986    46.750327008   0   0   0 # h*
   3006      1   2  0.410000     8.893543207    11.833262431    45.989607818   0   0   0 # h*
   3007      1   1 -0.820000     3.698579741    19.314811019    55.131685968   0   0   0 # o*
   3008      1   2  0.410000     3.889717121    19.754487797    55.958248070   0   0   0 # h*
   3009      1   2  0.410000     2.750231003    19.638056846    54.960314922   0   0   0 # h*
   3010      1   1 -0.820000     1.852790202     3.451760483    55.078948388   0   0   0 # o*
   3011      1   2  0.410000     1.852830563     2.615308094    54.500567687   0   0   0 # h*
   3012      1   2  0.410000     2.631371513     3.929041207    54.829847233   0   0   0 # h*
   3013      1   1 -0.820000     3.668789276     4.329833062    30.914966914   0   0   0 # o*
   3014      1   2  0.410000     3.679529431     4.854242661    30.063419719   0   0   0 # h*
   3015      1   2  0.410000     3.447268696     5.069877062    31.571698643   0   0   0 # h*
   3016      1   1 -0.820000    10.972344371    12.118051333    43.126005011   0   0   0 # o*
   3017      1   2  0.410000    10.216053467    11.922584457    42.510729771   0   0   0 # h*
   3018      1   2  0.410000    11.208983660    12.997031449    42.804759167   0   0   0 # h*
   3019      1   1 -0.820000     3.902867468    11.564043773    40.653573927   0   0   0 # o*
   3020      1   2  0.410000     3.463707703    11.808483702    41.503501029   0   0   0 # h*
   3021      1   2  0.410000     3.157765382    11.389937821    40.118367678   0   0   0 # h*
   3022      1   1 -0.820000     6.217227604     9.293621177    52.357739554   0   0   0 # o*
   3023      1   2  0.410000     6.200553356     9.805052429    51.537020662   0   0   0 # h*
   3024      1   2  0.410000     6.654307500     9.930507416    52.976641718   0   0   0 # h*
   3025      1   1 -0.820000    18.056094760    17.257474186    60.327001055   0   0   0 # o*
   3026      1   2  0.410000    17.662072288    18.011763625    60.788325878   0   0   0 # h*
   3027      1   2  0.410000    18.970908406    17.619422094    60.169273291   0   0   0 # h*
   3028      1   1 -0.820000    16.345927690    19.093321835    31.431071395   0   0   0 # o*
   3029      1   2  0.410000    15.818687952    18.689923135    30.691582727   0   0   0 # h*
   3030      1   2  0.410000    15.811491095    18.784787744    32.161080206   0   0   0 # h*
   3031      1   1 -0.820000     1.439777357    -0.393523728    30.267531808   0   1   0 # o*
   3032      1   2  0.410000     1.761095308    21.014179245    30.679819899   0   0   0 # h*
   3033      1   2  0.410000     0.917016060    -0.040407137    31.043877099   0   1   0 # h*
   3034      1   1 -0.820000    20.792669702     1.542330259    36.602296069   0   0   0 # o*
   3035      1   2  0.410000    20.336328214     0.819642934    37.077175193   0   0   0 # h*
   3036      1   2  0.410000    20.711433025     2.234181224    37.278725451   0   0   0 # h*
   3037      1   1 -0.820000    12.434076632    20.616574517    30.205034845   0   0   0 # o*
   3038      1   2  0.410000    12.211166879    21.485191827    30.583314398   0   0   0 # h*
   3039      1   2  0.410000    13.108476186    20.850807449    29.527916522   0   0   0 # h*
   3040      1   1 -0.820000    20.430691211     0.611383917    47.129169818   0   0   0 # o*
   3041      1   2  0.410000    19.858438936     0.839424949    46.390871631   0   0   0 # h*
   3042      1   2  0.410000    19.846139552     0.220738436    47.803446874   0   0   0 # h*
   3043      1   1 -0.820000    12.683083256     4.573869995    24.315187039   0   0   0 # o*
   3044      1   2  0.410000    13.410086147     5.151460534    24.722779311   0   0   0 # h*
   3045      1   2  0.410000    13.263201809     3.791042100    23.966229467   0   0   0 # h*
   3046      1   1 -0.820000    14.817887422     9.531827760    62.592338651   0   0   0 # o*
   3047      1   2  0.410000    15.064558223     9.487239767    61.678590028   0   0   0 # h*
   3048      1   2  0.410000    13.933916968     9.943018981    62.597820119   0   0   0 # h*
   3049      1   1 -0.820000    12.493856313    17.198684013    29.438537419   0   0   0 # o*
   3050      1   2  0.410000    13.107591778    17.926622980    29.747451510   0   0   0 # h*
   3051      1   2  0.410000    11.859906097    17.767283642    28.942584953   0   0   0 # h*
   3052      1   1 -0.820000    21.217220258     6.260943644    66.447047514   0   0   0 # o*
   3053      1   2  0.410000    20.716368146     6.850850852    65.822551296   0   0   0 # h*
   3054      1   2  0.410000    20.605471139     6.148534626    67.217498003   0   0   0 # h*
   3055      1   1 -0.820000     4.826524673    10.102500732    49.203971900   0   0   0 # o*
   3056      1   2  0.410000     5.520167037    10.617176350    48.755935616   0   0   0 # h*
   3057      1   2  0.410000     4.578498215     9.602287630    48.366803912   0   0   0 # h*
   3058      1   1 -0.820000     9.602536410     9.041134576    32.281009449   0   0   0 # o*
   3059      1   2  0.410000     8.841216907     9.616362949    32.623921813   0   0   0 # h*
   3060      1   2  0.410000     9.651844319     9.497987363    31.423224122   0   0   0 # h*
   3061      1   1 -0.820000     8.514112323    14.856593499    62.446485839   0   0   0 # o*
   3062      1   2  0.410000     8.644887948    15.303315367    63.309468146   0   0   0 # h*
   3063      1   2  0.410000     7.598228925    14.500768043    62.723467958   0   0   0 # h*
   3064      1   1 -0.820000    16.183272523    21.641422070    59.574471043   0   0   0 # o*
   3065      1   2  0.410000    16.879745111    21.630773335    58.861429234   0   0   0 # h*
   3066      1   2  0.410000    15.891756207    20.663138422    59.463571638   0   0   0 # h*
   3067      1   1 -0.820000     7.497030062    16.630029916    52.586536290   0   0   0 # o*
   3068      1   2  0.410000     7.804521811    15.998089042    51.861978571   0   0   0 # h*
   3069      1   2  0.410000     6.681653552    16.152427868    52.858654449   0   0   0 # h*
   3070      1   1 -0.820000    11.005050091     2.141887563    23.893970164   0   0   0 # o*
   3071      1   2  0.410000    10.520203070     2.981238801    24.010968818   0   0   0 # h*
   3072      1   2  0.410000    11.490756453     2.148195336    24.782081668   0   0   0 # h*
   3073      1   1 -0.820000     2.398726360    14.353158893    24.762645732   0   0   0 # o*
   3074      1   2  0.410000     2.440364194    13.940757478    25.652458822   0   0   0 # h*
   3075      1   2  0.410000     1.438508074    14.600187143    24.696280689   0   0   0 # h*
   3076      1   1 -0.820000    18.924936701     9.320054534    34.161422953   0   0   0 # o*
   3077      1   2  0.410000    17.971840679     9.251521397    34.228823500   0   0   0 # h*
   3078      1   2  0.410000    19.148090094     8.410175753    33.763093544   0   0   0 # h*
   3079      1   1 -0.820000    20.644657814    17.785339791    39.956659587   0   0   0 # o*
   3080      1   2  0.410000    20.636841794    17.991505227    38.970714373   0   0   0 # h*
   3081      1   2  0.410000    19.657354911    17.810597254    40.119633721   0   0   0 # h*
   3082      1   1 -0.820000    18.866061402     9.202084752    44.909919625   0   0   0 # o*
   3083      1   2  0.410000    18.747517834     8.604469494    45.712367961   0   0   0 # h*
   3084      1   2  0.410000    19.291012077     8.692513283    44.178683826   0   0   0 # h*
   3085      1   1 -0.820000    10.458680854     5.841728115    25.273587630   0   0   0 # o*
   3086      1   2  0.410000    11.042638096     5.303882704    24.732042580   0   0   0 # h*
   3087      1   2  0.410000    10.651669370     5.521460656    26.181026262   0   0   0 # h*
   3088      1   1 -0.820000     6.217562206     5.359945968    37.251640055   0   0   0 # o*
   3089      1   2  0.410000     6.540840865     5.305016998    38.169533558   0   0   0 # h*
   3090      1   2  0.410000     6.947737703     5.859547591    36.803083047   0   0   0 # h*
   3091      1   1 -0.820000    16.465337715     7.503850768    59.740041385   0   0   0 # o*
   3092      1   2  0.410000    16.188560038     6.871078780    60.423857826   0   0   0 # h*
   3093      1   2  0.410000    16.259849119     6.994047082    58.874732884   0   0   0 # h*
   3094      1   1 -0.820000    20.581246823     0.026113831    42.922130438   0   1   0 # o*
   3095      1   2  0.410000    20.781333733    21.717278326    42.159779556   0   0   0 # h*
   3096      1   2  0.410000    21.314238654    -0.248687854    43.549345521   0   1   0 # h*
   3097      1   1 -0.820000    15.811860009     9.333721486    29.845912151   0   0   0 # o*
   3098      1   2  0.410000    16.407419081     8.932433977    29.164132182   0   0   0 # h*
   3099      1   2  0.410000    15.106852374     8.628465758    29.890165832   0   0   0 # h*
   3100      1   1 -0.820000    17.298299315    16.746192267    43.764269846   0   0   0 # o*
   3101      1   2  0.410000    17.556383698    17.630093547    43.478901696   0   0   0 # h*
   3102      1   2  0.410000    16.650897987    16.977775031    44.484764550   0   0   0 # h*
   3103      1   1 -0.820000    14.820490920     1.081524217    35.976532895   0   0   0 # o*
   3104      1   2  0.410000    15.457783998     0.344401747    36.153561339   0   0   0 # h*
   3105      1   2  0.410000    13.979261885     0.581413067    35.707790333   0   0   0 # h*
   3106      1   1 -0.820000     6.352663570    20.999536457    34.594902404   0   0   0 # o*
   3107      1   2  0.410000     5.635769096    21.061896596    33.905676799   0   0   0 # h*
   3108      1   2  0.410000     6.457548423    20.043690361    34.747093158   0   0   0 # h*
   3109      1   1 -0.820000    12.719406052     2.353002608    40.047718519   0   0   0 # o*
   3110      1   2  0.410000    12.174864911     2.599517328    39.303117200   0   0   0 # h*
   3111      1   2  0.410000    12.382008384     1.479978319    40.253297978   0   0   0 # h*
   3112      1   1 -0.820000     6.551842112    20.530434771    55.136835197   0   0   0 # o*
   3113      1   2  0.410000     5.733961250    21.079156614    55.052311632   0   0   0 # h*
   3114      1   2  0.410000     7.242468346    21.151067753    55.457008571   0   0   0 # h*
   3115      1   1 -0.820000    17.630103960    12.486476889    23.860475001   0   0   0 # o*
   3116      1   2  0.410000    17.524868848    13.211659746    24.517873344   0   0   0 # h*
   3117      1   2  0.410000    18.533053428    12.676571404    23.559990869   0   0   0 # h*
   3118      1   1 -0.820000     3.332847153    16.600078902    55.532840137   0   0   0 # o*
   3119      1   2  0.410000     4.192722764    17.009711463    55.708233131   0   0   0 # h*
   3120      1   2  0.410000     3.136029744    17.105712270    54.754327977   0   0   0 # h*
   3121      1   1 -0.820000    10.035096607     0.595721489    54.120478605   0   0   0 # o*
   3122      1   2  0.410000     9.273780584     1.228660757    53.980894216   0   0   0 # h*
   3123      1   2  0.410000     9.864028702     0.303850168    55.014089146   0   0   0 # h*
   3124      1   1 -0.820000    12.228874859     7.266273302    22.455458909   0   0   0 # o*
   3125      1   2  0.410000    13.137707487     7.410674326    22.775738529   0   0   0 # h*
   3126      1   2  0.410000    12.181446525     6.295384773    22.562025392   0   0   0 # h*
   3127      1   1 -0.820000    21.148352151     9.330563608    60.813551608   0   0   0 # o*
   3128      1   2  0.410000    20.414321986     9.917098644    60.505365161   0   0   0 # h*
   3129      1   2  0.410000    21.610333223     9.042467085    59.985505380   0   0   0 # h*
   3130      1   1 -0.820000    20.169744796    11.785415768    63.030686721   0   0   0 # o*
   3131      1   2  0.410000    19.409671528    12.447555929    63.039519455   0   0   0 # h*
   3132      1   2  0.410000    20.542168215    11.991322249    63.913659532   0   0   0 # h*
   3133      1   1 -0.820000     4.425261476     8.545107468    46.729434724   0   0   0 # o*
   3134      1   2  0.410000     3.560238147     8.350975303    46.288105862   0   0   0 # h*
   3135      1   2  0.410000     4.758069013     7.614674974    46.709202358   0   0   0 # h*
   3136      1   1 -0.820000    16.847177032    14.502981982    60.727542554   0   0   0 # o*
   3137      1   2  0.410000    16.240770058    14.700655462    61.429188224   0   0   0 # h*
   3138      1   2  0.410000    17.476433473    15.247522004    60.902409159   0   0   0 # h*
   3139      1   1 -0.820000    15.577965876    12.716044758    33.379881827   0   0   0 # o*
   3140      1   2  0.410000    16.090539562    11.971970747    33.017060813   0   0   0 # h*
   3141      1   2  0.410000    14.990954114    12.852819472    32.653686237   0   0   0 # h*
   3142      1   1 -0.820000    20.612536264    12.752678034    43.493107960   0   0   0 # o*
   3143      1   2  0.410000    21.108486007    12.174747986    44.162039968   0   0   0 # h*
   3144      1   2  0.410000    19.769201147    12.226965899    43.452989022   0   0   0 # h*
   3145      1   1 -0.820000     6.137081181    13.720626078    30.138802641   0   0   0 # o*
   3146      1   2  0.410000     7.003111955    13.504800138    29.785588248   0   0   0 # h*
   3147      1   2  0.410000     5.847236354    14.414767498    29.563950044   0   0   0 # h*
   3148      1   1 -0.820000     9.082291193    20.425091715    32.494657482   0   0   0 # o*
   3149      1   2  0.410000     8.373003549    20.498347387    31.821090706   0   0   0 # h*
   3150      1   2  0.410000     8.962024746    21.314614878    32.939736261   0   0   0 # h*
   3151      1   1 -0.820000    15.037875653     2.558968771    24.032811547   0   0   0 # o*
   3152      1   2  0.410000    15.755899655     3.002596055    23.574738882   0   0   0 # h*
   3153      1   2  0.410000    15.445092930     2.581071613    24.937794343   0   0   0 # h*
   3154      1   1 -0.820000     0.838426992     2.684464898    38.664323361   0   0   0 # o*
   3155      1   2  0.410000     1.037192334     3.621508604    38.431516509   0   0   0 # h*
   3156      1   2  0.410000    22.830111960     2.843604032    39.522555639  -1   0   0 # h*
   3157      1   1 -0.820000    18.153876955    14.293458385    30.812506515   0   0   0 # o*
   3158      1   2  0.410000    17.280100307    14.744847879    30.694711000   0   0   0 # h*
   3159      1   2  0.410000    18.095979917    13.643803669    30.047239523   0   0   0 # h*
   3160      1   1 -0.820000     1.989221168     0.285918230    42.216803501   0   0   0 # o*
   3161      1   2  0.410000     2.655706069     0.022462603    42.843207566   0   0   0 # h*
   3162      1   2  0.410000     2.360900397    -0.265061836    41.443714295   0   0   0 # h*
   3163      1   1 -0.820000    16.416464455     3.138643035    35.050755637   0   0   0 # o*
   3164      1   2  0.410000    16.923730126     2.489498470    34.540361558   0   0   0 # h*
   3165      1   2  0.410000    15.563346933     2.576324305    35.182884024   0   0   0 # h*
   3166      1   1 -0.820000    21.978798121    21.404435731    31.206295133   0   0   0 # o*
   3167      1   2  0.410000    21.444432810    -0.000002600    31.152825393   0   1   0 # h*
   3168      1   2  0.410000    22.095025725    21.222096678    30.274817506   0   0   0 # h*
   3169      1   1 -0.820000     5.165861898    20.596288050    56.463495542   0   0   0 # o*
   3170      1   2  0.410000     4.825742715    21.277224352    55.867379714   0   0   0 # h*
   3171      1   2  0.410000     6.052330069    20.423150997    56.047749185   0   0   0 # h*
   3172      1   1 -0.820000    18.387602619     4.752320085    51.000669976   0   0   0 # o*
   3173      1   2  0.410000    19.058254144     5.418779630    51.309152508   0   0   0 # h*
   3174      1   2  0.410000    17.672915609     4.995772423    51.622217486   0   0   0 # h*
   3175      1   1 -0.820000     3.180883497    19.385479319    33.487828758   0   0   0 # o*
   3176      1   2  0.410000     2.874520799    19.843648601    34.302845140   0   0   0 # h*
   3177      1   2  0.410000     3.469615198    18.510723870    33.842296283   0   0   0 # h*
   3178      1   1 -0.820000    17.910448696    11.203720256    39.726637601   0   0   0 # o*
   3179      1   2  0.410000    17.220385969    11.315027953    39.038864416   0   0   0 # h*
   3180      1   2  0.410000    17.457524858    10.461887937    40.213985897   0   0   0 # h*
   3181      1   1 -0.820000    21.998683520     0.692545726    62.458460752   0   0   0 # o*
   3182      1   2  0.410000    21.892491140     1.655658117    62.673088877   0   0   0 # h*
   3183      1   2  0.410000    22.385910904     0.854535205    61.599114656   0   0   0 # h*
   3184      1   1 -0.820000    22.326241173    12.623130224    58.657704504   0   0   0 # o*
   3185      1   2  0.410000    22.701375434    13.330686796    58.083199057   0   0   0 # h*
   3186      1   2  0.410000    21.782283075    11.977914384    58.138984170   0   0   0 # h*
   3187      1   1 -0.820000     8.923879865    10.898767574    63.585454733   0   0   0 # o*
   3188      1   2  0.410000     7.985183437    11.205717577    63.611401324   0   0   0 # h*
   3189      1   2  0.410000     8.750934684     9.931916648    63.780896552   0   0   0 # h*
   3190      1   1 -0.820000    12.822372958    13.229373460    38.894247353   0   0   0 # o*
   3191      1   2  0.410000    13.514798162    12.959624888    39.588957026   0   0   0 # h*
   3192      1   2  0.410000    12.146509682    12.587228398    39.201222758   0   0   0 # h*
   3193      1   1 -0.820000    22.059086078    10.554778527    52.526870889   0   0   0 # o*
   3194      1   2  0.410000    22.551637627    11.363942302    52.765331877   0   0   0 # h*
   3195      1   2  0.410000    22.840724985    10.122976777    52.087668478   0   0   0 # h*
   3196      1   1 -0.820000    13.749571990     6.908904124    39.060287329   0   0   0 # o*
   3197      1   2  0.410000    14.412191268     7.330285412    38.456393437   0   0   0 # h*
   3198      1   2  0.410000    13.137773186     7.654055919    39.294825087   0   0   0 # h*
   3199      1   1 -0.820000    17.866570301    13.632653215    41.129083112   0   0   0 # o*
   3200      1   2  0.410000    18.135149155    12.962625942    40.424415925   0   0   0 # h*
   3201      1   2  0.410000    17.083329778    13.192615191    41.439181896   0   0   0 # h*
   3202      1   1 -0.820000    11.664200488     4.958181565    38.433571989   0   0   0 # o*
   3203      1   2  0.410000    10.865071779     5.461533689    38.661510705   0   0   0 # h*
   3204      1   2  0.410000    12.364406158     5.639063415    38.638075948   0   0   0 # h*
   3205      1   1 -0.820000    15.818978460    15.555805912    30.498065636   0   0   0 # o*
   3206      1   2  0.410000    15.114500387    15.958751975    31.068013635   0   0   0 # h*
   3207      1   2  0.410000    15.234130122    14.984601145    29.889833259   0   0   0 # h*
   3208      1   1 -0.820000    21.385073831     6.405306768    40.521206574   0   0   0 # o*
   3209      1   2  0.410000    20.569056708     6.911333444    40.271550611   0   0   0 # h*
   3210      1   2  0.410000    20.983832705     5.566105182    40.829525311   0   0   0 # h*
   3211      1   1 -0.820000    17.679701480    19.346235000    26.846087551   0   0   0 # o*
   3212      1   2  0.410000    18.500269194    19.128593352    26.402241892   0   0   0 # h*
   3213      1   2  0.410000    17.785025390    20.313948168    26.818603809   0   0   0 # h*
   3214      1   1 -0.820000    16.777445346    13.807554096    50.656308076   0   0   0 # o*
   3215      1   2  0.410000    17.034496129    12.974066902    51.153865538   0   0   0 # h*
   3216      1   2  0.410000    16.157627381    13.508928202    49.965002395   0   0   0 # h*
   3217      1   1 -0.820000     9.481043375    19.797596756    56.616493402   0   0   0 # o*
   3218      1   2  0.410000    10.021398138    20.240957170    57.270217467   0   0   0 # h*
   3219      1   2  0.410000     9.358550622    20.613677732    56.051221114   0   0   0 # h*
   3220      1   1 -0.820000    11.730338794     3.866560020    26.283831128   0   0   0 # o*
   3221      1   2  0.410000    11.572240619     3.555468865    25.388453445   0   0   0 # h*
   3222      1   2  0.410000    12.687247699     3.664656718    26.380607138   0   0   0 # h*
   3223      1   1 -0.820000    14.585907939    12.017953433    23.309622804   0   0   0 # o*
   3224      1   2  0.410000    15.515703553    12.249462280    23.416372118   0   0   0 # h*
   3225      1   2  0.410000    14.303408592    12.651854725    22.608125724   0   0   0 # h*
   3226      1   1 -0.820000     2.726842920     7.365351139    57.638511817   0   0   0 # o*
   3227      1   2  0.410000     3.502867278     7.970973811    57.863933261   0   0   0 # h*
   3228      1   2  0.410000     2.122633853     8.119057618    57.413299116   0   0   0 # h*
   3229      1   1 -0.820000    11.866135000     0.383054739    34.763319240   0   0   0 # o*
   3230      1   2  0.410000    11.761597918     1.098510421    35.435368516   0   0   0 # h*
   3231      1   2  0.410000    11.271585489     0.688584983    34.031273948   0   0   0 # h*
   3232      1   1 -0.820000     7.637469572    10.980675754    32.731178157   0   0   0 # o*
   3233      1   2  0.410000     6.756850724    10.848643393    33.133835731   0   0   0 # h*
   3234      1   2  0.410000     7.367734004    11.199281725    31.779783570   0   0   0 # h*
   3235      1   1 -0.820000    19.384732339    20.235432128    29.496984610   0   0   0 # o*
   3236      1   2  0.410000    20.026423423    20.657082127    28.858522142   0   0   0 # h*
   3237      1   2  0.410000    18.901671764    21.017018804    29.781736578   0   0   0 # h*
   3238      1   1 -0.820000    11.919122885    -0.535900069    23.243995664   0   1   0 # o*
   3239      1   2  0.410000    12.766011269    -0.429905759    22.752861153   0   1   0 # h*
   3240      1   2  0.410000    12.241031774    21.647866982    24.166585934   0   0   0 # h*
   3241      1   1 -0.820000    15.430334402    14.372049701    37.041526452   0   0   0 # o*
   3242      1   2  0.410000    15.834181878    15.259203328    37.250961578   0   0   0 # h*
   3243      1   2  0.410000    15.837551928    14.222897194    36.149837796   0   0   0 # h*
   3244      1   1 -0.820000     7.955797682     5.114102402    27.819574081   0   0   0 # o*
   3245      1   2  0.410000     8.031979509     6.067854330    28.013353566   0   0   0 # h*
   3246      1   2  0.410000     8.702770001     4.830324412    28.368718824   0   0   0 # h*
   3247      1   1 -0.820000    10.367301488    11.800065257    67.403857952   0   0   0 # o*
   3248      1   2  0.410000    10.717156119    11.021590311    67.935602727   0   0   0 # h*
   3249      1   2  0.410000    11.139569149    12.440773502    67.509199330   0   0   0 # h*
   3250      1   1 -0.820000     0.914885027    18.761797590    41.045392035   0   0   0 # o*
   3251      1   2  0.410000     0.977107815    17.788509741    41.124917371   0   0   0 # h*
   3252      1   2  0.410000    22.663345449    18.890273322    41.651271012  -1   0   0 # h*
   3253      1   1 -0.820000     6.217620348     8.713593701    31.367409832   0   0   0 # o*
   3254      1   2  0.410000     6.321243693     9.666369839    31.068588062   0   0   0 # h*
   3255      1   2  0.410000     6.271876664     8.264308044    30.536337772   0   0   0 # h*
   3256      1   1 -0.820000     3.162180107     3.675838547    46.000981015   0   0   0 # o*
   3257      1   2  0.410000     2.427983538     3.263292159    46.523109763   0   0   0 # h*
   3258      1   2  0.410000     3.779137931     2.954199738    45.900081515   0   0   0 # h*
   3259      1   1 -0.820000    15.472039528    16.825357821    50.975058377   0   0   0 # o*
   3260      1   2  0.410000    16.187782223    16.814713152    51.600896235   0   0   0 # h*
   3261      1   2  0.410000    14.695774379    16.634193806    51.594479521   0   0   0 # h*
   3262      1   1 -0.820000    18.724459856    15.906015584    50.075203291   0   0   0 # o*
   3263      1   2  0.410000    18.048221102    15.276585906    49.702008510   0   0   0 # h*
   3264      1   2  0.410000    18.588515286    15.691135354    51.019094848   0   0   0 # h*
   3265      1   1 -0.820000     3.862748557     4.623795606    49.314294073   0   0   0 # o*
   3266      1   2  0.410000     3.818379333     3.931013721    50.055323888   0   0   0 # h*
   3267      1   2  0.410000     3.687416284     5.398200742    49.919347665   0   0   0 # h*
   3268      1   1 -0.820000     7.236355089     9.432944586    35.599519236   0   0   0 # o*
   3269      1   2  0.410000     7.245823520    10.408152559    35.672379248   0   0   0 # h*
   3270      1   2  0.410000     8.178455709     9.241057145    35.325468445   0   0   0 # h*
   3271      1   1 -0.820000    18.148113421    11.702777294    51.758248200   0   0   0 # o*
   3272      1   2  0.410000    18.560242402    11.712672214    50.859283876   0   0   0 # h*
   3273      1   2  0.410000    17.927250732    10.776608522    51.925737313   0   0   0 # h*
   3274      1   1 -0.820000     7.426249573     5.296337304    46.996577463   0   0   0 # o*
   3275      1   2  0.410000     6.500904616     5.435336912    47.281783135   0   0   0 # h*
   3276      1   2  0.410000     7.368153882     5.934581656    46.267214126   0   0   0 # h*
   3277      1   1 -0.820000     4.543186846    15.402852593    59.125534630   0   0   0 # o*
   3278      1   2  0.410000     3.670504700    15.023061998    58.825324154   0   0   0 # h*
   3279      1   2  0.410000     4.582705550    14.849797689    59.930153983   0   0   0 # h*
   3280      1   1 -0.820000     8.144687088     0.378557482    36.483216580   0   1   0 # o*
   3281      1   2  0.410000     8.000677556     0.269310642    35.453678106   0   1   0 # h*
   3282      1   2  0.410000     7.954284635    21.727907597    36.769987370   0   0   0 # h*
   3283      1   1 -0.820000     3.502267140     5.407718637    64.079248348   0   0   0 # o*
   3284      1   2  0.410000     2.910884091     5.049243827    64.792493253   0   0   0 # h*
   3285      1   2  0.410000     4.210074312     5.893101411    64.536965899   0   0   0 # h*
   3286      1   1 -0.820000    15.317143479    15.893965453    30.848628153   0   0   0 # o*
   3287      1   2  0.410000    15.547600754    15.054584943    31.301492823   0   0   0 # h*
   3288      1   2  0.410000    15.165149623    15.582359238    29.874216206   0   0   0 # h*
   3289      1   1 -0.820000    13.818364425    14.707925349    58.817509172   0   0   0 # o*
   3290      1   2  0.410000    14.148193119    13.844835880    59.044862185   0   0   0 # h*
   3291      1   2  0.410000    12.873496601    14.522761503    58.691250888   0   0   0 # h*
   3292      1   1 -0.820000    10.980954996     3.731295869    61.832665427   0   0   0 # o*
   3293      1   2  0.410000    11.364988154     2.942168018    61.460072492   0   0   0 # h*
   3294      1   2  0.410000    10.530291134     3.264651122    62.593094636   0   0   0 # h*
   3295      1   1 -0.820000    20.167708977    19.283347438    49.568982736   0   0   0 # o*
   3296      1   2  0.410000    20.816322872    19.875803941    49.099165358   0   0   0 # h*
   3297      1   2  0.410000    20.157327192    19.564791090    50.516925072   0   0   0 # h*
   3298      1   1 -0.820000    17.127900895    10.767092531    48.168865898   0   0   0 # o*
   3299      1   2  0.410000    16.460897133    11.211774464    48.775242765   0   0   0 # h*
   3300      1   2  0.410000    16.763212342    11.045763964    47.326601160   0   0   0 # h*
   3301      1   1 -0.820000     0.828827074    11.411162326    36.556484584   0   0   0 # o*
   3302      1   2  0.410000    22.570755775    11.954382518    36.340260060  -1   0   0 # h*
   3303      1   2  0.410000     0.991791929    11.024155122    35.676171376   0   0   0 # h*
   3304      1   1 -0.820000     7.498680758    10.337343411    29.543510634   0   0   0 # o*
   3305      1   2  0.410000     7.649714644    10.124540764    30.495283670   0   0   0 # h*
   3306      1   2  0.410000     6.954492064    11.123682786    29.707708158   0   0   0 # h*
   3307      1   1 -0.820000    10.977916252     4.666997489    32.196165076   0   0   0 # o*
   3308      1   2  0.410000    10.393999673     4.945111120    31.444511937   0   0   0 # h*
   3309      1   2  0.410000    11.648769603     5.362227509    32.291704816   0   0   0 # h*
   3310      1   1 -0.820000     8.916122874    -0.089266349    54.916501164   0   1   0 # o*
   3311      1   2  0.410000     8.844652922     0.025716163    53.927567208   0   1   0 # h*
   3312      1   2  0.410000     9.783840823     0.353922945    55.046211816   0   1   0 # h*
   3313      1   1 -0.820000     1.561492442     1.723513373    60.984935008   0   0   0 # o*
   3314      1   2  0.410000     1.961817790     0.845735187    60.720728774   0   0   0 # h*
   3315      1   2  0.410000     2.385072614     2.227434242    61.111651108   0   0   0 # h*
   3316      1   1 -0.820000     9.322442695    13.148540507    34.619789568   0   0   0 # o*
   3317      1   2  0.410000     9.058066374    12.596405807    33.846652509   0   0   0 # h*
   3318      1   2  0.410000     9.493346832    14.024428044    34.135736246   0   0   0 # h*
   3319      1   1 -0.820000     4.514712661    19.503576111    28.278292391   0   0   0 # o*
   3320      1   2  0.410000     4.685023287    20.348696181    27.814621153   0   0   0 # h*
   3321      1   2  0.410000     4.096735594    19.819775238    29.094511202   0   0   0 # h*
   3322      1   1 -0.820000    16.076842723     7.871266783    50.016477960   0   0   0 # o*
   3323      1   2  0.410000    15.921679480     7.052290463    49.442110998   0   0   0 # h*
   3324      1   2  0.410000    15.506599791     8.535633649    49.548229422   0   0   0 # h*
   3325      1   1 -0.820000     9.654721446     2.238457980    63.770000303   0   0   0 # o*
   3326      1   2  0.410000     8.796589328     1.746574118    63.604643811   0   0   0 # h*
   3327      1   2  0.410000    10.200976585     1.476557204    64.101882559   0   0   0 # h*
   3328      1   1 -0.820000     2.502788807    12.145942519    62.637685539   0   0   0 # o*
   3329      1   2  0.410000     1.908028372    12.050977988    63.420297880   0   0   0 # h*
   3330      1   2  0.410000     3.054951949    11.333788735    62.674321878   0   0   0 # h*
   3331      1   1 -0.820000    15.420211913    15.381309539    62.740620081   0   0   0 # o*
   3332      1   2  0.410000    15.865579354    15.985027651    63.389443643   0   0   0 # h*
   3333      1   2  0.410000    14.986073819    14.742599085    63.362752398   0   0   0 # h*
   3334      1   1 -0.820000    16.709868206     6.238688924    57.169307038   0   0   0 # o*
   3335      1   2  0.410000    17.075722401     5.783395609    56.371140992   0   0   0 # h*
   3336      1   2  0.410000    15.725147883     6.188944822    56.968673360   0   0   0 # h*
   3337      1   1 -0.820000    13.842074218    20.559420603    41.559267145   0   0   0 # o*
   3338      1   2  0.410000    13.423366727    20.474459738    40.677320970   0   0   0 # h*
   3339      1   2  0.410000    13.180866562    20.096431384    42.116333772   0   0   0 # h*
   3340      1   1 -0.820000     3.456724027     2.892643433    51.556092952   0   0   0 # o*
   3341      1   2  0.410000     3.346226898     2.433745147    52.448602517   0   0   0 # h*
   3342      1   2  0.410000     2.635373604     2.597375066    51.135777792   0   0   0 # h*
   3343      1   1 -0.820000     7.350747488     8.449611132    38.600358697   0   0   0 # o*
   3344      1   2  0.410000     7.405793322     8.361448126    37.626689009   0   0   0 # h*
   3345      1   2  0.410000     7.078685796     9.401580025    38.619831507   0   0   0 # h*
   3346      1   1 -0.820000     1.422252903     9.468707258    34.684050193   0   0   0 # o*
   3347      1   2  0.410000     0.963598782     8.768859652    35.179539063   0   0   0 # h*
   3348      1   2  0.410000     2.264776343     9.460566445    35.233263753   0   0   0 # h*
   3349      1   1 -0.820000    20.410923764    12.564798833    29.465975896   0   0   0 # o*
   3350      1   2  0.410000    19.929014497    11.700386226    29.461226292   0   0   0 # h*
   3351      1   2  0.410000    20.672754142    12.522741645    30.404047143   0   0   0 # h*
   3352      1   1 -0.820000     8.717836711     1.065319941    21.998162833   0   0   0 # o*
   3353      1   2  0.410000     8.372611419     1.848653491    21.450340417   0   0   0 # h*
   3354      1   2  0.410000     9.343901002     1.609820048    22.519316798   0   0   0 # h*
   3355      1   1 -0.820000     5.590910327     7.432555536    33.893109879   0   0   0 # o*
   3356      1   2  0.410000     6.131340553     8.029422073    34.424185344   0   0   0 # h*
   3357      1   2  0.410000     5.855160387     7.810059768    33.024806331   0   0   0 # h*
   3358      1   1 -0.820000    10.687075787     6.501259219    56.164900055   0   0   0 # o*
   3359      1   2  0.410000    11.190274070     6.120153710    56.915191307   0   0   0 # h*
   3360      1   2  0.410000    10.098286473     7.153843639    56.629385703   0   0   0 # h*
   3361      1   1 -0.820000     2.317337110     5.685931728    59.908963697   0   0   0 # o*
   3362      1   2  0.410000     2.608267987     6.381302660    59.228995640   0   0   0 # h*
   3363      1   2  0.410000     1.923004934     5.008602998    59.342442188   0   0   0 # h*
   3364      1   1 -0.820000    16.917682830     5.950856235    35.586595346   0   0   0 # o*
   3365      1   2  0.410000    16.816103866     4.993762496    35.366393333   0   0   0 # h*
   3366      1   2  0.410000    15.975178416     6.177730380    35.697635218   0   0   0 # h*
   3367      1   1 -0.820000     3.347177581     7.810006135    61.826130005   0   0   0 # o*
   3368      1   2  0.410000     2.889672197     7.019290032    61.454056322   0   0   0 # h*
   3369      1   2  0.410000     3.791462146     7.371503610    62.588685642   0   0   0 # h*
   3370      1   1 -0.820000     6.340017465    21.275458546    46.585975332   0   0   0 # o*
   3371      1   2  0.410000     6.173811949    -0.039031876    46.472229339   0   1   0 # h*
   3372      1   2  0.410000     5.958616161    20.874535820    45.762733762   0   0   0 # h*
   3373      1   1 -0.820000    12.691243464     3.123608085    45.034382783   0   0   0 # o*
   3374      1   2  0.410000    13.360161100     3.545845457    45.594779212   0   0   0 # h*
   3375      1   2  0.410000    12.575600567     2.295515815    45.575138045   0   0   0 # h*
   3376      1   1 -0.820000     2.548462933     8.635955298    53.981014939   0   0   0 # o*
   3377      1   2  0.410000     1.858837438     8.147567052    53.433907652   0   0   0 # h*
   3378      1   2  0.410000     3.186302849     7.935372807    54.127085057   0   0   0 # h*
   3379      1   1 -0.820000    18.610352336    16.998292145    47.108909184   0   0   0 # o*
   3380      1   2  0.410000    18.914743739    16.747827990    47.995244561   0   0   0 # h*
   3381      1   2  0.410000    18.866782874    17.985527987    46.989610119   0   0   0 # h*
   3382      1   1 -0.820000     4.242469815    -0.452122984    44.149290205   0   0   0 # o*
   3383      1   2  0.410000     4.717128414     0.201523474    44.698855234   0   0   0 # h*
   3384      1   2  0.410000     4.755779629    -0.436141323    43.295082937   0   0   0 # h*
   3385      1   1 -0.820000    12.788657606     7.039177537    32.418881131   0   0   0 # o*
   3386      1   2  0.410000    12.895789499     8.033344647    32.294200628   0   0   0 # h*
   3387      1   2  0.410000    13.334883584     6.877527977    33.196994775   0   0   0 # h*
   3388      1   1 -0.820000     2.962341786     1.634228464    33.831361357   0   0   0 # o*
   3389      1   2  0.410000     3.069240064     2.211870149    34.622388035   0   0   0 # h*
   3390      1   2  0.410000     3.952894063     1.500819534    33.715356781   0   0   0 # h*
   3391      1   1 -0.820000    22.116982250     8.079324314    47.067435164   0   0   0 # o*
   3392      1   2  0.410000    21.572811694     7.216942323    47.017971480   0   0   0 # h*
   3393      1   2  0.410000    21.495050426     8.585403137    47.617914459   0   0   0 # h*
   3394      1   1 -0.820000    15.325476136     8.298160732    37.386414510   0   0   0 # o*
   3395      1   2  0.410000    15.048354826     9.073261683    36.863231084   0   0   0 # h*
   3396      1   2  0.410000    16.296470297     8.480909604    37.412820514   0   0   0 # h*
   3397      1   1 -0.820000     4.495088834    10.633324701    54.946334604   0   0   0 # o*
   3398      1   2  0.410000     3.881382401    10.071761467    54.382602762   0   0   0 # h*
   3399      1   2  0.410000     3.987098374    10.623783127    55.793501902   0   0   0 # h*
   3400      1   1 -0.820000    17.950300916     3.045541482    37.476170416   0   0   0 # o*
   3401      1   2  0.410000    17.368777960     2.996367747    36.699878885   0   0   0 # h*
   3402      1   2  0.410000    18.146017353     2.114643432    37.534797843   0   0   0 # h*
   3403      1   1 -0.820000    16.193946603     9.692286620    65.122740133   0   0   0 # o*
   3404      1   2  0.410000    15.290534299     9.769696385    65.541720231   0   0   0 # h*
   3405      1   2  0.410000    15.900999112     9.717115441    64.179706581   0   0   0 # h*
   3406      1   1 -0.820000     6.902244457     1.002752761    25.737475738   0   0   0 # o*
   3407      1   2  0.410000     7.068653134     1.921707325    25.522010015   0   0   0 # h*
   3408      1   2  0.410000     7.098228648     1.008572347    26.711974457   0   0   0 # h*
   3409      1   1 -0.820000     9.442450170     3.165952937    46.439582387   0   0   0 # o*
   3410      1   2  0.410000     9.279288561     2.452898643    45.785682381   0   0   0 # h*
   3411      1   2  0.410000     8.588470937     3.698152279    46.314043034   0   0   0 # h*
   3412      1   1 -0.820000     5.694477533    13.443337381    38.601176691   0   0   0 # o*
   3413      1   2  0.410000     4.808250196    13.772193338    38.384972704   0   0   0 # h*
   3414      1   2  0.410000     6.280305870    14.171478782    38.241684760   0   0   0 # h*
   3415      1   1 -0.820000    15.853620276     3.126371639    57.238174362   0   0   0 # o*
   3416      1   2  0.410000    16.792142704     2.928874357    56.985940534   0   0   0 # h*
   3417      1   2  0.410000    15.464681982     3.382890167    56.386808728   0   0   0 # h*
   3418      1   1 -0.820000    17.054947339    11.962351654    62.398675184   0   0   0 # o*
   3419      1   2  0.410000    16.807232947    12.416807605    61.576253575   0   0   0 # h*
   3420      1   2  0.410000    16.255631186    12.157355142    62.895757630   0   0   0 # h*
   3421      1   1 -0.820000     8.893430972    10.303031324    27.294180824   0   0   0 # o*
   3422      1   2  0.410000     9.612326043    10.110051629    26.630489969   0   0   0 # h*
   3423      1   2  0.410000     8.529846464    11.174600117    26.914802847   0   0   0 # h*
   3424      1   1 -0.820000    17.220089911    13.396210055    44.966245137   0   0   0 # o*
   3425      1   2  0.410000    16.269417680    13.177140912    44.751495748   0   0   0 # h*
   3426      1   2  0.410000    17.130155557    13.954170067    45.799373858   0   0   0 # h*
   3427      1   1 -0.820000    19.139207743     7.358374240    55.323963876   0   0   0 # o*
   3428      1   2  0.410000    18.997930601     7.170738220    56.333390818   0   0   0 # h*
   3429      1   2  0.410000    18.866380039     8.307063172    55.362920024   0   0   0 # h*
   3430      1   1 -0.820000     7.280548230    20.347841533    30.479596695   0   0   0 # o*
   3431      1   2  0.410000     7.073739757    21.285262049    30.241586706   0   0   0 # h*
   3432      1   2  0.410000     6.704957753    19.895756013    29.823840642   0   0   0 # h*
   3433      1   1 -0.820000    13.470547918    20.006424715    53.675179498   0   0   0 # o*
   3434      1   2  0.410000    13.878758497    20.165110712    54.555182235   0   0   0 # h*
   3435      1   2  0.410000    14.111527185    19.416873433    53.186525782   0   0   0 # h*
   3436      1   1 -0.820000     8.585283696    13.432398162    53.453270391   0   0   0 # o*
   3437      1   2  0.410000     8.973956008    14.254209598    53.017068457   0   0   0 # h*
   3438      1   2  0.410000     8.035549072    13.929809032    54.122306754   0   0   0 # h*
   3439      1   1 -0.820000    13.476790897     5.260395348    28.490135468   0   0   0 # o*
   3440      1   2  0.410000    13.840773975     5.584129173    27.636399761   0   0   0 # h*
   3441      1   2  0.410000    12.546744705     5.369446029    28.396431992   0   0   0 # h*
   3442      1   1 -0.820000    10.138228497    10.322629596    35.492573384   0   0   0 # o*
   3443      1   2  0.410000     9.887017342    11.267138044    35.771107807   0   0   0 # h*
   3444      1   2  0.410000    10.752453290    10.511317351    34.735722856   0   0   0 # h*
   3445      1   1 -0.820000    22.305264871     5.444848891    36.416173498   0   0   0 # o*
   3446      1   2  0.410000    21.966587407     4.861292757    37.131267010   0   0   0 # h*
   3447      1   2  0.410000    21.935831208     4.943752745    35.643958584   0   0   0 # h*
   3448      1   1 -0.820000     6.071429545    21.481813510    49.124484212   0   0   0 # o*
   3449      1   2  0.410000     5.457975407    20.793892721    48.718554923   0   0   0 # h*
   3450      1   2  0.410000     6.868186568    21.440062834    48.554437596   0   0   0 # h*
   3451      1   1 -0.820000    21.643725988     1.455254157    40.303438417   0   0   0 # o*
   3452      1   2  0.410000    21.511911087     0.620045874    39.835045941   0   0   0 # h*
   3453      1   2  0.410000    22.482654903     1.256600522    40.738337478   0   0   0 # h*
   3454      1   1 -0.820000     7.197510794    18.806501550    27.861733801   0   0   0 # o*
   3455      1   2  0.410000     7.256787787    18.126896467    28.604266587   0   0   0 # h*
   3456      1   2  0.410000     6.223462150    18.734115626    27.741975735   0   0   0 # h*
   3457      1   1 -0.820000    17.890116913    11.886103570    44.489421585   0   0   0 # o*
   3458      1   2  0.410000    17.003796467    11.732864997    44.073280057   0   0   0 # h*
   3459      1   2  0.410000    18.296217266    11.049814499    44.633802830   0   0   0 # h*
   3460      1   1 -0.820000     8.261779451    19.739417699    36.993643822   0   0   0 # o*
   3461      1   2  0.410000     7.916601743    18.979366469    37.569934913   0   0   0 # h*
   3462      1   2  0.410000     8.945187291    19.268726301    36.437724157   0   0   0 # h*
   3463      1   1 -0.820000    14.614666931    14.004554172    62.970454987   0   0   0 # o*
   3464      1   2  0.410000    14.883948109    14.758480737    63.559692023   0   0   0 # h*
   3465      1   2  0.410000    14.705748027    13.177447407    63.521939781   0   0   0 # h*
   3466      1   1 -0.820000     1.119679586    19.236616064    31.586175517   0   0   0 # o*
   3467      1   2  0.410000     1.490015878    19.219884792    32.452784785   0   0   0 # h*
   3468      1   2  0.410000    22.870669677    18.687992517    31.710217008  -1   0   0 # h*
   3469      1   1 -0.820000     1.185417312     4.678020962    22.445751420   0   0   0 # o*
   3470      1   2  0.410000     0.450038492     5.293474090    22.776126138   0   0   0 # h*
   3471      1   2  0.410000     0.987924387     3.967581302    23.088358399   0   0   0 # h*
   3472      1   1 -0.820000    12.598832900    13.565365722    36.038871247   0   0   0 # o*
   3473      1   2  0.410000    13.055865643    13.488912735    36.925963561   0   0   0 # h*
   3474      1   2  0.410000    11.700166118    13.572403596    36.438203717   0   0   0 # h*
   3475      1   1 -0.820000    21.846361025     3.944539535    26.579182691   0   0   0 # o*
   3476      1   2  0.410000    21.132642855     3.998824028    25.934851515   0   0   0 # h*
   3477      1   2  0.410000    22.660722490     3.901338248    26.012276663   0   0   0 # h*
   3478      1   1 -0.820000    22.867986758     6.444058950    61.591507152  -1   0   0 # o*
   3479      1   2  0.410000    22.129523044     6.769396591    61.003455374  -1   0   0 # h*
   3480      1   2  0.410000     0.738903053     5.795357475    61.010304481   0   0   0 # h*
   3481      1   1 -0.820000     2.607252563    20.446798516    35.934848696   0   0   0 # o*
   3482      1   2  0.410000     2.507701042    19.805296249    36.674449042   0   0   0 # h*
   3483      1   2  0.410000     2.965272465    21.275078172    36.402990559   0   0   0 # h*
   3484      1   1 -0.820000     3.267633609    21.075274513    50.727090745   0   0   0 # o*
   3485      1   2  0.410000     3.742793464    20.610401367    51.443808326   0   0   0 # h*
   3486      1   2  0.410000     3.461597002    20.564011827    49.895034633   0   0   0 # h*
   3487      1   1 -0.820000     4.939884709    11.115244018    45.903158784   0   0   0 # o*
   3488      1   2  0.410000     5.655358930    11.468932663    46.475620659   0   0   0 # h*
   3489      1   2  0.410000     5.259543981    10.170543562    45.798039013   0   0   0 # h*
   3490      1   1 -0.820000     7.059728628    17.912033714    34.285851352   0   0   0 # o*
   3491      1   2  0.410000     6.653316464    17.702072834    35.125567178   0   0   0 # h*
   3492      1   2  0.410000     8.056749645    17.944497606    34.568133467   0   0   0 # h*
   3493      1   1 -0.820000    16.856092333     3.625078635    62.666877119   0   0   0 # o*
   3494      1   2  0.410000    16.040443998     3.219116584    63.002062594   0   0   0 # h*
   3495      1   2  0.410000    17.463769280     3.454227433    63.360188280   0   0   0 # h*
   3496      1   1 -0.820000     8.572801179    17.510831094    44.454948989   0   0   0 # o*
   3497      1   2  0.410000     8.582884363    17.913783492    45.342936287   0   0   0 # h*
   3498      1   2  0.410000     8.477345432    16.552053079    44.781078530   0   0   0 # h*
   3499      1   1 -0.820000     4.603077855    13.897457894    61.767423588   0   0   0 # o*
   3500      1   2  0.410000     3.760191908    13.507325083    62.166006685   0   0   0 # h*
   3501      1   2  0.410000     5.144813544    14.082634022    62.566580374   0   0   0 # h*
   3502      1   1 -0.820000    22.780947848    20.024932272    23.672299076   0   0   0 # o*
   3503      1   2  0.410000    22.156557544    20.437421682    23.027277000   0   0   0 # h*
   3504      1   2  0.410000    22.551486504    19.075537487    23.636804776   0   0   0 # h*
   3505      1   1 -0.820000     5.379069837     7.037347014    53.814316798   0   0   0 # o*
   3506      1   2  0.410000     5.424737754     7.933704033    53.334484016   0   0   0 # h*
   3507      1   2  0.410000     5.991899639     6.571447159    53.162722570   0   0   0 # h*
   3508      1   1 -0.820000     4.371335397     6.644316675    43.465505492   0   0   0 # o*
   3509      1   2  0.410000     4.273080633     7.498227985    42.977322144   0   0   0 # h*
   3510      1   2  0.410000     3.446836207     6.518714528    43.752782685   0   0   0 # h*
   3511      1   1 -0.820000    12.060271652    13.984998938    54.702614321   0   0   0 # o*
   3512      1   2  0.410000    12.625400015    14.510921594    55.292119769   0   0   0 # h*
   3513      1   2  0.410000    11.213716660    14.187624272    55.172276706   0   0   0 # h*
   3514      1   1 -0.820000    13.935132703    17.202053660    46.618417679   0   0   0 # o*
   3515      1   2  0.410000    14.107922745    16.403031885    46.061226028   0   0   0 # h*
   3516      1   2  0.410000    13.414118448    16.772107874    47.336484785   0   0   0 # h*
   3517      1   1 -0.820000     9.894047133     9.400344478    51.639335855   0   0   0 # o*
   3518      1   2  0.410000    10.279478713    10.133468225    52.092976493   0   0   0 # h*
   3519      1   2  0.410000     9.311803803     9.012945526    52.313324388   0   0   0 # h*
   3520      1   1 -0.820000     6.984717769     4.084745456    58.969565235   0   0   0 # o*
   3521      1   2  0.410000     6.679891824     3.285562470    58.509061695   0   0   0 # h*
   3522      1   2  0.410000     7.905848474     3.754021569    59.194371298   0   0   0 # h*
   3523      1   1 -0.820000    22.765311522    15.781683002    40.561061620   0   0   0 # o*
   3524      1   2  0.410000    22.458727764    15.024720387    39.984162614   0   0   0 # h*
   3525      1   2  0.410000    21.961807109    16.327968309    40.474594206   0   0   0 # h*
   3526      1   1 -0.820000    18.085575844     7.542755441    64.250231490   0   0   0 # o*
   3527      1   2  0.410000    17.354255823     7.654585454    64.861811740   0   0   0 # h*
   3528      1   2  0.410000    18.003166659     8.315267516    63.601671961   0   0   0 # h*
   3529      1   1 -0.820000    13.108694451     7.491722021    44.802690930   0   0   0 # o*
   3530      1   2  0.410000    12.342803921     6.962662068    45.083356789   0   0   0 # h*
   3531      1   2  0.410000    13.736800732     7.292664395    45.513931074   0   0   0 # h*
   3532      1   1 -0.820000     7.877379077     0.965750479    51.760036802   0   0   0 # o*
   3533      1   2  0.410000     7.279600019     1.725131556    51.785150561   0   0   0 # h*
   3534      1   2  0.410000     7.423530793     0.356170241    52.380905950   0   0   0 # h*
   3535      1   1 -0.820000    15.730991761     8.212907783    46.472696560   0   0   0 # o*
   3536      1   2  0.410000    16.324314326     7.491438806    46.191642490   0   0   0 # h*
   3537      1   2  0.410000    16.408795985     8.749535524    46.972503447   0   0   0 # h*
   3538      1   1 -0.820000    12.345365197     0.822600523    43.063764948   0   0   0 # o*
   3539      1   2  0.410000    11.948871335     0.207930520    43.764325747   0   0   0 # h*
   3540      1   2  0.410000    12.163807163     1.731825505    43.449279329   0   0   0 # h*
   3541      1   1 -0.820000     8.036867118     9.249946105    60.414699151   0   0   0 # o*
   3542      1   2  0.410000     8.074051534     8.375407540    60.938460753   0   0   0 # h*
   3543      1   2  0.410000     8.353307489     9.868727223    61.104183374   0   0   0 # h*
   3544      1   1 -0.820000    12.661676095    17.505728778    40.395156146   0   0   0 # o*
   3545      1   2  0.410000    12.932794443    17.612746255    41.345257754   0   0   0 # h*
   3546      1   2  0.410000    11.756307380    17.809649057    40.486730622   0   0   0 # h*
   3547      1   1 -0.820000     1.999007863    13.233387045    55.091135308   0   0   0 # o*
   3548      1   2  0.410000     1.674688697    12.698286017    54.327379410   0   0   0 # h*
   3549      1   2  0.410000     1.805486928    14.131263285    54.791149387   0   0   0 # h*
   3550      1   1 -0.820000     5.558884663    13.657526104    44.456664141   0   0   0 # o*
   3551      1   2  0.410000     5.334723911    12.756264906    44.753731231   0   0   0 # h*
   3552      1   2  0.410000     5.528982970    13.496157069    43.471583577   0   0   0 # h*
   3553      1   1 -0.820000    14.293298447    20.503389200    56.539226124   0   0   0 # o*
   3554      1   2  0.410000    14.816905677    20.034040230    57.266457475   0   0   0 # h*
   3555      1   2  0.410000    13.474527923    19.901295075    56.625542088   0   0   0 # h*
   3556      1   1 -0.820000     3.078105511     5.946962590    33.086432188   0   0   0 # o*
   3557      1   2  0.410000     3.964320370     6.264145964    33.287961926   0   0   0 # h*
   3558      1   2  0.410000     2.712474291     6.731544533    32.676919996   0   0   0 # h*
   3559      1   1 -0.820000    16.749545360     5.397794598    48.634816547   0   0   0 # o*
   3560      1   2  0.410000    16.049867891     4.780393533    48.308414690   0   0   0 # h*
   3561      1   2  0.410000    17.140865523     4.947057573    49.436467922   0   0   0 # h*
   3562      1   1 -0.820000    12.051145838     9.203697516    61.998010666   0   0   0 # o*
   3563      1   2  0.410000    12.202880962     8.235703635    61.909509361   0   0   0 # h*
   3564      1   2  0.410000    11.485324800     9.122144670    62.792683595   0   0   0 # h*
   3565      1   1 -0.820000     9.042508272     5.791800110    54.080128210   0   0   0 # o*
   3566      1   2  0.410000     8.171180930     5.728712424    54.510539019   0   0   0 # h*
   3567      1   2  0.410000     9.606389954     6.146281557    54.822552431   0   0   0 # h*
   3568      1   1 -0.820000     4.447023580    10.573712229    28.016485197   0   0   0 # o*
   3569      1   2  0.410000     4.912222196     9.747514962    28.123116342   0   0   0 # h*
   3570      1   2  0.410000     3.504862440    10.289520289    27.967332030   0   0   0 # h*
   3571      1   1 -0.820000    19.788889817    11.402355356    37.789772588   0   0   0 # o*
   3572      1   2  0.410000    19.336078058    11.432261608    38.655132392   0   0   0 # h*
   3573      1   2  0.410000    19.777909071    12.381054529    37.598732544   0   0   0 # h*
   3574      1   1 -0.820000    13.964718504     5.860026973    51.971594398   0   0   0 # o*
   3575      1   2  0.410000    12.984328303     5.673069663    51.988994909   0   0   0 # h*
   3576      1   2  0.410000    14.021576786     6.261957376    51.058791629   0   0   0 # h*
   3577      1   1 -0.820000     6.424939879    10.428068006    24.955532509   0   0   0 # o*
   3578      1   2  0.410000     6.677777030    11.176738273    25.584584433   0   0   0 # h*
   3579      1   2  0.410000     7.200517891    10.433930643    24.371515063   0   0   0 # h*
   3580      1   1 -0.820000    11.188410212     5.766566390    46.863154711   0   0   0 # o*
   3581      1   2  0.410000    10.510327241     6.095373578    47.528103411   0   0   0 # h*
   3582      1   2  0.410000    11.188868777     4.827550368    46.955935473   0   0   0 # h*
   3583      1   1 -0.820000     9.789381740    14.182641882    56.576690388   0   0   0 # o*
   3584      1   2  0.410000    10.147157232    14.503532951    57.459280780   0   0   0 # h*
   3585      1   2  0.410000     9.055770292    14.813022135    56.407223918   0   0   0 # h*
   3586      1   1 -0.820000    15.693212458    -0.275095178    39.916446930   0   1   0 # o*
   3587      1   2  0.410000    15.026967605    21.617141288    40.539889556   0   0   0 # h*
   3588      1   2  0.410000    16.387093298    -0.034640489    40.535643676   0   1   0 # h*
   3589      1   1 -0.820000     9.096826860     7.817296717    51.544237272   0   0   0 # o*
   3590      1   2  0.410000     8.880385400     8.771528103    51.365483408   0   0   0 # h*
   3591      1   2  0.410000     9.483569109     7.979098254    52.426702150   0   0   0 # h*
   3592      1   1 -0.820000    11.266397459     8.236466419    64.807786884   0   0   0 # o*
   3593      1   2  0.410000    10.335957658     8.380852566    64.948855716   0   0   0 # h*
   3594      1   2  0.410000    11.490171415     7.887817720    65.718709854   0   0   0 # h*
   3595      1   1 -0.820000    18.250353580     3.979686281    65.510065362   0   0   0 # o*
   3596      1   2  0.410000    17.680128640     4.679307538    65.856127823   0   0   0 # h*
   3597      1   2  0.410000    19.144000060     4.407442218    65.430936086   0   0   0 # h*
   3598      1   1 -0.820000    18.990360506     5.691947796    27.764367166   0   0   0 # o*
   3599      1   2  0.410000    19.152504129     4.919320395    27.193504295   0   0   0 # h*
   3600      1   2  0.410000    19.512129564     5.451736322    28.589338867   0   0   0 # h*
   3601      1   1 -0.820000    18.546176399     2.109074840    23.032132002   0   0   0 # o*
   3602      1   2  0.410000    18.085660046     1.658531574    22.306367100   0   0   0 # h*
   3603      1   2  0.410000    18.345036564     1.403888103    23.686849352   0   0   0 # h*
   3604      1   1 -0.820000    21.968155487     9.392643213    55.119502003   0   0   0 # o*
   3605      1   2  0.410000    22.580240107    10.187983707    55.156627202   0   0   0 # h*
   3606      1   2  0.410000    21.547770713     9.630054005    54.218825003   0   0   0 # h*
   3607      1   1 -0.820000    17.994168764     3.536981954    45.962815381   0   0   0 # o*
   3608      1   2  0.410000    18.654335439     3.590255687    46.723695621   0   0   0 # h*
   3609      1   2  0.410000    17.469523874     2.783024884    46.287981427   0   0   0 # h*
   3610      1   1 -0.820000    14.803584628     8.279762983    23.183494554   0   0   0 # o*
   3611      1   2  0.410000    15.577373471     8.976399905    23.229570112   0   0   0 # h*
   3612      1   2  0.410000    14.600882440     8.315382272    24.137442466   0   0   0 # h*
   3613      1   1 -0.820000     1.860866940    17.547261473    52.738813073   0   0   0 # o*
   3614      1   2  0.410000     2.752708853    17.763513932    52.467764147   0   0   0 # h*
   3615      1   2  0.410000     1.400907337    18.320872880    52.370800556   0   0   0 # h*
   3616      1   1 -0.820000    14.800110323    14.977483817    44.843145674   0   0   0 # o*
   3617      1   2  0.410000    14.854856767    14.666853200    43.866751863   0   0   0 # h*
   3618      1   2  0.410000    15.748851068    15.194233153    45.011801876   0   0   0 # h*
   3619      1   1 -0.820000    18.418330129     9.764710422    29.690765679   0   0   0 # o*
   3620      1   2  0.410000    18.902471515     8.912294464    29.900864060   0   0   0 # h*
   3621      1   2  0.410000    19.189720117    10.305089947    29.536742911   0   0   0 # h*
   3622      1   1 -0.820000     3.287780677    14.607478839    65.076224536   0   0   0 # o*
   3623      1   2  0.410000     2.768211564    13.993040623    65.656071235   0   0   0 # h*
   3624      1   2  0.410000     3.977279634    14.847577620    65.764755420   0   0   0 # h*
   3625      1   1 -0.820000    11.289384296     8.294831798    26.415177800   0   0   0 # o*
   3626      1   2  0.410000    10.873299729     8.299334275    27.252602207   0   0   0 # h*
   3627      1   2  0.410000    10.725027996     7.552657337    25.996444133   0   0   0 # h*
   3628      1   1 -0.820000     2.124004704     5.348814288    63.754810596   0   0   0 # o*
   3629      1   2  0.410000     2.323371007     5.977736115    64.480497227   0   0   0 # h*
   3630      1   2  0.410000     1.272063084     5.686507790    63.441426076   0   0   0 # h*
   3631      1   1 -0.820000    19.770665009    14.997071928    27.783187891   0   0   0 # o*
   3632      1   2  0.410000    19.400471233    15.691232763    28.319632626   0   0   0 # h*
   3633      1   2  0.410000    19.895376281    14.229414788    28.387926185   0   0   0 # h*
   3634      1   1 -0.820000     0.968293784     0.744170112    26.300474643   0   0   0 # o*
   3635      1   2  0.410000     0.602305246    -0.154859028    26.475900781   0   0   0 # h*
   3636      1   2  0.410000     1.895752818     0.491133110    25.994749423   0   0   0 # h*
   3637      1   1 -0.820000    13.527616787    17.015930191    53.195057561   0   0   0 # o*
   3638      1   2  0.410000    14.154160961    16.886705712    53.973677932   0   0   0 # h*
   3639      1   2  0.410000    12.748626115    17.256782836    53.715088004   0   0   0 # h*
   3640      1   1 -0.820000     1.837201989     5.887264530    44.206012538   0   0   0 # o*
   3641      1   2  0.410000     1.610474663     5.661225404    43.263163848   0   0   0 # h*
   3642      1   2  0.410000     1.999818344     5.016255916    44.593917487   0   0   0 # h*
   3643      1   1 -0.820000     6.251993119     3.252976446    52.079825732   0   0   0 # o*
   3644      1   2  0.410000     5.272984491     3.206146464    52.030239038   0   0   0 # h*
   3645      1   2  0.410000     6.387647653     4.144622483    51.719765880   0   0   0 # h*
   3646      1   1 -0.820000     6.387704201    14.021787363    64.020093272   0   0   0 # o*
   3647      1   2  0.410000     6.216878703    14.259820451    64.982611351   0   0   0 # h*
   3648      1   2  0.410000     6.605569042    13.059000576    64.132328419   0   0   0 # h*
   3649      1   1 -0.820000     1.345726883     9.397719399    62.889874681   0   0   0 # o*
   3650      1   2  0.410000     1.829812439     8.880835963    62.243993556   0   0   0 # h*
   3651      1   2  0.410000     1.672371393     9.064494430    63.759774179   0   0   0 # h*
   3652      1   1 -0.820000    16.100566404    17.524677077    34.032599783   0   0   0 # o*
   3653      1   2  0.410000    15.572991016    18.059331255    34.639022142   0   0   0 # h*
   3654      1   2  0.410000    15.616472529    16.651619500    34.100957689   0   0   0 # h*
   3655      1   1 -0.820000     4.671421537    -0.213919992    32.587214210   0   1   0 # o*
   3656      1   2  0.410000     5.209515827     0.338319140    32.002497718   0   1   0 # h*
   3657      1   2  0.410000     3.861978374     0.352908411    32.583043746   0   1   0 # h*
   3658      1   1 -0.820000    22.012343018    18.717666670    56.842666359   0   0   0 # o*
   3659      1   2  0.410000    22.702828831    19.426058732    56.995506043   0   0   0 # h*
   3660      1   2  0.410000    22.532506031    18.246384637    56.179996637   0   0   0 # h*
   3661      1   1 -0.820000    14.480587874     7.078670279    63.992109439   0   0   0 # o*
   3662      1   2  0.410000    15.022062202     6.682056165    63.305370237   0   0   0 # h*
   3663      1   2  0.410000    14.256867203     7.933122870    63.592901731   0   0   0 # h*
   3664      1   1 -0.820000     9.388257644    19.919764525    30.096438325   0   0   0 # o*
   3665      1   2  0.410000     9.188188359    20.786278815    29.714882505   0   0   0 # h*
   3666      1   2  0.410000     8.585004712    19.439898001    29.906910134   0   0   0 # h*
   3667      1   1 -0.820000     8.863970069    13.035290721    29.280325247   0   0   0 # o*
   3668      1   2  0.410000     9.414431543    12.732243859    28.537840608   0   0   0 # h*
   3669      1   2  0.410000     8.510061915    13.872058481    28.936923368   0   0   0 # h*
   3670      1   1 -0.820000     9.958057939     9.463770995    48.137565916   0   0   0 # o*
   3671      1   2  0.410000    10.803547443    10.020566615    48.127322834   0   0   0 # h*
   3672      1   2  0.410000     9.426750819    10.011606762    48.774694116   0   0   0 # h*
   3673      1   1 -0.820000     8.960591491    18.406000588    39.393721665   0   0   0 # o*
   3674      1   2  0.410000     9.622677592    17.778050189    39.014477841   0   0   0 # h*
   3675      1   2  0.410000     9.070733027    18.204203625    40.347350957   0   0   0 # h*
   3676      1   1 -0.820000     8.719156313     8.495013352    57.358049452   0   0   0 # o*
   3677      1   2  0.410000     8.596343273     9.029552730    58.185282192   0   0   0 # h*
   3678      1   2  0.410000     7.797864879     8.539248826    56.975357370   0   0   0 # h*
   3679      1   1 -0.820000     2.434772645    12.553395892    42.757229103   0   0   0 # o*
   3680      1   2  0.410000     2.093479650    12.749040260    43.656799732   0   0   0 # h*
   3681      1   2  0.410000     2.282573642    13.397123564    42.269638792   0   0   0 # h*
   3682      1   1 -0.820000     8.861487861    16.050589864    64.862858977   0   0   0 # o*
   3683      1   2  0.410000     7.923442037    16.284058296    64.730160442   0   0   0 # h*
   3684      1   2  0.410000     9.374123519    16.869902307    64.985728768   0   0   0 # h*
   3685      1   1 -0.820000    10.746682485    13.444877178    27.164987068   0   0   0 # o*
   3686      1   2  0.410000    11.178000580    12.948805811    26.487724582   0   0   0 # h*
   3687      1   2  0.410000    10.134641482    14.020604763    26.673324911   0   0   0 # h*
   3688      1   1 -0.820000    11.994901894    10.089070870    23.294066704   0   0   0 # o*
   3689      1   2  0.410000    12.675705186    10.519041872    22.719700632   0   0   0 # h*
   3690      1   2  0.410000    12.263447701     9.133562760    23.125119651   0   0   0 # h*
   3691      1   1 -0.820000    21.278805585    14.484277995    34.237668501   0   0   0 # o*
   3692      1   2  0.410000    20.869193483    14.835405512    33.425683040   0   0   0 # h*
   3693      1   2  0.410000    21.445529482    15.293912135    34.765285848   0   0   0 # h*
   3694      1   1 -0.820000    13.898662192     3.357946595    31.817930995   0   0   0 # o*
   3695      1   2  0.410000    13.724405280     3.462628275    32.794706844   0   0   0 # h*
   3696      1   2  0.410000    14.877137001     3.610319809    31.729340756   0   0   0 # h*
   3697      1   1 -0.820000    20.033415847     3.659986286    40.827633439   0   0   0 # o*
   3698      1   2  0.410000    19.021846240     3.391302588    40.829599262   0   0   0 # h*
   3699      1   2  0.410000    20.442718641     2.746147209    40.769562005   0   0   0 # h*
   3700      1   1 -0.820000    17.405898997    18.608476627    56.496962438   0   0   0 # o*
   3701      1   2  0.410000    18.190659132    18.033319213    56.667533331   0   0   0 # h*
   3702      1   2  0.410000    17.824790049    19.445612055    56.863887038   0   0   0 # h*
   3703      1   1 -0.820000     5.249796670    13.881902179    31.775213737   0   0   0 # o*
   3704      1   2  0.410000     4.997996399    13.481944917    32.634856623   0   0   0 # h*
   3705      1   2  0.410000     5.899492058    14.575863749    32.061813442   0   0   0 # h*
   3706      1   1 -0.820000    21.401307698    17.050652730    49.626931786   0   0   0 # o*
   3707      1   2  0.410000    20.962994827    17.903553303    49.474452167   0   0   0 # h*
   3708      1   2  0.410000    20.617399345    16.460726071    49.791936678   0   0   0 # h*
   3709      1   1 -0.820000    17.673346772    14.408613178    25.963807679   0   0   0 # o*
   3710      1   2  0.410000    17.453504890    15.260673253    25.537730463   0   0   0 # h*
   3711      1   2  0.410000    18.285844475    14.735347620    26.618835294   0   0   0 # h*
   3712      1   1 -0.820000    11.211729641    11.712667126    26.237114301   0   0   0 # o*
   3713      1   2  0.410000    10.546038411    10.985572673    26.554817810   0   0   0 # h*
   3714      1   2  0.410000    10.600023965    12.271680588    25.772380283   0   0   0 # h*
   3715      1   1 -0.820000    13.103093254     0.603357060    46.528669233   0   0   0 # o*
   3716      1   2  0.410000    13.597301242     0.481811585    45.678432826   0   0   0 # h*
   3717      1   2  0.410000    12.637714038    -0.231495928    46.645634293   0   0   0 # h*
   3718      1   1 -0.820000    19.068823849    11.962219850    34.028577936   0   0   0 # o*
   3719      1   2  0.410000    19.233075291    11.013168331    34.143931399   0   0   0 # h*
   3720      1   2  0.410000    19.799722582    12.131834601    33.445339650   0   0   0 # h*
   3721      1   1 -0.820000    16.924771156    16.592173820    37.420648000   0   0   0 # o*
   3722      1   2  0.410000    17.216631591    17.145656338    38.146440257   0   0   0 # h*
   3723      1   2  0.410000    16.885839419    17.316308601    36.746135531   0   0   0 # h*
   3724      1   1 -0.820000    21.440717042     2.181163035    50.172396229   0   0   0 # o*
   3725      1   2  0.410000    21.705088401     2.532147845    51.015863211   0   0   0 # h*
   3726      1   2  0.410000    21.730204522     1.220716722    50.189931886   0   0   0 # h*
   3727      1   1 -0.820000    14.283445220     4.302858816    47.356702778   0   0   0 # o*
   3728      1   2  0.410000    14.011928170     3.514181804    47.880415816   0   0   0 # h*
   3729      1   2  0.410000    13.924224219     5.021197941    47.933770195   0   0   0 # h*
   3730      1   1 -0.820000    20.778995071     3.980647840    57.023886255   0   0   0 # o*
   3731      1   2  0.410000    20.278356243     3.192448899    56.751567315   0   0   0 # h*
   3732      1   2  0.410000    21.567958820     3.575155195    57.392695715   0   0   0 # h*
   3733      1   1 -0.820000    19.762132682     3.509359217    48.245452484   0   0   0 # o*
   3734      1   2  0.410000    20.414380599     2.885861316    48.645827790   0   0   0 # h*
   3735      1   2  0.410000    19.523979734     3.991184704    49.047589722   0   0   0 # h*
   3736      1   1 -0.820000     4.017804969    19.743981369    48.210189206   0   0   0 # o*
   3737      1   2  0.410000     3.362144805    19.545922312    47.483899896   0   0   0 # h*
   3738      1   2  0.410000     4.339324175    18.843716502    48.404454599   0   0   0 # h*
   3739      1   1 -0.820000     8.623533793    19.441265846    53.064386589   0   0   0 # o*
   3740      1   2  0.410000     8.035770207    18.688920360    52.755744282   0   0   0 # h*
   3741      1   2  0.410000     8.146902068    19.808184923    53.793787582   0   0   0 # h*
   3742      1   1 -0.820000    11.366455893    14.953611971    46.229203766   0   0   0 # o*
   3743      1   2  0.410000    11.809269902    14.093641273    46.414427772   0   0   0 # h*
   3744      1   2  0.410000    11.420171626    14.861857675    45.247245913   0   0   0 # h*
   3745      1   1 -0.820000    16.511213524     1.391010689    46.929234399   0   0   0 # o*
   3746      1   2  0.410000    15.650938985     0.986636739    46.659588336   0   0   0 # h*
   3747      1   2  0.410000    17.074372165     1.010163176    46.302499162   0   0   0 # h*
   3748      1   1 -0.820000    13.324273254    17.249546335    67.708842211   0   0   0 # o*
   3749      1   2  0.410000    13.658682274    17.872302771    67.009486756   0   0   0 # h*
   3750      1   2  0.410000    13.531901126    16.402404960    67.287776059   0   0   0 # h*
   3751      1   1 -0.820000     6.053444280    -0.372507380    38.736148656   0   1   0 # o*
   3752      1   2  0.410000     6.581174781     0.334376727    38.350685277   0   1   0 # h*
   3753      1   2  0.410000     6.488368138    -0.464967100    39.620597516   0   1   0 # h*
   3754      1   1 -0.820000     2.693404193    13.855998596    47.801658514   0   0   0 # o*
   3755      1   2  0.410000     2.585584971    12.971528093    47.409564651   0   0   0 # h*
   3756      1   2  0.410000     1.744724132    14.038008830    47.974814180   0   0   0 # h*
   3757      1   1 -0.820000    18.410260106    19.348280707    65.730870782   0   0   0 # o*
   3758      1   2  0.410000    18.811574725    18.481189505    65.905767328   0   0   0 # h*
   3759      1   2  0.410000    18.805374725    19.548166099    64.898100242   0   0   0 # h*
   3760      1   1 -0.820000     3.855892253     6.081353122    22.518621620   0   0   0 # o*
   3761      1   2  0.410000     2.961440474     5.965013125    22.150439499   0   0   0 # h*
   3762      1   2  0.410000     4.044006237     7.057841244    22.250453360   0   0   0 # h*
   3763      1   1 -0.820000     0.509290800    13.568212146    45.385106693   0   0   0 # o*
   3764      1   2  0.410000    22.727463756    13.493211161    46.327895656  -1   0   0 # h*
   3765      1   2  0.410000    22.936232874    12.610118807    45.162750237  -1   0   0 # h*
   3766      1   1 -0.820000    20.186466975    15.666289533    42.443534145   0   0   0 # o*
   3767      1   2  0.410000    20.375998228    14.870654656    42.995751059   0   0   0 # h*
   3768      1   2  0.410000    19.700827188    15.177571779    41.683987075   0   0   0 # h*
   3769      1   1 -0.820000    22.973304710     0.413273537    33.174500230  -1   0   0 # o*
   3770      1   2  0.410000     1.411940688     0.686693609    33.181224716   0   0   0 # h*
   3771      1   2  0.410000    22.863260933     0.482717305    32.148630126  -1   0   0 # h*
   3772      1   1 -0.820000    13.386141827    12.965864324    46.372595607   0   0   0 # o*
   3773      1   2  0.410000    13.910702124    13.727868205    45.940873563   0   0   0 # h*
   3774      1   2  0.410000    14.032998183    12.223134215    46.222225788   0   0   0 # h*
   3775      1   1 -0.820000     7.995478125     3.997732517    42.141822455   0   0   0 # o*
   3776      1   2  0.410000     7.450831381     3.920335686    42.978111862   0   0   0 # h*
   3777      1   2  0.410000     8.239486520     3.045519278    42.086517861   0   0   0 # h*
   3778      1   1 -0.820000     4.748716385     1.788551821    54.493223278   0   0   0 # o*
   3779      1   2  0.410000     5.296931361     1.955656628    55.291006165   0   0   0 # h*
   3780      1   2  0.410000     4.326735066     2.677806088    54.350245615   0   0   0 # h*
   3781      1   1 -0.820000    13.243091096     2.168982161    48.709764917   0   0   0 # o*
   3782      1   2  0.410000    13.153969917     1.565591061    47.909891854   0   0   0 # h*
   3783      1   2  0.410000    12.354156960     1.995962990    49.180136405   0   0   0 # h*
   3784      1   1 -0.820000    12.375164665    11.040376855    28.675281394   0   0   0 # o*
   3785      1   2  0.410000    13.093912353    11.640127521    29.017091698   0   0   0 # h*
   3786      1   2  0.410000    12.130490850    11.502449979    27.875757312   0   0   0 # h*
   3787      1   1 -0.820000     4.556529066     1.979091445    39.938363588   0   0   0 # o*
   3788      1   2  0.410000     4.362783973     2.864648910    40.306770577   0   0   0 # h*
   3789      1   2  0.410000     4.411073024     2.186345788    38.950268628   0   0   0 # h*
   3790      1   1 -0.820000     6.921576818     4.946510642    33.750146509   0   0   0 # o*
   3791      1   2  0.410000     7.750477335     5.374779011    33.505282160   0   0   0 # h*
   3792      1   2  0.410000     6.380198103     5.744374561    33.857162346   0   0   0 # h*
   3793      1   1 -0.820000    22.745025182     6.489075358    30.320077912  -1   0   0 # o*
   3794      1   2  0.410000     0.798803495     5.720810745    30.155592976   0   0   0 # h*
   3795      1   2  0.410000     0.682422833     7.134821072    29.749728939   0   0   0 # h*
   3796      1   1 -0.820000     5.737938148    16.485627164    43.386469477   0   0   0 # o*
   3797      1   2  0.410000     6.189513599    15.659789110    43.763103004   0   0   0 # h*
   3798      1   2  0.410000     5.497337707    16.856383541    44.293333097   0   0   0 # h*
   3799      1   1 -0.820000    12.238429826    18.364079732    59.488137874   0   0   0 # o*
   3800      1   2  0.410000    12.142182055    19.323936741    59.795316039   0   0   0 # h*
   3801      1   2  0.410000    12.292621624    18.502026527    58.494194988   0   0   0 # h*
   3802      1   1 -0.820000    22.586138130     9.622757844    38.809847457   0   0   0 # o*
   3803      1   2  0.410000    22.043149956     9.317838174    38.081669119   0   0   0 # h*
   3804      1   2  0.410000    21.903615688     9.655262609    39.585683321   0   0   0 # h*
   3805      1   1 -0.820000     5.086746651     0.089771891    60.924834400   0   1   0 # o*
   3806      1   2  0.410000     6.074292823     0.122687875    60.910784642   0   1   0 # h*
   3807      1   2  0.410000     4.920178265    21.432230963    61.276640535   0   0   0 # h*
   3808      1   1 -0.820000     4.711649531     8.699792699    50.596421987   0   0   0 # o*
   3809      1   2  0.410000     4.937906711     8.148937903    51.388121119   0   0   0 # h*
   3810      1   2  0.410000     4.301486371     7.972204906    50.088821258   0   0   0 # h*
   3811      1   1 -0.820000    13.513267462     6.441274442    35.925271833   0   0   0 # o*
   3812      1   2  0.410000    12.627195315     6.659636211    36.268211573   0   0   0 # h*
   3813      1   2  0.410000    13.902727401     7.271490089    36.218833244   0   0   0 # h*
   3814      1   1 -0.820000    16.543700509     9.177906773    40.859426968   0   0   0 # o*
   3815      1   2  0.410000    16.419329621     8.419909622    41.464842608   0   0   0 # h*
   3816      1   2  0.410000    15.586065885     9.436008075    40.832815737   0   0   0 # h*
   3817      1   1 -0.820000    16.795139862     7.000855195    66.763840202   0   0   0 # o*
   3818      1   2  0.410000    16.078883303     7.525353890    66.292781311   0   0   0 # h*
   3819      1   2  0.410000    16.730251840     7.396576627    67.656776066   0   0   0 # h*
   3820      1   1 -0.820000    11.798448235     8.817096234    39.822057571   0   0   0 # o*
   3821      1   2  0.410000    11.067544125     9.461176974    39.602160010   0   0   0 # h*
   3822      1   2  0.410000    11.453146710     8.410503700    40.689772610   0   0   0 # h*
   3823      1   1 -0.820000     7.137831944    19.106424368    58.288057393   0   0   0 # o*
   3824      1   2  0.410000     6.864795982    20.042484873    58.247158357   0   0   0 # h*
   3825      1   2  0.410000     8.011840931    19.224153340    57.785038490   0   0   0 # h*
   3826      1   1 -0.820000    17.035113488    12.910468281    28.487895441   0   0   0 # o*
   3827      1   2  0.410000    16.807164153    12.051138652    28.074757194   0   0   0 # h*
   3828      1   2  0.410000    16.906918188    13.585643455    27.755956563   0   0   0 # h*
   3829      1   1 -0.820000    22.196054418     1.542452471    55.994676288   0   0   0 # o*
   3830      1   2  0.410000    21.475707196     0.834160830    55.877908427   0   0   0 # h*
   3831      1   2  0.410000    22.600405140     1.178870948    56.792004413   0   0   0 # h*
   3832      1   1 -0.820000    11.838745477     1.833747721    57.437359594   0   0   0 # o*
   3833      1   2  0.410000    11.619731770     0.885097351    57.230193473   0   0   0 # h*
   3834      1   2  0.410000    11.523746153     2.314253413    56.687073323   0   0   0 # h*
   3835      1   1 -0.820000     5.613486854    14.843429866    22.000536193   0   0   0 # o*
   3836      1   2  0.410000     6.354504453    14.908892277    22.655434866   0   0   0 # h*
   3837      1   2  0.410000     4.974912974    15.467189681    22.473799850   0   0   0 # h*
   3838      1   1 -0.820000    18.422273296     9.588014011    62.289222959   0   0   0 # o*
   3839      1   2  0.410000    19.051145850    10.254214633    62.610618237   0   0   0 # h*
   3840      1   2  0.410000    17.739534216    10.235175459    61.958970723   0   0   0 # h*
   3841      1   1 -0.820000    19.979940545     9.927261591    48.049741939   0   0   0 # o*
   3842      1   2  0.410000    19.028932232    10.092237081    47.982147735   0   0   0 # h*
   3843      1   2  0.410000    19.925114503     9.506274566    48.978867935   0   0   0 # h*
   3844      1   1 -0.820000    13.070773818    14.011900459    51.921945598   0   0   0 # o*
   3845      1   2  0.410000    12.847137143    13.947578882    52.873817030   0   0   0 # h*
   3846      1   2  0.410000    14.052437752    14.122411466    52.034436317   0   0   0 # h*
   3847      1   1 -0.820000     9.345633817    13.444068487    48.518462100   0   0   0 # o*
   3848      1   2  0.410000    10.279163626    13.451781295    48.883943061   0   0   0 # h*
   3849      1   2  0.410000     9.502121048    13.412132723    47.549953420   0   0   0 # h*
   3850      1   1 -0.820000    10.872258966     7.360095731    41.961690594   0   0   0 # o*
   3851      1   2  0.410000    11.128495908     6.524545851    42.419633176   0   0   0 # h*
   3852      1   2  0.410000     9.945121406     7.422381956    42.300509816   0   0   0 # h*
   3853      1   1 -0.820000    20.049685018     9.119239997    50.713705948   0   0   0 # o*
   3854      1   2  0.410000    20.461744193     9.784738657    51.316933736   0   0   0 # h*
   3855      1   2  0.410000    19.726146473     8.514008965    51.420880849   0   0   0 # h*
   3856      1   1 -0.820000     7.368938035    15.802867262    24.218202460   0   0   0 # o*
   3857      1   2  0.410000     6.923210162    16.690705300    24.138563957   0   0   0 # h*
   3858      1   2  0.410000     6.950048946    15.492291957    25.018556097   0   0   0 # h*
   3859      1   1 -0.820000     2.528407648     7.805570303    44.583946154   0   0   0 # o*
   3860      1   2  0.410000     2.525308227     8.047536849    45.511405098   0   0   0 # h*
   3861      1   2  0.410000     3.499500281     8.059072302    44.429562346   0   0   0 # h*
   3862      1   1 -0.820000    22.045516083    20.574999769    37.752484256   0   0   0 # o*
   3863      1   2  0.410000    21.874981357    19.622174699    37.769917340   0   0   0 # h*
   3864      1   2  0.410000    21.371386953    20.914447394    37.094868256   0   0   0 # h*
   3865      1   1 -0.820000     5.371472724    -0.448360510    59.474629734   0   0   0 # o*
   3866      1   2  0.410000     6.123291868    -0.471889679    60.082832433   0   0   0 # h*
   3867      1   2  0.410000     4.650584055    -0.204820072    60.121702656   0   0   0 # h*
   3868      1   1 -0.820000    10.380493549    20.979826353    51.572507047   0   0   0 # o*
   3869      1   2  0.410000     9.601511223    21.565358339    51.642395278   0   0   0 # h*
   3870      1   2  0.410000    10.121965756    20.191159879    52.111186057   0   0   0 # h*
   3871      1   1 -0.820000     5.024860469    14.336531212    49.049132913   0   0   0 # o*
   3872      1   2  0.410000     4.098889527    14.165049723    48.706230694   0   0   0 # h*
   3873      1   2  0.410000     4.961985789    13.910585684    49.916801160   0   0   0 # h*
   3874      1   1 -0.820000    11.072560213     5.548821576    28.028658575   0   0   0 # o*
   3875      1   2  0.410000    10.897868589     5.892749585    28.909931910   0   0   0 # h*
   3876      1   2  0.410000    11.743429855     4.871303064    28.200699054   0   0   0 # h*
   3877      1   1 -0.820000     6.230113077     4.988976270    21.946280250   0   0   0 # o*
   3878      1   2  0.410000     5.423158138     5.243737856    22.435807357   0   0   0 # h*
   3879      1   2  0.410000     5.910120246     5.170506988    21.063575305   0   0   0 # h*
   3880      1   1 -0.820000     8.188193252    21.342209646    47.314571937   0   0   0 # o*
   3881      1   2  0.410000     8.662698443    -0.536887691    48.071593571   0   1   0 # h*
   3882      1   2  0.410000     8.669865466    21.715886356    46.561070064   0   0   0 # h*
   3883      1   1 -0.820000     2.467397158     9.526777816    43.128004883   0   0   0 # o*
   3884      1   2  0.410000     2.360625264    10.512657224    43.060254347   0   0   0 # h*
   3885      1   2  0.410000     3.301873098     9.348629925    42.627279802   0   0   0 # h*
   3886      1   1 -0.820000    21.315969949     7.919187050    63.276241203   0   0   0 # o*
   3887      1   2  0.410000    21.310330741     8.750125600    63.726362058   0   0   0 # h*
   3888      1   2  0.410000    21.209793199     8.193763432    62.333920785   0   0   0 # h*
   3889      1   1 -0.820000     7.853313086     9.515343195    42.533602211   0   0   0 # o*
   3890      1   2  0.410000     8.318521610     9.432837311    43.364283961   0   0   0 # h*
   3891      1   2  0.410000     7.667677061     8.557838188    42.282667988   0   0   0 # h*
   3892      1   1 -0.820000     1.402920269     3.332682998    27.956056772   0   0   0 # o*
   3893      1   2  0.410000     1.372225165     2.492174584    27.440781760   0   0   0 # h*
   3894      1   2  0.410000     2.090453874     3.026084577    28.544208354   0   0   0 # h*
   3895      1   1 -0.820000     5.610620382    20.924429548    45.263360809   0   0   0 # o*
   3896      1   2  0.410000     5.416334574    19.993995732    45.056508513   0   0   0 # h*
   3897      1   2  0.410000     6.563326122    20.912789793    45.252969283   0   0   0 # h*
   3898      1   1 -0.820000     5.778599899     5.625092299    60.928465661   0   0   0 # o*
   3899      1   2  0.410000     5.677702126     6.473389123    60.434785290   0   0   0 # h*
   3900      1   2  0.410000     6.421635297     5.113650362    60.410360085   0   0   0 # h*
   3901      1   1 -0.820000    19.226041242    16.497291099    34.659404218   0   0   0 # o*
   3902      1   2  0.410000    18.674592566    16.498435357    33.848197854   0   0   0 # h*
   3903      1   2  0.410000    18.649635985    15.899112822    35.159283006   0   0   0 # h*
   3904      1   1 -0.820000    20.655650761     4.014076518    38.173744822   0   0   0 # o*
   3905      1   2  0.410000    20.523422918     4.179327957    39.151726075   0   0   0 # h*
   3906      1   2  0.410000    19.772209584     4.324781041    37.855321826   0   0   0 # h*
   3907      1   1 -0.820000    12.133387284    11.042678682    47.921131586   0   0   0 # o*
   3908      1   2  0.410000    11.947249624    11.668642328    48.637713577   0   0   0 # h*
   3909      1   2  0.410000    12.505778178    11.698465463    47.315891125   0   0   0 # h*
   3910      1   1 -0.820000    22.517818945    17.525066308    31.552898825   0   0   0 # o*
   3911      1   2  0.410000    21.887190750    16.796899206    31.666352895   0   0   0 # h*
   3912      1   2  0.410000    22.664691598    17.630677440    32.558252637   0   0   0 # h*
   3913      1   1 -0.820000     5.289289890     4.432160871    27.946502315   0   0   0 # o*
   3914      1   2  0.410000     6.131487340     4.939661421    27.722913631   0   0   0 # h*
   3915      1   2  0.410000     4.842208493     4.579717294    27.093443385   0   0   0 # h*
   3916      1   1 -0.820000     4.839866402     1.576280554    28.278739726   0   0   0 # o*
   3917      1   2  0.410000     5.063500057     2.527808934    28.252025405   0   0   0 # h*
   3918      1   2  0.410000     5.747335806     1.242153278    28.438214396   0   0   0 # h*
   3919      1   1 -0.820000    10.765164111    -0.351761297    58.143667738   0   1   0 # o*
   3920      1   2  0.410000    10.176293125     0.435705834    58.036741136   0   1   0 # h*
   3921      1   2  0.410000    11.514671583    -0.117301665    57.551354711   0   1   0 # h*
   3922      1   1 -0.820000    11.626506337    11.822188727    64.256046917   0   0   0 # o*
   3923      1   2  0.410000    11.670912066    12.295743455    63.401568142   0   0   0 # h*
   3924      1   2  0.410000    10.703841547    11.449701652    64.259206584   0   0   0 # h*
   3925      1   1 -0.820000     8.481386972    17.393793229    46.786292862   0   0   0 # o*
   3926      1   2  0.410000     7.591607242    17.052306698    46.484343473   0   0   0 # h*
   3927      1   2  0.410000     8.434906026    17.130506452    47.698301849   0   0   0 # h*
   3928      1   1 -0.820000    12.373044372    17.432107490    34.332299605   0   0   0 # o*
   3929      1   2  0.410000    12.751406914    18.036495676    33.695723671   0   0   0 # h*
   3930      1   2  0.410000    13.099132766    16.762081283    34.415290542   0   0   0 # h*
   3931      1   1 -0.820000    14.169648608    15.334794118    34.455977569   0   0   0 # o*
   3932      1   2  0.410000    14.364148789    14.842095676    33.617910166   0   0   0 # h*
   3933      1   2  0.410000    13.562071720    14.657634620    34.838404462   0   0   0 # h*
   3934      1   1 -0.820000     0.619360289     3.152427557    39.081033165   0   0   0 # o*
   3935      1   2  0.410000     1.427804223     3.293124055    38.535873156   0   0   0 # h*
   3936      1   2  0.410000     1.104109976     3.011523982    39.936028097   0   0   0 # h*
   3937      1   1 -0.820000     3.600379383    10.908325780    24.360922989   0   0   0 # o*
   3938      1   2  0.410000     4.487043175    11.086368025    24.790554897   0   0   0 # h*
   3939      1   2  0.410000     3.199701917    10.364927149    25.086047776   0   0   0 # h*
   3940      1   1 -0.820000     5.274793433     7.876451149    28.478850736   0   0   0 # o*
   3941      1   2  0.410000     4.432344625     7.521871516    28.816706836   0   0   0 # h*
   3942      1   2  0.410000     5.279174712     7.647172735    27.512039190   0   0   0 # h*
   3943      1   1 -0.820000    21.669811210    17.157694315    63.784849912   0   0   0 # o*
   3944      1   2  0.410000    20.836629032    17.214698161    64.300020098   0   0   0 # h*
   3945      1   2  0.410000    22.234110756    17.817939700    64.241599374   0   0   0 # h*
   3946      1   1 -0.820000    14.236255990    21.580002295    48.774249847   0   0   0 # o*
   3947      1   2  0.410000    14.682531202    -0.197355979    48.021028753   0   1   0 # h*
   3948      1   2  0.410000    14.102960038    -0.037816309    49.499511057   0   1   0 # h*
   3949      1   1 -0.820000    10.166771148    17.003587960    27.389245789   0   0   0 # o*
   3950      1   2  0.410000     9.978250411    17.766361532    27.907286589   0   0   0 # h*
   3951      1   2  0.410000    10.702415150    17.376399660    26.656028300   0   0   0 # h*
   3952      1   1 -0.820000    14.912578177     2.102940391    42.841230539   0   0   0 # o*
   3953      1   2  0.410000    14.110186170     1.524313233    42.766460408   0   0   0 # h*
   3954      1   2  0.410000    14.581064225     2.887991908    42.353362949   0   0   0 # h*
   3955      1   1 -0.820000    17.142588217     5.879219657    62.591996303   0   0   0 # o*
   3956      1   2  0.410000    17.037006050     5.158324974    61.932687178   0   0   0 # h*
   3957      1   2  0.410000    18.078927308     5.680123672    62.842102685   0   0   0 # h*
   3958      1   1 -0.820000     1.566294416    19.619875475    22.838808688   0   0   0 # o*
   3959      1   2  0.410000     1.470818248    20.039709792    23.701894822   0   0   0 # h*
   3960      1   2  0.410000     1.956702834    20.404939175    22.353378919   0   0   0 # h*
   3961      1   1 -0.820000    11.136391344    21.605702303    34.430690868   0   0   0 # o*
   3962      1   2  0.410000    10.351204752    -0.185280374    34.839375579   0   1   0 # h*
   3963      1   2  0.410000    10.991646589    -0.365227267    33.522252991   0   1   0 # h*
   3964      1   1 -0.820000    12.985752981     8.375319567    29.260511767   0   0   0 # o*
   3965      1   2  0.410000    12.752824600     8.623297116    30.179282998   0   0   0 # h*
   3966      1   2  0.410000    13.129248986     9.274517977    28.797467550   0   0   0 # h*
   3967      1   1 -0.820000     1.124558779     2.029574607    49.906724914   0   0   0 # o*
   3968      1   2  0.410000    22.807219745     2.585019483    50.031656311  -1   0   0 # h*
   3969      1   2  0.410000     1.131177074     2.069857525    48.901752594   0   0   0 # h*
   3970      1   1 -0.820000    13.963786301     6.432568983    56.324455384   0   0   0 # o*
   3971      1   2  0.410000    13.659989495     6.908244664    57.108155517   0   0   0 # h*
   3972      1   2  0.410000    13.336746855     6.892144550    55.730415489   0   0   0 # h*
   3973      1   1 -0.820000    20.388151710    15.840125261    31.406062079   0   0   0 # o*
   3974      1   2  0.410000    19.665909441    15.153106857    31.263991052   0   0   0 # h*
   3975      1   2  0.410000    19.808987286    16.619908340    31.511115944   0   0   0 # h*
   3976      1   1 -0.820000    18.699023926     0.208404091    37.812423007   0   0   0 # o*
   3977      1   2  0.410000    18.296264158    -0.182976480    38.617654107   0   0   0 # h*
   3978      1   2  0.410000    18.347146717    -0.395284823    37.146661663   0   0   0 # h*
   3979      1   1 -0.820000    21.152313637    12.145946951    26.802588325   0   0   0 # o*
   3980      1   2  0.410000    21.996704061    12.604190145    26.904742020   0   0   0 # h*
   3981      1   2  0.410000    20.808413571    12.323993496    27.693804172   0   0   0 # h*
   3982      1   1 -0.820000    13.463033157     3.944385000    34.690440877   0   0   0 # o*
   3983      1   2  0.410000    13.262484353     3.485433179    35.504797073   0   0   0 # h*
   3984      1   2  0.410000    13.697938789     4.804906447    35.098705545   0   0   0 # h*
   3985      1   1 -0.820000    21.291513489    11.299612269    32.083154717   0   0   0 # o*
   3986      1   2  0.410000    21.325569652    10.322819768    32.237608120   0   0   0 # h*
   3987      1   2  0.410000    22.141776851    11.519197824    32.416474691   0   0   0 # h*
   3988      1   1 -0.820000     6.151069270    17.289543805    36.912518416   0   0   0 # o*
   3989      1   2  0.410000     6.558083014    16.542571769    37.484031396   0   0   0 # h*
   3990      1   2  0.410000     5.959602915    17.927710264    37.623639672   0   0   0 # h*
   3991      1   1 -0.820000     2.319425814    18.535037479    45.992863527   0   0   0 # o*
   3992      1   2  0.410000     2.351040237    17.549526687    45.877621439   0   0   0 # h*
   3993      1   2  0.410000     2.539713108    18.833821823    45.073941619   0   0   0 # h*
   3994      1   1 -0.820000    14.731050989    10.362824114    35.482081492   0   0   0 # o*
   3995      1   2  0.410000    15.089335373     9.592688830    34.965105219   0   0   0 # h*
   3996      1   2  0.410000    14.803714245    11.099141547    34.859119747   0   0   0 # h*
   3997      1   1 -0.820000    10.047474449     9.099013512    54.339719042   0   0   0 # o*
   3998      1   2  0.410000     9.910417297     8.592107022    55.150405599   0   0   0 # h*
   3999      1   2  0.410000     9.239215084     9.618527274    54.307120595   0   0   0 # h*
   4000      1   1 -0.820000    11.954214951    13.379648539    49.426586236   0   0   0 # o*
   4001      1   2  0.410000    12.169184378    13.614637847    50.372384350   0   0   0 # h*
   4002      1   2  0.410000    12.631413230    13.849710360    48.942706358   0   0   0 # h*
   4003      1   1 -0.820000    13.495746288    18.902111289    48.900948310   0   0   0 # o*
   4004      1   2  0.410000    14.039013888    18.428924151    48.256616565   0   0   0 # h*
   4005      1   2  0.410000    13.879004204    19.816830535    48.776315722   0   0   0 # h*
   4006      1   1 -0.820000     7.850034607    10.342005096    66.854903316   0   0   0 # o*
   4007      1   2  0.410000     8.596356290    10.863483161    67.291240050   0   0   0 # h*
   4008      1   2  0.410000     8.266497651    10.355765324    65.980437566   0   0   0 # h*
   4009      1   1 -0.820000     3.829534466    17.002899630    34.779315172   0   0   0 # o*
   4010      1   2  0.410000     3.977023947    16.107566233    35.153475897   0   0   0 # h*
   4011      1   2  0.410000     4.648072562    17.489823101    35.057547962   0   0   0 # h*
   4012      1   1 -0.820000    16.552177902    21.695673370    53.147313403   0   0   0 # o*
   4013      1   2  0.410000    16.080177118    21.165227666    52.469406446   0   0   0 # h*
   4014      1   2  0.410000    15.851860445    -0.006745161    53.445000443   0   1   0 # h*
   4015      1   1 -0.820000     1.359974095    18.944765488    28.719451486   0   0   0 # o*
   4016      1   2  0.410000     1.358027757    18.011110941    29.021203475   0   0   0 # h*
   4017      1   2  0.410000     1.464298577    19.310197903    29.626840646   0   0   0 # h*
   4018      1   1 -0.820000     7.038998757    19.397603991    43.086924942   0   0   0 # o*
   4019      1   2  0.410000     7.350663026    18.591147864    43.528619024   0   0   0 # h*
   4020      1   2  0.410000     7.797210651    20.009130518    43.252360091   0   0   0 # h*
   4021      1   1 -0.820000     4.834304857     2.354688079    64.005045315   0   0   0 # o*
   4022      1   2  0.410000     4.127615784     2.555080283    64.683436384   0   0   0 # h*
   4023      1   2  0.410000     4.307524346     2.599474050    63.195944315   0   0   0 # h*
   4024      1   1 -0.820000    10.667366993    11.463547666    52.440412284   0   0   0 # o*
   4025      1   2  0.410000    10.390288270    10.909891633    53.192177271   0   0   0 # h*
   4026      1   2  0.410000    10.537222788    12.360409102    52.823684634   0   0   0 # h*
   4027      1   1 -0.820000    10.517602028    17.160763600    66.882399123   0   0   0 # o*
   4028      1   2  0.410000    10.419896024    18.164967120    66.896413716   0   0   0 # h*
   4029      1   2  0.410000    10.117403353    16.938882608    67.770787864   0   0   0 # h*
   4030      1   1 -0.820000    11.701997204    17.283295051    50.306416506   0   0   0 # o*
   4031      1   2  0.410000    12.206004304    17.621401681    51.092477053   0   0   0 # h*
   4032      1   2  0.410000    12.304018458    17.748690738    49.627835570   0   0   0 # h*
   4033      1   1 -0.820000    22.153729169     6.539378040    55.253542552   0   0   0 # o*
   4034      1   2  0.410000    21.180412711     6.521317667    55.445045473   0   0   0 # h*
   4035      1   2  0.410000    22.246740915     7.536201072    55.047531619   0   0   0 # h*
   4036      1   1 -0.820000    18.780113209    10.125952937    54.735432524   0   0   0 # o*
   4037      1   2  0.410000    18.010929138    10.556008128    55.211252434   0   0   0 # h*
   4038      1   2  0.410000    18.378397910     9.900996158    53.870480157   0   0   0 # h*
   4039      1   1 -0.820000     1.952555397     5.599868017    26.619357147   0   0   0 # o*
   4040      1   2  0.410000     1.556850881     4.724801917    26.959532519   0   0   0 # h*
   4041      1   2  0.410000     2.751648275     5.230400056    26.135192296   0   0   0 # h*
   4042      1   1 -0.820000    13.040411482     1.183226127    22.201586354   0   0   0 # o*
   4043      1   2  0.410000    12.213143778     1.613567226    22.510765576   0   0   0 # h*
   4044      1   2  0.410000    13.735176243     1.801498571    22.580084488   0   0   0 # h*
   4045      1   1 -0.820000     4.283286525    17.019803156    48.579292543   0   0   0 # o*
   4046      1   2  0.410000     3.304656233    16.797546729    48.556923177   0   0   0 # h*
   4047      1   2  0.410000     4.715624472    16.264020388    49.018855429   0   0   0 # h*
   4048      1   1 -0.820000     1.634675807    11.337588731    59.882712531   0   0   0 # o*
   4049      1   2  0.410000     1.972978847    11.486290718    60.813235176   0   0   0 # h*
   4050      1   2  0.410000     1.006941342    10.600160109    59.926379894   0   0   0 # h*
   4051      1   1 -0.820000    16.425707446    14.832362482    47.545428323   0   0   0 # o*
   4052      1   2  0.410000    17.259717841    14.316361119    47.506996476   0   0   0 # h*
   4053      1   2  0.410000    16.830501978    15.686572203    47.250677727   0   0   0 # h*
   4054      1   1 -0.820000    20.918558723     5.748761937    23.455012532   0   0   0 # o*
   4055      1   2  0.410000    21.132193893     4.808528566    23.157419368   0   0   0 # h*
   4056      1   2  0.410000    20.295420010     5.966901409    22.735913835   0   0   0 # h*
   4057      1   1 -0.820000     3.072730242    11.213116984    51.370511775   0   0   0 # o*
   4058      1   2  0.410000     2.139222201    11.177149421    50.979212894   0   0   0 # h*
   4059      1   2  0.410000     3.521358422    10.832349330    50.594466587   0   0   0 # h*
   4060      1   1 -0.820000    11.882662739     5.564964757    58.638755229   0   0   0 # o*
   4061      1   2  0.410000    12.697492324     4.977251553    58.556885763   0   0   0 # h*
   4062      1   2  0.410000    12.247461660     6.457679142    58.861946145   0   0   0 # h*
   4063      1   1 -0.820000    11.922700718    19.297698491    39.785180671   0   0   0 # o*
   4064      1   2  0.410000    11.814948761    19.524854747    38.855219623   0   0   0 # h*
   4065      1   2  0.410000    11.367077185    20.034719942    40.171755392   0   0   0 # h*
   4066      1   1 -0.820000    16.701890011     3.729283304    31.396630141   0   0   0 # o*
   4067      1   2  0.410000    16.651998852     2.846971503    30.987438780   0   0   0 # h*
   4068      1   2  0.410000    17.586902754     3.614175587    31.805890981   0   0   0 # h*
   4069      1   1 -0.820000    16.111754853    21.106089082    37.178472311   0   0   0 # o*
   4070      1   2  0.410000    15.979039590    21.147967827    38.162161907   0   0   0 # h*
   4071      1   2  0.410000    17.067027873    21.433783331    37.183872619   0   0   0 # h*
   4072      1   1 -0.820000    10.130976997    10.267249981    29.961586252   0   0   0 # o*
   4073      1   2  0.410000    11.032703860    10.480066669    29.657977417   0   0   0 # h*
   4074      1   2  0.410000     9.697287622    10.538863871    29.109704719   0   0   0 # h*
   4075      1   1 -0.820000    14.298932923    21.287042048    37.780677757   0   0   0 # o*
   4076      1   2  0.410000    14.127073363    21.359318691    38.735898413   0   0   0 # h*
   4077      1   2  0.410000    15.276688406    20.992504343    37.744807784   0   0   0 # h*
   4078      1   1 -0.820000     7.549752264     5.845249182    67.321866471   0   0   0 # o*
   4079      1   2  0.410000     7.231492196     6.404293815    68.089974783   0   0   0 # h*
   4080      1   2  0.410000     7.518738087     4.925702939    67.708853996   0   0   0 # h*
   4081      1   1 -0.820000    11.260557395     4.290556962    59.059024927   0   0   0 # o*
   4082      1   2  0.410000    11.923367138     4.090377349    58.399626686   0   0   0 # h*
   4083      1   2  0.410000    11.114030813     3.338142233    59.402530073   0   0   0 # h*
   4084      1   1 -0.820000     6.118874751     8.971825994    56.313695479   0   0   0 # o*
   4085      1   2  0.410000     5.980572477     8.299532262    55.586813615   0   0   0 # h*
   4086      1   2  0.410000     5.864042388     9.733026715    55.725310605   0   0   0 # h*
   4087      1   1 -0.820000     8.061700296     7.102656968    24.562157776   0   0   0 # o*
   4088      1   2  0.410000     7.812772336     6.481448091    23.799481570   0   0   0 # h*
   4089      1   2  0.410000     8.854854535     6.614178927    24.884650132   0   0   0 # h*
   4090      1   1 -0.820000    18.059275553    -0.350789523    46.300107499   0   1   0 # o*
   4091      1   2  0.410000    18.418097836    21.222009661    45.717588078   0   0   0 # h*
   4092      1   2  0.410000    17.860087411    21.387879134    47.101846115   0   0   0 # h*
   4093      1   1 -0.820000    15.415700794    10.167434580    59.362816840   0   0   0 # o*
   4094      1   2  0.410000    16.054277742     9.391689940    59.560464136   0   0   0 # h*
   4095      1   2  0.410000    15.986732007    10.958997491    59.351415554   0   0   0 # h*
   4096      1   1 -0.820000    15.954332341    10.596328941    27.142346988   0   0   0 # o*
   4097      1   2  0.410000    15.265323633     9.972883769    26.773568549   0   0   0 # h*
   4098      1   2  0.410000    16.714450423    10.178575705    26.731600596   0   0   0 # h*
   4099      1   1 -0.820000     2.410047586    12.931006899    27.311452253   0   0   0 # o*
   4100      1   2  0.410000     2.988706980    13.325886210    27.963773398   0   0   0 # h*
   4101      1   2  0.410000     2.653345311    11.988142557    27.387834872   0   0   0 # h*
   4102      1   1 -0.820000     9.715806974    17.720203590    31.565677639   0   0   0 # o*
   4103      1   2  0.410000    10.125293299    17.925045962    30.684418354   0   0   0 # h*
   4104      1   2  0.410000     9.277177277    18.571369597    31.807426309   0   0   0 # h*
   4105      1   1 -0.820000     1.012873447    11.698321752    65.034819035   0   0   0 # o*
   4106      1   2  0.410000    22.710934654    11.225038971    65.353080272  -1   0   0 # h*
   4107      1   2  0.410000     1.288320997    12.062550940    65.946544231   0   0   0 # h*
   4108      1   1 -0.820000    14.861796313    11.701241379    58.734164759   0   0   0 # o*
   4109      1   2  0.410000    14.404829576    12.166954932    59.465309377   0   0   0 # h*
   4110      1   2  0.410000    15.511223007    12.428501285    58.484651481   0   0   0 # h*
   4111      1   1 -0.820000    15.690879194    17.462280675    54.819563951   0   0   0 # o*
   4112      1   2  0.410000    16.143103262    17.830121279    55.620490533   0   0   0 # h*
   4113      1   2  0.410000    16.423309962    17.415520283    54.164251911   0   0   0 # h*
   4114      1   1 -0.820000    20.993640783    10.821414314    45.292730251   0   0   0 # o*
   4115      1   2  0.410000    21.216216103    10.945216575    46.234255228   0   0   0 # h*
   4116      1   2  0.410000    20.236071290    10.173956796    45.408400401   0   0   0 # h*
   4117      1   1 -0.820000     4.570531122    10.166772545    61.738144822   0   0   0 # o*
   4118      1   2  0.410000     4.065329138     9.389927708    61.469169261   0   0   0 # h*
   4119      1   2  0.410000     4.975174141    10.396226295    60.883995821   0   0   0 # h*
   4120      1   1 -0.820000     8.405177391    18.345060590    62.024294992   0   0   0 # o*
   4121      1   2  0.410000     7.790237341    17.877241735    62.594699732   0   0   0 # h*
   4122      1   2  0.410000     8.141243395    18.137674142    61.121172916   0   0   0 # h*
   4123      1   1 -0.820000     2.337622695    20.961152553    64.531809903   0   0   0 # o*
   4124      1   2  0.410000     3.180296181    21.341536296    64.886251234   0   0   0 # h*
   4125      1   2  0.410000     1.923493314    -0.408152025    64.356292907   0   1   0 # h*
   4126      1   1 -0.820000    13.434041074     9.922367371    44.913840365   0   0   0 # o*
   4127      1   2  0.410000    13.007258449     9.040509755    45.045165540   0   0   0 # h*
   4128      1   2  0.410000    12.719428765    10.485072116    44.569350922   0   0   0 # h*
   4129      1   1 -0.820000     3.214197551    15.296539498    43.057502899   0   0   0 # o*
   4130      1   2  0.410000     3.095245034    15.593729462    43.996843704   0   0   0 # h*
   4131      1   2  0.410000     4.159278881    15.634803186    42.982206298   0   0   0 # h*
   4132      1   1 -0.820000     5.858790710     0.238765724    41.936744578   0   0   0 # o*
   4133      1   2  0.410000     5.658229876     0.819005685    41.194208167   0   0   0 # h*
   4134      1   2  0.410000     6.774798555     0.562018270    42.147852670   0   0   0 # h*
   4135      1   1 -0.820000    13.467102531    11.481892115    26.584480283   0   0   0 # o*
   4136      1   2  0.410000    13.901179069    10.885099131    27.256702841   0   0   0 # h*
   4137      1   2  0.410000    12.718002466    11.731600855    27.134267879   0   0   0 # h*
   4138      1   1 -0.820000    17.949973785     1.321280315    33.848373363   0   0   0 # o*
   4139      1   2  0.410000    18.338637313     0.707861502    34.526587838   0   0   0 # h*
   4140      1   2  0.410000    17.348075301     0.706941539    33.402770554   0   0   0 # h*
   4141      1   1 -0.820000    19.614203591    16.808130644    20.940026577   0   0   0 # o*
   4142      1   2  0.410000    20.163958693    16.080447543    21.225821869   0   0   0 # h*
   4143      1   2  0.410000    18.719480120    16.392700968    20.760046753   0   0   0 # h*
   4144      1   1 -0.820000    17.594768226    12.184442298    59.180254351   0   0   0 # o*
   4145      1   2  0.410000    17.350514749    13.098320705    59.483608163   0   0   0 # h*
   4146      1   2  0.410000    18.561305730    12.237329290    59.399674314   0   0   0 # h*
   4147      1   1 -0.820000    14.086786727    14.385098928    66.430333241   0   0   0 # o*
   4148      1   2  0.410000    14.368556104    15.145915759    67.012695544   0   0   0 # h*
   4149      1   2  0.410000    13.613458506    14.921372836    65.760857099   0   0   0 # h*
   4150      1   1 -0.820000    22.419189228     3.576330157    59.483785058   0   0   0 # o*
   4151      1   2  0.410000    22.526955546     4.529201462    59.757633449   0   0   0 # h*
   4152      1   2  0.410000    21.555327146     3.374805320    59.916332942   0   0   0 # h*
   4153      1   1 -0.820000    10.025138799    14.960415182    24.466589298   0   0   0 # o*
   4154      1   2  0.410000     9.238081746    15.580096844    24.619850571   0   0   0 # h*
   4155      1   2  0.410000     9.524653473    14.174848597    24.116789780   0   0   0 # h*
   4156      1   1 -0.820000     4.631645185     5.834419262    47.021416209   0   0   0 # o*
   4157      1   2  0.410000     4.235916067     5.505315933    47.879606680   0   0   0 # h*
   4158      1   2  0.410000     4.114687217     5.254191884    46.470005603   0   0   0 # h*
   4159      1   1 -0.820000    14.859630230    18.862648988    35.986304888   0   0   0 # o*
   4160      1   2  0.410000    13.908582143    19.074264722    36.027360984   0   0   0 # h*
   4161      1   2  0.410000    15.313775293    19.686786724    36.341822362   0   0   0 # h*
   4162      1   1 -0.820000    19.150044971     3.425462009    65.990183286   0   0   0 # o*
   4163      1   2  0.410000    19.988312801     2.985033547    65.768730631   0   0   0 # h*
   4164      1   2  0.410000    19.271975624     3.321067702    66.992039830   0   0   0 # h*
   4165      1   1 -0.820000     9.483349282     6.628880279    33.735259238   0   0   0 # o*
   4166      1   2  0.410000     9.790827720     7.464293191    33.416148411   0   0   0 # h*
   4167      1   2  0.410000    10.156852074     6.021913522    33.407376088   0   0   0 # h*
   4168      1   1 -0.820000    21.084348333    18.106938274    37.126205941   0   0   0 # o*
   4169      1   2  0.410000    21.314984700    17.275010123    36.725957296   0   0   0 # h*
   4170      1   2  0.410000    20.701428185    18.610910528    36.329343826   0   0   0 # h*
   4171      1   1 -0.820000     1.880127271     8.340028629    45.684076952   0   0   0 # o*
   4172      1   2  0.410000     1.366441767     7.499861061    45.435741291   0   0   0 # h*
   4173      1   2  0.410000     1.867512235     8.879829940    44.857302608   0   0   0 # h*
   4174      1   1 -0.820000     4.188989517    20.366973828    58.059141832   0   0   0 # o*
   4175      1   2  0.410000     3.786203235    21.100793661    58.526683316   0   0   0 # h*
   4176      1   2  0.410000     5.041203656    20.771182241    57.887612849   0   0   0 # h*
   4177      1   1 -0.820000    17.723448554    17.668491234    39.863916247   0   0   0 # o*
   4178      1   2  0.410000    17.599397829    18.504823637    40.411403640   0   0   0 # h*
   4179      1   2  0.410000    17.513134658    16.918581338    40.396902774   0   0   0 # h*
   4180      1   1 -0.820000    13.807241993    16.759901904    22.881447185   0   0   0 # o*
   4181      1   2  0.410000    12.903415904    17.026116018    22.647389984   0   0   0 # h*
   4182      1   2  0.410000    13.639765136    16.374470489    23.780422675   0   0   0 # h*
   4183      1   1 -0.820000     8.595023613    11.635025673    56.918723451   0   0   0 # o*
   4184      1   2  0.410000     9.022917345    12.475440722    56.606298577   0   0   0 # h*
   4185      1   2  0.410000     7.878646761    12.026897516    57.451803400   0   0   0 # h*
   4186      1   1 -0.820000    15.755128303    -0.530782260    30.287784591   0   1   0 # o*
   4187      1   2  0.410000    15.879440167    21.132286889    31.033524233   0   0   0 # h*
   4188      1   2  0.410000    16.681839793    -0.244773401    30.223714542   0   1   0 # h*
   4189      1   1 -0.820000     5.857022528    18.215813217    23.843260574   0   0   0 # o*
   4190      1   2  0.410000     5.326423057    18.884209376    24.297635579   0   0   0 # h*
   4191      1   2  0.410000     5.192371724    17.553012344    23.495770472   0   0   0 # h*
   4192      1   1 -0.820000     6.139160325     5.067029936    63.605515855   0   0   0 # o*
   4193      1   2  0.410000     5.805263247     4.141375282    63.556410577   0   0   0 # h*
   4194      1   2  0.410000     6.126657098     5.315947023    62.665426019   0   0   0 # h*
   4195      1   1 -0.820000    17.174034227    10.668503105    31.949064322   0   0   0 # o*
   4196      1   2  0.410000    18.086602797    10.941563679    31.851798050   0   0   0 # h*
   4197      1   2  0.410000    17.029980473    10.216709380    31.064658761   0   0   0 # h*
   4198      1   1 -0.820000    14.465855079    14.732037013    24.099098022   0   0   0 # o*
   4199      1   2  0.410000    14.922538469    15.576004199    24.086855958   0   0   0 # h*
   4200      1   2  0.410000    14.220627159    14.640626985    23.131918554   0   0   0 # h*
   4201      1   1 -0.820000    16.203437827     5.593797150    44.982016805   0   0   0 # o*
   4202      1   2  0.410000    16.936811820     5.079110163    45.345624439   0   0   0 # h*
   4203      1   2  0.410000    15.406603592     5.184301468    45.378505426   0   0   0 # h*
   4204      1   1 -0.820000    21.230989689     8.087161618    37.028450688   0   0   0 # o*
   4205      1   2  0.410000    21.739458142     7.306456098    36.661974193   0   0   0 # h*
   4206      1   2  0.410000    20.484073759     7.642995739    37.355177263   0   0   0 # h*
   4207      1   1 -0.820000     9.366334125     6.438948910    39.225837437   0   0   0 # o*
   4208      1   2  0.410000     9.369123517     6.705663880    40.146478816   0   0   0 # h*
   4209      1   2  0.410000     8.691988104     7.026367386    38.859335086   0   0   0 # h*
   4210      1   1 -0.820000     4.249709918    13.562115046    34.633783287   0   0   0 # o*
   4211      1   2  0.410000     3.339922431    13.202173889    34.389286916   0   0   0 # h*
   4212      1   2  0.410000     4.123703126    13.576939155    35.598128419   0   0   0 # h*
   4213      1   1 -0.820000     3.808133956     6.320488700    37.267557080   0   0   0 # o*
   4214      1   2  0.410000     3.771764955     5.628463140    36.567551788   0   0   0 # h*
   4215      1   2  0.410000     4.698087833     6.156394652    37.681623764   0   0   0 # h*
   4216      1   1 -0.820000    22.402699268     0.764589277    32.048238751   0   0   0 # o*
   4217      1   2  0.410000    22.858971563     1.600310662    32.202511244   0   0   0 # h*
   4218      1   2  0.410000    22.341717978     0.378172388    32.930333954   0   0   0 # h*
   4219      1   1 -0.820000    12.554647889    19.605928523    36.493180804   0   0   0 # o*
   4220      1   2  0.410000    13.153665137    20.427798367    36.562948706   0   0   0 # h*
   4221      1   2  0.410000    13.016196315    19.025301653    37.166242250   0   0   0 # h*
   4222      1   1 -0.820000    11.140714447     3.129087151    54.908967581   0   0   0 # o*
   4223      1   2  0.410000    10.912507621     2.499595600    54.201859897   0   0   0 # h*
   4224      1   2  0.410000    10.557360926     3.884500811    54.652376043   0   0   0 # h*
   4225      1   1 -0.820000    15.920887854     8.660834331    33.575307168   0   0   0 # o*
   4226      1   2  0.410000    16.131411317     7.863576042    33.090317432   0   0   0 # h*
   4227      1   2  0.410000    16.102858128     9.308838998    32.893073818   0   0   0 # h*
   4228      1   1 -0.820000     1.513257320    20.195796544    25.970971927   0   0   0 # o*
   4229      1   2  0.410000     1.825419344    19.708026838    26.778225109   0   0   0 # h*
   4230      1   2  0.410000     0.669692768    20.580516400    26.344315883   0   0   0 # h*
   4231      1   1 -0.820000     3.732428952    16.501513500    23.290133449   0   0   0 # o*
   4232      1   2  0.410000     3.225171408    16.015184633    24.033368357   0   0   0 # h*
   4233      1   2  0.410000     2.949050128    16.809664717    22.820110970   0   0   0 # h*
   4234      1   1 -0.820000     1.387130871    15.167508730    42.687323869   0   0   0 # o*
   4235      1   2  0.410000     2.236317652    14.980588133    43.193978854   0   0   0 # h*
   4236      1   2  0.410000     1.424206592    16.130950911    42.760733362   0   0   0 # h*
   4237      1   1 -0.820000     2.101905451     1.140935806    53.396635175   0   0   0 # o*
   4238      1   2  0.410000     1.262554076     0.807021592    53.090863110   0   0   0 # h*
   4239      1   2  0.410000     2.634528221     0.378528635    53.057037281   0   0   0 # h*
   4240      1   1 -0.820000     5.922799572     2.764545586    48.028011369   0   0   0 # o*
   4241      1   2  0.410000     5.090846542     3.280508430    48.176285837   0   0   0 # h*
   4242      1   2  0.410000     6.446518905     3.237802470    48.697398919   0   0   0 # h*
   4243      1   1 -0.820000    21.465837154    15.705749516    25.576204606   0   0   0 # o*
   4244      1   2  0.410000    22.099868721    15.008370396    25.382506536   0   0   0 # h*
   4245      1   2  0.410000    21.252269742    15.531584165    26.539480220   0   0   0 # h*
   4246      1   1 -0.820000    12.902474054    -0.135131643    51.819230928   0   1   0 # o*
   4247      1   2  0.410000    12.915719148    21.453467031    52.544779267   0   0   0 # h*
   4248      1   2  0.410000    11.985845634    -0.277943247    51.531426215   0   1   0 # h*
   4249      1   1 -0.820000     6.419227064     5.511488807    27.804272747   0   0   0 # o*
   4250      1   2  0.410000     5.631069926     5.014869050    28.107016447   0   0   0 # h*
   4251      1   2  0.410000     6.891110180     5.746973845    28.651112642   0   0   0 # h*
   4252      1   1 -0.820000    20.058447160    20.084036668    55.420097754   0   0   0 # o*
   4253      1   2  0.410000    20.638440232    20.078289270    54.639265151   0   0   0 # h*
   4254      1   2  0.410000    20.702413831    19.733370169    56.062977191   0   0   0 # h*
   4255      1   1 -0.820000     8.470059524     1.475875235    41.492247009   0   0   0 # o*
   4256      1   2  0.410000     8.126130360     1.112688410    40.638947154   0   0   0 # h*
   4257      1   2  0.410000     9.322785105     1.829408798    41.155105438   0   0   0 # h*
   4258      1   1 -0.820000    15.063207805    10.499604070    51.510062943   0   0   0 # o*
   4259      1   2  0.410000    14.297259895    11.031246989    51.212687955   0   0   0 # h*
   4260      1   2  0.410000    15.664075210    10.554836690    50.736885319   0   0   0 # h*
   4261      1   1 -0.820000    14.031447980    14.351830894    42.284610075   0   0   0 # o*
   4262      1   2  0.410000    13.125867150    14.640502606    42.525220636   0   0   0 # h*
   4263      1   2  0.410000    14.200523088    14.034043767    43.236951699   0   0   0 # h*
   4264      1   1 -0.820000     2.416822918     8.592898587    32.226001731   0   0   0 # o*
   4265      1   2  0.410000     1.925811845     8.696415705    33.088174012   0   0   0 # h*
   4266      1   2  0.410000     1.652226899     8.723069526    31.624236801   0   0   0 # h*
   4267      1   1 -0.820000    20.140265846    12.121234143    60.281872390   0   0   0 # o*
   4268      1   2  0.410000    21.008821610    12.397695420    59.928424782   0   0   0 # h*
   4269      1   2  0.410000    20.223727023    12.284162392    61.242532015   0   0   0 # h*
   4270      1   1 -0.820000    16.871223305    20.837161951    34.130244142   0   0   0 # o*
   4271      1   2  0.410000    15.959389892    20.956702710    33.806838296   0   0   0 # h*
   4272      1   2  0.410000    17.030589556    19.822167291    34.034637924   0   0   0 # h*
   4273      1   1 -0.820000     7.747031270     2.727839240    54.567451270   0   0   0 # o*
   4274      1   2  0.410000     7.253723059     2.660134216    53.708667842   0   0   0 # h*
   4275      1   2  0.410000     7.321305017     3.522664003    54.963541292   0   0   0 # h*
   4276      1   1 -0.820000    19.894734921    18.275683427    43.087319672   0   0   0 # o*
   4277      1   2  0.410000    19.893745860    17.361994726    42.701159906   0   0   0 # h*
   4278      1   2  0.410000    20.838022284    18.419805907    43.287113702   0   0   0 # h*
   4279      1   1 -0.820000    12.637580870    11.766056855    61.350060132   0   0   0 # o*
   4280      1   2  0.410000    12.236873857    10.877130449    61.571072545   0   0   0 # h*
   4281      1   2  0.410000    12.861051444    11.600443490    60.408155456   0   0   0 # h*
   4282      1   1 -0.820000    15.265592751     8.923461792    58.417976209   0   0   0 # o*
   4283      1   2  0.410000    15.503915927     8.937964161    57.496498009   0   0   0 # h*
   4284      1   2  0.410000    14.840047173     9.838657214    58.600554370   0   0   0 # h*
   4285      1   1 -0.820000    20.471636727     7.620213447    43.248696957   0   0   0 # o*
   4286      1   2  0.410000    19.882524064     6.894458840    43.051425885   0   0   0 # h*
   4287      1   2  0.410000    21.223182537     7.115962432    43.664984205   0   0   0 # h*
   4288      1   1 -0.820000    12.674676885    15.727718520    64.634821345   0   0   0 # o*
   4289      1   2  0.410000    12.864273893    16.617560154    64.368446389   0   0   0 # h*
   4290      1   2  0.410000    12.351518153    15.373282493    63.736395748   0   0   0 # h*
   4291      1   1 -0.820000    22.249139136    15.727286279    36.556348382   0   0   0 # o*
   4292      1   2  0.410000    21.805484624    15.017501700    37.105451411   0   0   0 # h*
   4293      1   2  0.410000     0.480201530    15.940302647    37.205977886   1   0   0 # h*
   4294      1   1 -0.820000    14.954047927    19.699078238    61.325935779   0   0   0 # o*
   4295      1   2  0.410000    14.383707680    19.336035269    60.577193027   0   0   0 # h*
   4296      1   2  0.410000    15.815059613    19.616853157    60.844485629   0   0   0 # h*
   4297      1   1 -0.820000     6.756606478    13.304941193    58.203290370   0   0   0 # o*
   4298      1   2  0.410000     7.093407991    14.195005120    58.332596977   0   0   0 # h*
   4299      1   2  0.410000     6.111996622    13.549638642    57.489465757   0   0   0 # h*
   4300      1   1 -0.820000    17.566634247    19.418651395    23.514177610   0   0   0 # o*
   4301      1   2  0.410000    17.756828493    19.428221701    22.549792071   0   0   0 # h*
   4302      1   2  0.410000    16.564857009    19.455207201    23.383460911   0   0   0 # h*
   4303      1   1 -0.820000    21.591116065    14.178299318    38.650163641   0   0   0 # o*
   4304      1   2  0.410000    20.632904981    14.049515687    38.595722450   0   0   0 # h*
   4305      1   2  0.410000    21.818004381    13.361987761    39.153469249   0   0   0 # h*
   4306      1   1 -0.820000     6.850006972     0.512010551    35.018482630   0   0   0 # o*
   4307      1   2  0.410000     6.650572997     1.081868587    34.263414915   0   0   0 # h*
   4308      1   2  0.410000     6.920511530     1.195690593    35.732480250   0   0   0 # h*
   4309      1   1 -0.820000     9.764345380    21.235003193    39.205998660   0   0   0 # o*
   4310      1   2  0.410000     9.418203398    -0.455888981    38.485228518   0   1   0 # h*
   4311      1   2  0.410000     9.200314542    20.458500575    39.155636756   0   0   0 # h*
   4312      1   1 -0.820000    13.351930301    14.219163082    31.773527414   0   0   0 # o*
   4313      1   2  0.410000    13.701541588    13.620713522    31.116656486   0   0   0 # h*
   4314      1   2  0.410000    12.507643480    14.486484876    31.324275058   0   0   0 # h*
   4315      1   1 -0.820000    14.425202376     1.133560898    58.407293667   0   0   0 # o*
   4316      1   2  0.410000    13.606996252     1.405398796    57.935692138   0   0   0 # h*
   4317      1   2  0.410000    15.172618448     1.410129277    57.789838284   0   0   0 # h*
   4318      1   1 -0.820000    12.990927038    16.734447770    40.402948912   0   0   0 # o*
   4319      1   2  0.410000    12.938628344    16.640498855    39.406843593   0   0   0 # h*
   4320      1   2  0.410000    12.501985931    17.575846013    40.447111577   0   0   0 # h*
   4321      1   1 -0.820000     9.550755107    17.018799952    56.807856888   0   0   0 # o*
   4322      1   2  0.410000     9.587039231    17.995873447    56.848885410   0   0   0 # h*
   4323      1   2  0.410000     9.668459915    16.923905642    55.825240649   0   0   0 # h*
   4324      1   1 -0.820000     6.393747791    11.081843924    64.008544524   0   0   0 # o*
   4325      1   2  0.410000     5.659765024    10.861896561    63.385675107   0   0   0 # h*
   4326      1   2  0.410000     5.956684312    11.126855708    64.880245669   0   0   0 # h*
   4327      1   1 -0.820000     9.782382211     0.111196853    29.556983405   0   1   0 # o*
   4328      1   2  0.410000     9.951346583     0.056333162    30.535001636   0   1   0 # h*
   4329      1   2  0.410000     8.839391286     0.313000071    29.517281172   0   1   0 # h*
   4330      1   1 -0.820000     1.927605581    20.874544463    60.979049582   0   0   0 # o*
   4331      1   2  0.410000     1.993644685    19.980746104    61.328814086   0   0   0 # h*
   4332      1   2  0.410000     1.657281433    21.351087825    61.786217674   0   0   0 # h*
   4333      1   1 -0.820000    16.522813882     1.244682954    30.508556314   0   0   0 # o*
   4334      1   2  0.410000    17.260912150     0.679504240    30.235693140   0   0   0 # h*
   4335      1   2  0.410000    16.133289028     0.700205539    31.288810824   0   0   0 # h*
   4336      1   1 -0.820000    19.900401264     3.684818205    60.543328064   0   0   0 # o*
   4337      1   2  0.410000    19.608454536     4.619159618    60.499416218   0   0   0 # h*
   4338      1   2  0.410000    19.131996397     3.132100029    60.551712378   0   0   0 # h*
   4339      1   1 -0.820000    14.698523674     8.399236952    44.042369717   0   0   0 # o*
   4340      1   2  0.410000    15.231474113     9.169362024    44.329114532   0   0   0 # h*
   4341      1   2  0.410000    13.859279892     8.453475256    44.548682225   0   0   0 # h*
   4342      1   1 -0.820000     0.703021351    14.475858878    34.339317856   0   0   0 # o*
   4343      1   2  0.410000     0.808030645    15.444237644    34.267687322   0   0   0 # h*
   4344      1   2  0.410000     0.673935952    14.265975008    33.391541787   0   0   0 # h*
   4345      1   1 -0.820000     5.185642015     1.949023237    45.558704884   0   0   0 # o*
   4346      1   2  0.410000     5.596494212     2.044045269    46.451523422   0   0   0 # h*
   4347      1   2  0.410000     5.621828151     2.631990890    45.073742317   0   0   0 # h*
   4348      1   1 -0.820000    18.922653318    19.242992448    45.683295765   0   0   0 # o*
   4349      1   2  0.410000    19.150717463    18.994833756    44.764840515   0   0   0 # h*
   4350      1   2  0.410000    18.017982295    18.799182384    45.776015516   0   0   0 # h*
   4351      1   1 -0.820000     4.917984112    10.503766454    33.426596440   0   0   0 # o*
   4352      1   2  0.410000     4.319481014     9.797016446    33.082974797   0   0   0 # h*
   4353      1   2  0.410000     4.654804392    10.459244528    34.365338516   0   0   0 # h*
   4354      1   1 -0.820000    16.765742433    16.109333788    41.907567814   0   0   0 # o*
   4355      1   2  0.410000    17.194982005    15.265163009    41.589348752   0   0   0 # h*
   4356      1   2  0.410000    17.213719373    16.034997040    42.761474055   0   0   0 # h*
   4357      1   1 -0.820000    16.237791779     4.555189067    28.347632780   0   0   0 # o*
   4358      1   2  0.410000    15.478245678     4.990251354    28.779021530   0   0   0 # h*
   4359      1   2  0.410000    16.931702355     4.795507758    29.009452209   0   0   0 # h*
   4360      1   1 -0.820000     4.377549537    14.359732285    29.010953647   0   0   0 # o*
   4361      1   2  0.410000     3.933746973    15.179196094    29.283173674   0   0   0 # h*
   4362      1   2  0.410000     4.809769113    14.160739360    29.849727440   0   0   0 # h*
   4363      1   1 -0.820000    13.698064776    12.043514990    58.253633813   0   0   0 # o*
   4364      1   2  0.410000    14.242545281    11.212996142    58.385556961   0   0   0 # h*
   4365      1   2  0.410000    13.264172689    11.838046508    57.354371739   0   0   0 # h*
   4366      1   1 -0.820000     4.759365941    15.339736575    52.928549404   0   0   0 # o*
   4367      1   2  0.410000     4.825137018    14.375733089    53.154514002   0   0   0 # h*
   4368      1   2  0.410000     4.143559947    15.233881512    52.176761004   0   0   0 # h*
   4369      1   1 -0.820000    21.453109818    17.606145851    23.684512575   0   0   0 # o*
   4370      1   2  0.410000    21.145159092    17.201873381    22.852265458   0   0   0 # h*
   4371      1   2  0.410000    21.591539479    16.762444296    24.188105856   0   0   0 # h*
   4372      1   1 -0.820000    10.868052508    14.439334119    59.020985546   0   0   0 # o*
   4373      1   2  0.410000    10.583863726    13.619393400    59.459422182   0   0   0 # h*
   4374      1   2  0.410000    10.558960681    15.130548603    59.642509020   0   0   0 # h*
   4375      1   1 -0.820000     9.761348115    18.875570230    34.739570607   0   0   0 # o*
   4376      1   2  0.410000    10.666426524    18.489917011    34.538883714   0   0   0 # h*
   4377      1   2  0.410000     9.641588009    19.523761827    34.035112370   0   0   0 # h*
   4378      1   1 -0.820000    19.473702799    17.142222201    57.437040104   0   0   0 # o*
   4379      1   2  0.410000    19.277018714    16.548097195    58.231626587   0   0   0 # h*
   4380      1   2  0.410000    20.402781829    17.463240993    57.727913369   0   0   0 # h*
   4381      1   1 -0.820000    20.523834902     5.650105147    64.628697791   0   0   0 # o*
   4382      1   2  0.410000    19.870282731     6.387700183    64.512875819   0   0   0 # h*
   4383      1   2  0.410000    21.344413042     6.194980902    64.426538464   0   0   0 # h*
   4384      1   1 -0.820000     3.038091133     2.278418638    58.296495951   0   0   0 # o*
   4385      1   2  0.410000     2.370574201     3.045561096    58.387658267   0   0   0 # h*
   4386      1   2  0.410000     2.532584663     1.493122020    58.058190656   0   0   0 # h*
   4387      1   1 -0.820000     7.425383493    12.823536429    26.460967832   0   0   0 # o*
   4388      1   2  0.410000     7.694328889    13.538855268    27.107939080   0   0   0 # h*
   4389      1   2  0.410000     6.629988474    13.288187990    26.191645547   0   0   0 # h*
   4390      1   1 -0.820000    14.357829850    17.280506012    42.725966427   0   0   0 # o*
   4391      1   2  0.410000    15.268824575    17.083711606    42.374828518   0   0   0 # h*
   4392      1   2  0.410000    13.881637617    16.825661150    42.005621695   0   0   0 # h*
   4393      1   1 -0.820000    11.326845888     1.441736858    60.190120709   0   0   0 # o*
   4394      1   2  0.410000    11.452416269     1.446124642    59.242807689   0   0   0 # h*
   4395      1   2  0.410000    10.659062200     0.715800658    60.262896244   0   0   0 # h*
   4396      1   1 -0.820000    15.945314110    12.127857422    42.383559145   0   0   0 # o*
   4397      1   2  0.410000    15.803567699    11.391176099    41.733187805   0   0   0 # h*
   4398      1   2  0.410000    15.136984036    12.654579034    42.284855522   0   0   0 # h*
   4399      1   1 -0.820000    22.938488949    17.109794363    25.098815438  -1   0   0 # o*
   4400      1   2  0.410000     1.319035859    17.161684744    25.455756595   0   0   0 # h*
   4401      1   2  0.410000    22.744972918    18.067068871    25.189012698  -1   0   0 # h*
   4402      1   1 -0.820000    16.143634023     2.233900508    26.628815386   0   0   0 # o*
   4403      1   2  0.410000    15.381086472     1.984831203    27.133973068   0   0   0 # h*
   4404      1   2  0.410000    16.689403111     2.812126627    27.228684468   0   0   0 # h*
   4405      1   1 -0.820000     2.368080657    15.872176788    45.899955980   0   0   0 # o*
   4406      1   2  0.410000     1.571675305    15.280931373    45.798116082   0   0   0 # h*
   4407      1   2  0.410000     2.870549618    15.326822090    46.483303735   0   0   0 # h*
   4408      1   1 -0.820000    16.896178339     4.266121797    23.145011830   0   0   0 # o*
   4409      1   2  0.410000    16.670255933     4.891289297    22.420224744   0   0   0 # h*
   4410      1   2  0.410000    17.633476770     3.784454162    22.701741332   0   0   0 # h*
   4411      1   1 -0.820000    17.592958756    14.882390530    44.237385889   0   0   0 # o*
   4412      1   2  0.410000    18.529495055    15.026347165    44.403136304   0   0   0 # h*
   4413      1   2  0.410000    17.616984621    13.878235864    44.269427572   0   0   0 # h*
   4414      1   1 -0.820000     1.440477558    19.560103302    34.876198877   0   0   0 # o*
   4415      1   2  0.410000     1.465520027    20.480283284    35.266590358   0   0   0 # h*
   4416      1   2  0.410000     1.944787449    19.096892366    35.562054220   0   0   0 # h*
   4417      1   1 -0.820000    12.382589877    18.475154907    62.596176356   0   0   0 # o*
   4418      1   2  0.410000    12.518428235    18.031893704    61.753921836   0   0   0 # h*
   4419      1   2  0.410000    12.988263061    19.222192167    62.477018520   0   0   0 # h*
   4420      1   1 -0.820000    11.908099459     2.869972122    51.587348430   0   0   0 # o*
   4421      1   2  0.410000    11.917086804     3.821012499    51.821014166   0   0   0 # h*
   4422      1   2  0.410000    11.126243429     2.844651957    51.026834787   0   0   0 # h*
   4423      1   1 -0.820000     5.783291896     1.640943984    36.834677543   0   0   0 # o*
   4424      1   2  0.410000     5.808737682     0.732980015    37.245501424   0   0   0 # h*
   4425      1   2  0.410000     4.819791412     1.806923035    36.782827923   0   0   0 # h*
   4426      1   1 -0.820000    11.092521006     7.720171549    36.851770300   0   0   0 # o*
   4427      1   2  0.410000    10.775114975     8.479474181    36.341735933   0   0   0 # h*
   4428      1   2  0.410000    11.250729721     8.075105602    37.754700625   0   0   0 # h*
   4429      1   1 -0.820000    10.313117333     4.253509854    65.731836078   0   0   0 # o*
   4430      1   2  0.410000    11.281412315     4.288385145    65.859265031   0   0   0 # h*
   4431      1   2  0.410000    10.153046002     3.560369058    65.071672542   0   0   0 # h*
   4432      1   1 -0.820000    19.236189115     6.291784295    33.860651170   0   0   0 # o*
   4433      1   2  0.410000    19.575257199     5.467277764    34.308078176   0   0   0 # h*
   4434      1   2  0.410000    18.406116585     6.397872243    34.463121037   0   0   0 # h*
   4435      1   1 -0.820000     7.966337453    18.360335822    47.094006366   0   0   0 # o*
   4436      1   2  0.410000     8.122522936    19.296985835    47.390367467   0   0   0 # h*
   4437      1   2  0.410000     8.800427554    17.981065208    47.493699143   0   0   0 # h*
   4438      1   1 -0.820000     8.466201212     6.521236802    36.443468527   0   0   0 # o*
   4439      1   2  0.410000     9.361562516     6.345062000    36.839150769   0   0   0 # h*
   4440      1   2  0.410000     8.714355846     6.776595516    35.538006264   0   0   0 # h*
   4441      1   1 -0.820000     5.594283634     7.653987877    25.560882773   0   0   0 # o*
   4442      1   2  0.410000     6.452624587     7.233933787    25.377172102   0   0   0 # h*
   4443      1   2  0.410000     5.861069496     8.590374398    25.383879208   0   0   0 # h*
   4444      1   1 -0.820000    19.530483931    13.926425248    57.084954756   0   0   0 # o*
   4445      1   2  0.410000    19.984993783    14.334729805    57.845069428   0   0   0 # h*
   4446      1   2  0.410000    19.914638978    13.065004101    57.037395138   0   0   0 # h*
   4447      1   1 -0.820000    15.482750841     7.959022827    54.162835311   0   0   0 # o*
   4448      1   2  0.410000    14.554695482     8.315906658    54.210433711   0   0   0 # h*
   4449      1   2  0.410000    15.457190972     7.517870754    55.000570182   0   0   0 # h*
   4450      1   1 -0.820000     0.824788829    18.344246539    57.553880598   0   0   0 # o*
   4451      1   2  0.410000     1.740030490    18.210940418    57.887269095   0   0   0 # h*
   4452      1   2  0.410000     0.617494396    17.385998089    57.460935309   0   0   0 # h*
   4453      1   1 -0.820000    21.815536923    11.722734835    35.391703184   0   0   0 # o*
   4454      1   2  0.410000    21.609955447    12.710186545    35.122788730   0   0   0 # h*
   4455      1   2  0.410000    20.867633729    11.476301023    35.604061436   0   0   0 # h*
   4456      1   1 -0.820000    20.560927757    21.393317411    35.486051113   0   0   0 # o*
   4457      1   2  0.410000    20.561785499    -0.029381926    34.999914994   0   1   0 # h*
   4458      1   2  0.410000    20.606923740    20.700620827    34.775948092   0   0   0 # h*
   4459      1   1 -0.820000     3.469722178    16.153248472    39.200740980   0   0   0 # o*
   4460      1   2  0.410000     4.407783329    16.089317599    39.517085439   0   0   0 # h*
   4461      1   2  0.410000     3.083908246    16.453143909    40.070240751   0   0   0 # h*
   4462      1   1 -0.820000     2.831466589    14.801286149    50.939643873   0   0   0 # o*
   4463      1   2  0.410000     2.348604786    15.447323064    50.344883240   0   0   0 # h*
   4464      1   2  0.410000     2.106202551    14.220121083    51.208484697   0   0   0 # h*
   4465      1   1 -0.820000    12.204092212    18.228164408    25.936376698   0   0   0 # o*
   4466      1   2  0.410000    13.236856056    18.284605869    26.048498988   0   0   0 # h*
   4467      1   2  0.410000    12.025909826    19.198207772    25.758950579   0   0   0 # h*
   4468      1   1 -0.820000    20.707834158    19.430756722    47.880570267   0   0   0 # o*
   4469      1   2  0.410000    20.205945155    19.399728980    47.054425366   0   0   0 # h*
   4470      1   2  0.410000    21.558857841    19.516837234    47.469654014   0   0   0 # h*
   4471      1   1 -0.820000    18.267013032     5.679245452    38.122829826   0   0   0 # o*
   4472      1   2  0.410000    18.020216434     4.732924295    38.125003882   0   0   0 # h*
   4473      1   2  0.410000    17.949135766     5.948937595    37.215032125   0   0   0 # h*
   4474      1   1 -0.820000     5.580562545     6.296495553    48.960079757   0   0   0 # o*
   4475      1   2  0.410000     5.520994059     7.233596108    48.666611072   0   0   0 # h*
   4476      1   2  0.410000     4.760824734     5.952660042    48.535836728   0   0   0 # h*
   4477      1   1 -0.820000     5.603057527     6.738192700    39.915887893   0   0   0 # o*
   4478      1   2  0.410000     4.861018937     7.391294022    39.922593921   0   0   0 # h*
   4479      1   2  0.410000     6.274170976     7.368463220    39.516461271   0   0   0 # h*
   4480      1   1 -0.820000     5.724145254    10.872042978    59.312218775   0   0   0 # o*
   4481      1   2  0.410000     6.583127646    10.676988559    59.783700053   0   0   0 # h*
   4482      1   2  0.410000     5.870372807    11.793788601    58.992444653   0   0   0 # h*
   4483      1   1 -0.820000     5.166172913    14.617495549    26.266182353   0   0   0 # o*
   4484      1   2  0.410000     4.962400054    14.248572061    27.136399812   0   0   0 # h*
   4485      1   2  0.410000     4.456107403    15.245633431    26.277898759   0   0   0 # h*
   4486      1   1 -0.820000    18.723426932     1.786644442    57.498927298   0   0   0 # o*
   4487      1   2  0.410000    18.237244196     0.990479867    57.743388136   0   0   0 # h*
   4488      1   2  0.410000    18.468799047     2.378959557    58.199410450   0   0   0 # h*
   4489      1   1 -0.820000     8.279959270    12.473944024    23.111559611   0   0   0 # o*
   4490      1   2  0.410000     8.738926062    11.636272481    23.420822838   0   0   0 # h*
   4491      1   2  0.410000     8.847694300    12.682897362    22.360202677   0   0   0 # h*
   4492      1   1 -0.820000     8.913256008     9.569395053    45.421069732   0   0   0 # o*
   4493      1   2  0.410000     9.299671578     9.394031182    46.325228016   0   0   0 # h*
   4494      1   2  0.410000     8.053488273     9.120857471    45.451609044   0   0   0 # h*
   4495      1   1 -0.820000    16.306310229    17.784291226    38.609746700   0   0   0 # o*
   4496      1   2  0.410000    15.964303933    17.452588785    39.484593047   0   0   0 # h*
   4497      1   2  0.410000    16.458918733    16.969023226    38.126864146   0   0   0 # h*
   4498      1   1 -0.820000    17.041905495     6.587114870    31.551428809   0   0   0 # o*
   4499      1   2  0.410000    16.219723991     6.440123859    31.038169624   0   0   0 # h*
   4500      1   2  0.410000    17.180769619     5.628775096    31.816909195   0   0   0 # h*
   4501      1   1 -0.820000     9.307538135     0.760513534    31.010002457   0   0   0 # o*
   4502      1   2  0.410000     9.548180140     1.040835055    31.916966093   0   0   0 # h*
   4503      1   2  0.410000     9.196501704    -0.190744528    31.198006540   0   0   0 # h*
   4504      1   1 -0.820000    17.328755379     9.156538031    52.222220179   0   0   0 # o*
   4505      1   2  0.410000    16.617025179     8.931478824    52.892011781   0   0   0 # h*
   4506      1   2  0.410000    17.049924388     8.682292449    51.410527478   0   0   0 # h*
   4507      1   1 -0.820000    20.629190021    14.266189497    51.953312164   0   0   0 # o*
   4508      1   2  0.410000    20.240631586    13.798935183    52.711757039   0   0   0 # h*
   4509      1   2  0.410000    20.403906528    13.657670069    51.219453590   0   0   0 # h*
   4510      1   1 -0.820000     2.985811611    13.525980551    37.455532859   0   0   0 # o*
   4511      1   2  0.410000     2.345097426    12.784926934    37.181523787   0   0   0 # h*
   4512      1   2  0.410000     2.391936055    14.277672648    37.720836244   0   0   0 # h*
   4513      1   1 -0.820000    22.819754303    19.476154289    45.893458010   0   0   0 # o*
   4514      1   2  0.410000    22.627343516    20.461663629    45.855471960   0   0   0 # h*
   4515      1   2  0.410000    22.838750460    19.290466137    44.970445674   0   0   0 # h*
   4516      1   1 -0.820000     2.668313972    12.755932427    67.310812469   0   0   0 # o*
   4517      1   2  0.410000     2.593281904    13.493450417    67.944860294   0   0   0 # h*
   4518      1   2  0.410000     3.022084682    12.043252135    67.939444838   0   0   0 # h*
   4519      1   1 -0.820000     0.633123602     3.281764870    32.311963691   0   0   0 # o*
   4520      1   2  0.410000    22.844569877     3.450819929    33.250554967  -1   0   0 # h*
   4521      1   2  0.410000     1.496081125     2.926023404    32.514824139   0   0   0 # h*
   4522      1   1 -0.820000     0.952204217     4.014387678    58.142435135   0   0   0 # o*
   4523      1   2  0.410000    22.518204981     3.955837502    58.056687376  -1   0   0 # h*
   4524      1   2  0.410000     1.197907331     4.025394967    57.162554475   0   0   0 # h*
   4525      1   1 -0.820000    13.409029897     0.022185551    34.871236371   0   0   0 # o*
   4526      1   2  0.410000    12.751646009    -0.288212419    34.189103463   0   0   0 # h*
   4527      1   2  0.410000    14.102433919     0.236957113    34.252219997   0   0   0 # h*
   4528      1   1 -0.820000    10.361432638    15.516625944    52.103212352   0   0   0 # o*
   4529      1   2  0.410000    11.325628247    15.343817579    52.123591456   0   0   0 # h*
   4530      1   2  0.410000    10.268862209    16.203533416    51.407761984   0   0   0 # h*
   4531      1   1 -0.820000    16.031617173     6.171167120    21.386738801   0   0   0 # o*
   4532      1   2  0.410000    15.737532942     6.783891609    22.103369358   0   0   0 # h*
   4533      1   2  0.410000    15.266699145     6.245355084    20.726954831   0   0   0 # h*
   4534      1   1 -0.820000     6.612080075    17.357547432    43.588778502   0   0   0 # o*
   4535      1   2  0.410000     6.098482687    18.089337552    44.044361811   0   0   0 # h*
   4536      1   2  0.410000     5.827636802    16.869782063    43.362962018   0   0   0 # h*
   4537      1   1 -0.820000    17.859000149    17.256728756    28.772016340   0   0   0 # o*
   4538      1   2  0.410000    17.674921840    18.086730830    28.348027312   0   0   0 # h*
   4539      1   2  0.410000    16.990701280    17.075999946    29.154262799   0   0   0 # h*
   4540      1   1 -0.820000     9.705999214     3.579587068    58.858217576   0   0   0 # o*
   4541      1   2  0.410000     9.983802336     3.327478883    59.730758683   0   0   0 # h*
   4542      1   2  0.410000    10.435777568     4.249941406    58.683452566   0   0   0 # h*
   4543      1   1 -0.820000     8.724825160     0.996942268    56.879766209   0   0   0 # o*
   4544      1   2  0.410000     9.206897607     1.756139742    57.204919545   0   0   0 # h*
   4545      1   2  0.410000     7.912650291     1.499358989    56.598050785   0   0   0 # h*
   4546      1   1 -0.820000    21.671607658    12.297807357    40.793304951   0   0   0 # o*
   4547      1   2  0.410000    21.569123299    12.538245758    41.768747431   0   0   0 # h*
   4548      1   2  0.410000    21.138382869    11.450504142    40.837089514   0   0   0 # h*
   4549      1   1 -0.820000    13.297684250    16.569111971    37.452657668   0   0   0 # o*
   4550      1   2  0.410000    13.861146630    17.348828825    37.225634804   0   0   0 # h*
   4551      1   2  0.410000    13.721678922    15.811362616    37.038110373   0   0   0 # h*
   4552      1   1 -0.820000    13.548680253    16.032125481    56.328105098   0   0   0 # o*
   4553      1   2  0.410000    14.330466858    16.510786501    56.044324726   0   0   0 # h*
   4554      1   2  0.410000    13.933795793    15.489805713    57.073339296   0   0   0 # h*
   4555      1   1 -0.820000    12.516740320    12.059140163    25.549365533   0   0   0 # o*
   4556      1   2  0.410000    13.436449933    12.266303784    25.300322531   0   0   0 # h*
   4557      1   2  0.410000    12.122708316    11.534653904    24.793854835   0   0   0 # h*
   4558      1   1 -0.820000    12.367059636    18.972696043    43.557160199   0   0   0 # o*
   4559      1   2  0.410000    12.285411867    18.976983815    44.566817335   0   0   0 # h*
   4560      1   2  0.410000    13.110034049    18.350155398    43.400485720   0   0   0 # h*
   4561      1   1 -0.820000    13.356886683    10.719546448    51.666070576   0   0   0 # o*
   4562      1   2  0.410000    13.877379739    10.562161842    52.479380195   0   0   0 # h*
   4563      1   2  0.410000    12.459777999    10.964574569    52.041606135   0   0   0 # h*
   4564      1   1 -0.820000    19.794550932     8.196486337    21.730682179   0   0   0 # o*
   4565      1   2  0.410000    19.713067698     9.127057763    21.635599790   0   0   0 # h*
   4566      1   2  0.410000    19.006416850     7.963326516    21.183081417   0   0   0 # h*
   4567      1   1 -0.820000     6.999447541     4.926303883    55.998713878   0   0   0 # o*
   4568      1   2  0.410000     7.152384983     4.822202486    56.969738412   0   0   0 # h*
   4569      1   2  0.410000     6.068113083     5.212785282    56.098302235   0   0   0 # h*
   4570      1   1 -0.820000     8.821256876    10.670396955    50.270479561   0   0   0 # o*
   4571      1   2  0.410000     9.380487418    11.215347640    50.879638411   0   0   0 # h*
   4572      1   2  0.410000     7.970635349    11.237736716    50.270138468   0   0   0 # h*
   4573      1   1 -0.820000     6.489327382    21.417484167    41.282487952   0   0   0 # o*
   4574      1   2  0.410000     6.502291287    20.746843903    41.992006477   0   0   0 # h*
   4575      1   2  0.410000     6.482887702    -0.075326545    41.854202448   0   1   0 # h*
   4576      1   1 -0.820000     6.136576334    21.288491963    51.967488053   0   0   0 # o*
   4577      1   2  0.410000     5.908719005    20.373145268    52.009825099   0   0   0 # h*
   4578      1   2  0.410000     6.072301898    21.426439767    50.959479132   0   0   0 # h*
   4579      1   1 -0.820000     1.494722315    16.841406595    48.976991989   0   0   0 # o*
   4580      1   2  0.410000     0.560387420    16.656120828    49.291934859   0   0   0 # h*
   4581      1   2  0.410000     1.568067126    17.798181820    49.175162169   0   0   0 # h*
   4582      1   1 -0.820000    10.797316709     2.496435699    39.786910228   0   0   0 # o*
   4583      1   2  0.410000    10.996553322     3.164620964    39.096988337   0   0   0 # h*
   4584      1   2  0.410000    10.960130976     1.662927333    39.312003540   0   0   0 # h*
   4585      1   1 -0.820000    20.358196369    12.886108180    23.979536377   0   0   0 # o*
   4586      1   2  0.410000    20.528524962    12.808321517    24.935423118   0   0   0 # h*
   4587      1   2  0.410000    20.637577181    11.978424639    23.774547656   0   0   0 # h*
   4588      1   1 -0.820000    13.177512685     6.236141845    49.193957482   0   0   0 # o*
   4589      1   2  0.410000    13.126892637     7.230432346    49.381169154   0   0   0 # h*
   4590      1   2  0.410000    12.257805666     6.166069166    48.910762763   0   0   0 # h*
   4591      1   1 -0.820000    14.739079626    11.531942094    54.243815110   0   0   0 # o*
   4592      1   2  0.410000    14.972385198    12.459452155    53.984236805   0   0   0 # h*
   4593      1   2  0.410000    15.451004122    11.402822057    54.915221404   0   0   0 # h*
   4594      1   1 -0.820000    15.059587062     6.425763663    44.740358182   0   0   0 # o*
   4595      1   2  0.410000    15.295699325     7.255329317    44.204007403   0   0   0 # h*
   4596      1   2  0.410000    15.374652105     5.832691237    44.049077895   0   0   0 # h*
   4597      1   1 -0.820000    21.260849589    12.130153095    66.640512950   0   0   0 # o*
   4598      1   2  0.410000    21.860589603    12.682620001    66.057352282   0   0   0 # h*
   4599      1   2  0.410000    21.726103143    11.257709253    66.704641407   0   0   0 # h*
   4600      1   1 -0.820000    13.416373913     8.989167070    49.475266118   0   0   0 # o*
   4601      1   2  0.410000    13.379720276     9.456649315    50.337612497   0   0   0 # h*
   4602      1   2  0.410000    13.047451764     9.675769181    48.842586062   0   0   0 # h*
   4603      1   1 -0.820000     1.272306738    20.972484978    54.602113652   0   0   0 # o*
   4604      1   2  0.410000     0.831659960    21.280140734    55.469322839   0   0   0 # h*
   4605      1   2  0.410000     1.235342732    -0.446341118    54.092595786   0   1   0 # h*
   4606      1   1 -0.820000    18.232550214     8.746337132    37.411201530   0   0   0 # o*
   4607      1   2  0.410000    18.683761129     9.283422008    36.705846078   0   0   0 # h*
   4608      1   2  0.410000    18.545038077     9.282599567    38.196521562   0   0   0 # h*
   4609      1   1 -0.820000    18.311739412    19.133289255    36.279418670   0   0   0 # o*
   4610      1   2  0.410000    18.655956897    19.225999941    37.246125770   0   0   0 # h*
   4611      1   2  0.410000    17.707239353    19.899189159    36.248257956   0   0   0 # h*
   4612      1   1 -0.820000     3.758680741    14.651026951    30.216612583   0   0   0 # o*
   4613      1   2  0.410000     4.118262355    15.491370310    29.764358774   0   0   0 # h*
   4614      1   2  0.410000     2.825040890    14.674656176    30.022817773   0   0   0 # h*
   4615      1   1 -0.820000    12.999062846     4.790438870    65.390924913   0   0   0 # o*
   4616      1   2  0.410000    13.353247834     5.728170845    65.259333538   0   0   0 # h*
   4617      1   2  0.410000    13.483183930     4.367050677    64.670239052   0   0   0 # h*
   4618      1   1 -0.820000    19.234831638     6.782931226    61.202572555   0   0   0 # o*
   4619      1   2  0.410000    18.599039601     7.499888702    61.019699472   0   0   0 # h*
   4620      1   2  0.410000    19.170010071     6.674155201    62.210804067   0   0   0 # h*
   4621      1   1 -0.820000     7.717954936    15.030744663    50.222070429   0   0   0 # o*
   4622      1   2  0.410000     6.954090304    14.737750308    49.668564590   0   0   0 # h*
   4623      1   2  0.410000     8.421340851    14.640533563    49.705150703   0   0   0 # h*
   4624      1   1 -0.820000    12.293772349    11.530039157    55.631037431   0   0   0 # o*
   4625      1   2  0.410000    13.062760381    11.520876540    55.014114497   0   0   0 # h*
   4626      1   2  0.410000    11.990867411    12.445987741    55.432770035   0   0   0 # h*
   4627      1   1 -0.820000    14.764561837    12.594828742    64.236797206   0   0   0 # o*
   4628      1   2  0.410000    14.226725248    11.836992726    64.034939549   0   0   0 # h*
   4629      1   2  0.410000    14.204586779    12.816851955    65.015439671   0   0   0 # h*
   4630      1   1 -0.820000    14.082981249    14.030130737    41.622963621   0   0   0 # o*
   4631      1   2  0.410000    13.238192661    14.181334338    42.097938135   0   0   0 # h*
   4632      1   2  0.410000    14.018952785    14.760322677    41.019377906   0   0   0 # h*
   4633      1   1 -0.820000    14.001857029    10.683386539    40.875378099   0   0   0 # o*
   4634      1   2  0.410000    13.317861521    10.268683306    40.301883979   0   0   0 # h*
   4635      1   2  0.410000    13.678007588    10.289103266    41.726894908   0   0   0 # h*
   4636      1   1 -0.820000    10.482914671    11.026053067    39.376752380   0   0   0 # o*
   4637      1   2  0.410000     9.928527492    11.368716584    40.085538014   0   0   0 # h*
   4638      1   2  0.410000    10.136539331    11.588661667    38.649867021   0   0   0 # h*
   4639      1   1 -0.820000    21.335185612    20.464590631    40.686193493   0   0   0 # o*
   4640      1   2  0.410000    20.839417241    19.651072322    40.733221822   0   0   0 # h*
   4641      1   2  0.410000    21.492715720    20.517701749    39.742095317   0   0   0 # h*
   4642      1   1 -0.820000    10.256155875     6.854411655    49.138494847   0   0   0 # o*
   4643      1   2  0.410000    10.360526954     7.736653092    48.725678547   0   0   0 # h*
   4644      1   2  0.410000     9.637066060     7.036849484    49.922339924   0   0   0 # h*
   4645      1   1 -0.820000    19.453360045    12.768174534    54.025218138   0   0   0 # o*
   4646      1   2  0.410000    18.914501183    12.321350596    53.372259896   0   0   0 # h*
   4647      1   2  0.410000    19.788912527    11.968640753    54.457472948   0   0   0 # h*
   4648      1   1 -0.820000    21.097736730    14.955542406    22.242603350   0   0   0 # o*
   4649      1   2  0.410000    21.049134816    14.312321713    22.997399399   0   0   0 # h*
   4650      1   2  0.410000    21.090229159    14.231559805    21.509393276   0   0   0 # h*
   4651      1   1 -0.820000    11.258828353    14.661796410    41.916768922   0   0   0 # o*
   4652      1   2  0.410000    10.451022906    15.239736777    42.055277760   0   0   0 # h*
   4653      1   2  0.410000    11.625720468    15.172861269    41.200716400   0   0   0 # h*
   4654      1   1 -0.820000    17.645122069    16.408834933    53.019325799   0   0   0 # o*
   4655      1   2  0.410000    18.004744117    17.261385707    52.832122258   0   0   0 # h*
   4656      1   2  0.410000    18.225150796    16.126159125    53.723854496   0   0   0 # h*
   4657      1   1 -0.820000     4.065037979     4.710989630    25.117251993   0   0   0 # o*
   4658      1   2  0.410000     3.976553535     5.425800206    24.459591029   0   0   0 # h*
   4659      1   2  0.410000     4.897027222     4.346313506    24.833280247   0   0   0 # h*
   4660      1   1 -0.820000    20.152251880     4.409972119    30.043359050   0   0   0 # o*
   4661      1   2  0.410000    20.217468330     3.427343903    29.843665116   0   0   0 # h*
   4662      1   2  0.410000    19.809246643     4.330642203    30.976571489   0   0   0 # h*
   4663      1   1 -0.820000     5.959991543     2.384296975    33.477838808   0   0   0 # o*
   4664      1   2  0.410000     6.181974182     2.476319047    32.485806588   0   0   0 # h*
   4665      1   2  0.410000     6.061181219     3.323084295    33.682747823   0   0   0 # h*
   4666      1   1 -0.820000    14.289781534    21.334001319    28.092179082   0   0   0 # o*
   4667      1   2  0.410000    15.003852025    -0.423313007    28.599643339   0   1   0 # h*
   4668      1   2  0.410000    14.652382870    21.330775980    27.144962224   0   0   0 # h*
   4669      1   1 -0.820000     9.088738401     9.784635674    23.773479692   0   0   0 # o*
   4670      1   2  0.410000    10.038252172     9.691931475    23.624610762   0   0   0 # h*
   4671      1   2  0.410000     8.891071594     8.819493398    23.938609429   0   0   0 # h*
   4672      1   1 -0.820000    21.159815282    18.052507664    28.767884057   0   0   0 # o*
   4673      1   2  0.410000    20.289713131    18.483166303    28.925153688   0   0   0 # h*
   4674      1   2  0.410000    21.554795609    18.104466387    29.684479346   0   0   0 # h*
   4675      1   1 -0.820000     2.884356794     8.123033690    25.107299279   0   0   0 # o*
   4676      1   2  0.410000     2.450526440     7.363278612    25.511857386   0   0   0 # h*
   4677      1   2  0.410000     3.882783421     8.047154116    25.189069992   0   0   0 # h*
   4678      1   1 -0.820000    10.983207788    21.206615421    48.646826896   0   0   0 # o*
   4679      1   2  0.410000    11.916007298    21.588831366    48.587902524   0   0   0 # h*
   4680      1   2  0.410000    10.887861057    21.088723401    49.629972480   0   0   0 # h*
   4681      1   1 -0.820000     7.740880370     6.776613841    42.009565569   0   0   0 # o*
   4682      1   2  0.410000     7.803471386     5.821455864    42.261238266   0   0   0 # h*
   4683      1   2  0.410000     6.869099942     6.753232423    41.597571889   0   0   0 # h*
   4684      1   1 -0.820000    11.158999091    14.825138754    30.053728684   0   0   0 # o*
   4685      1   2  0.410000    11.447728396    15.773385507    29.871981606   0   0   0 # h*
   4686      1   2  0.410000    11.073007172    14.512365902    29.121286205   0   0   0 # h*
   4687      1   1 -0.820000     2.101503678     6.436878566    41.374405847   0   0   0 # o*
   4688      1   2  0.410000     2.558137701     6.790032279    40.587615396   0   0   0 # h*
   4689      1   2  0.410000     1.267806349     6.982380556    41.361683182   0   0   0 # h*
   4690      1   1 -0.820000    13.124286999     3.557867633    41.085728996   0   0   0 # o*
   4691      1   2  0.410000    13.548344737     3.435602608    40.260550062   0   0   0 # h*
   4692      1   2  0.410000    12.307009035     3.022827382    40.946806106   0   0   0 # h*
   4693      1   1 -0.820000    21.214705662     2.864661094    22.944969822   0   0   0 # o*
   4694      1   2  0.410000    20.303505477     2.557674805    23.014444220   0   0   0 # h*
   4695      1   2  0.410000    21.733466820     2.048692834    23.220256817   0   0   0 # h*
   4696      1   1 -0.820000    11.818295070    20.870717526    60.482258072   0   0   0 # o*
   4697      1   2  0.410000    11.079638664    20.984511985    61.144363498   0   0   0 # h*
   4698      1   2  0.410000    11.471484012    21.316772907    59.723792676   0   0   0 # h*
   4699      1   1 -0.820000     8.017909147    15.283061662    27.842057319   0   0   0 # o*
   4700      1   2  0.410000     7.429508237    15.872871768    28.282091225   0   0   0 # h*
   4701      1   2  0.410000     8.769268387    15.912102428    27.671860856   0   0   0 # h*
   4702      1   1 -0.820000    14.277506461    20.726548340    63.311723765   0   0   0 # o*
   4703      1   2  0.410000    13.537982368    21.354331775    63.665160750   0   0   0 # h*
   4704      1   2  0.410000    14.927027841    20.746067005    64.032621778   0   0   0 # h*
   4705      1   1 -0.820000    12.047746723    18.667278571    56.569479946   0   0   0 # o*
   4706      1   2  0.410000    11.324684793    18.866408028    55.935315053   0   0   0 # h*
   4707      1   2  0.410000    12.197850649    17.721444506    56.430636828   0   0   0 # h*
   4708      1   1 -0.820000     0.454453381     2.170791208    63.726894692   0   0   0 # o*
   4709      1   2  0.410000     0.988007097     1.999836532    62.950521007   0   0   0 # h*
   4710      1   2  0.410000     0.994282744     2.800925097    64.225996412   0   0   0 # h*
   4711      1   1 -0.820000    16.054895788    18.831930921    45.862635217   0   0   0 # o*
   4712      1   2  0.410000    16.299509340    19.219997014    46.754482311   0   0   0 # h*
   4713      1   2  0.410000    15.223417795    18.413970938    46.007193024   0   0   0 # h*
   4714      1   1 -0.820000    12.858999001     9.837018358    32.253404846   0   0   0 # o*
   4715      1   2  0.410000    11.969510674     9.904157562    31.900607464   0   0   0 # h*
   4716      1   2  0.410000    12.942706979    10.723450747    32.674464500   0   0   0 # h*
   4717      1   1 -0.820000     9.826180636    19.792064086    23.000855281   0   0   0 # o*
   4718      1   2  0.410000    10.266695665    18.963739692    22.757108513   0   0   0 # h*
   4719      1   2  0.410000    10.559833580    20.458989314    23.019710590   0   0   0 # h*
   4720      1   1 -0.820000    15.123527922    17.893576840    20.807923484   0   0   0 # o*
   4721      1   2  0.410000    14.593154734    17.352955658    21.407631695   0   0   0 # h*
   4722      1   2  0.410000    14.514154879    18.671932274    20.699280274   0   0   0 # h*
   4723      1   1 -0.820000     5.793425857     8.006647043    46.832529441   0   0   0 # o*
   4724      1   2  0.410000     5.834144944     8.859034147    47.315091630   0   0   0 # h*
   4725      1   2  0.410000     4.837544445     7.894528357    46.681346006   0   0   0 # h*
   4726      1   1 -0.820000     7.804390997     4.427493926    49.781369728   0   0   0 # o*
   4727      1   2  0.410000     8.638139206     3.853824563    49.866650191   0   0   0 # h*
   4728      1   2  0.410000     7.985619410     4.794311339    48.889861402   0   0   0 # h*
   4729      1   1 -0.820000    14.660454715     4.094836288    59.665229953   0   0   0 # o*
   4730      1   2  0.410000    15.179891391     3.901987637    58.846852266   0   0   0 # h*
   4731      1   2  0.410000    14.524786084     3.246200892    60.104563791   0   0   0 # h*
   4732      1   1 -0.820000    22.132798212     6.123519776    60.702171521   0   0   0 # o*
   4733      1   2  0.410000    22.808295931     6.830183374    60.844245359   0   0   0 # h*
   4734      1   2  0.410000    21.260492286     6.570632951    60.862401764   0   0   0 # h*
   4735      1   1 -0.820000    22.129789258    -0.490977550    63.531901831   0   1   0 # o*
   4736      1   2  0.410000    22.969504799    21.683803594    64.050039146   0   0   0 # h*
   4737      1   2  0.410000    22.468342308    21.461878048    62.650411333   0   0   0 # h*
   4738      1   1 -0.820000    20.960604344    10.189852575    23.589265437   0   0   0 # o*
   4739      1   2  0.410000    20.474825114     9.432524047    23.921088934   0   0   0 # h*
   4740      1   2  0.410000    21.377561498     9.695448231    22.795158744   0   0   0 # h*
   4741      1   1 -0.820000     7.947247195    16.899656256    28.892390906   0   0   0 # o*
   4742      1   2  0.410000     7.088410807    16.847103651    28.391481494   0   0   0 # h*
   4743      1   2  0.410000     8.307031043    16.014715044    28.720240548   0   0   0 # h*
   4744      1   1 -0.820000    15.221742580     2.487504375    53.765644707   0   0   0 # o*
   4745      1   2  0.410000    15.600669401     3.306070058    53.353115610   0   0   0 # h*
   4746      1   2  0.410000    14.590535557     2.866223970    54.415435583   0   0   0 # h*
   4747      1   1 -0.820000    20.181195280    18.803208417    25.810696526   0   0   0 # o*
   4748      1   2  0.410000    20.693482780    18.449055259    26.584951932   0   0   0 # h*
   4749      1   2  0.410000    20.778399737    18.446279691    25.097973974   0   0   0 # h*
   4750      1   1 -0.820000     4.351241066     5.149885766    57.320260841   0   0   0 # o*
   4751      1   2  0.410000     4.605882251     5.093725428    58.226575961   0   0   0 # h*
   4752      1   2  0.410000     3.648545117     5.865775960    57.363726523   0   0   0 # h*
   4753      1   1 -0.820000    14.175051580     8.444866693    25.829824640   0   0   0 # o*
   4754      1   2  0.410000    13.184609029     8.336727417    25.986687203   0   0   0 # h*
   4755      1   2  0.410000    14.550597270     7.564307419    26.006870370   0   0   0 # h*
   4756      1   1 -0.820000    19.305413370     1.274841028    65.006920525   0   0   0 # o*
   4757      1   2  0.410000    20.044288331     1.649613070    64.446615225   0   0   0 # h*
   4758      1   2  0.410000    18.788293972     2.093392222    65.180972036   0   0   0 # h*
   4759      1   1 -0.820000    14.111052312     0.767573223    65.022468507   0   0   0 # o*
   4760      1   2  0.410000    14.705916292     1.264808423    65.664081879   0   0   0 # h*
   4761      1   2  0.410000    14.537141215    -0.126281566    64.924972427   0   0   0 # h*
   4762      1   1 -0.820000    20.527819471     1.479742705    29.889754091   0   0   0 # o*
   4763      1   2  0.410000    20.910854677     1.264647527    30.794480519   0   0   0 # h*
   4764      1   2  0.410000    21.250870670     1.251182461    29.260705241   0   0   0 # h*
   4765      1   1 -0.820000     6.732978117     6.335822299    51.421300350   0   0   0 # o*
   4766      1   2  0.410000     7.255668221     5.727448329    50.845870763   0   0   0 # h*
   4767      1   2  0.410000     7.361215553     7.085244832    51.496075331   0   0   0 # h*
   4768      1   1 -0.820000     5.277785065    20.119914214    62.454847596   0   0   0 # o*
   4769      1   2  0.410000     5.159539710    19.155132029    62.266644827   0   0   0 # h*
   4770      1   2  0.410000     5.377991490    20.131503090    63.487695100   0   0   0 # h*
   4771      1   1 -0.820000    20.286251073     4.255950068    53.925538553   0   0   0 # o*
   4772      1   2  0.410000    20.936467959     3.666363922    53.447494903   0   0   0 # h*
   4773      1   2  0.410000    20.798085551     4.356084279    54.742396794   0   0   0 # h*
   4774      1   1 -0.820000     2.688082924    19.933389508    43.684154935   0   0   0 # o*
   4775      1   2  0.410000     1.765364859    20.196353017    43.519728642   0   0   0 # h*
   4776      1   2  0.410000     3.144467512    20.758730347    43.323969979   0   0   0 # h*
   4777      1   1 -0.820000     9.534714688    12.747200557    37.337893923   0   0   0 # o*
   4778      1   2  0.410000     8.666634667    12.706054931    37.712824242   0   0   0 # h*
   4779      1   2  0.410000     9.243316415    13.160541969    36.486599615   0   0   0 # h*
   4780      1   1 -0.820000    19.089784192     4.887265470    43.792118244   0   0   0 # o*
   4781      1   2  0.410000    18.705177469     4.491690304    42.979942962   0   0   0 # h*
   4782      1   2  0.410000    18.694889298     4.267081798    44.441543229   0   0   0 # h*
   4783      1   1 -0.820000     0.580030400    13.177297004    51.350736290   0   0   0 # o*
   4784      1   2  0.410000    22.748884777    12.499271379    50.729320382  -1   0   0 # h*
   4785      1   2  0.410000     0.586707973    12.662896361    52.173094064   0   0   0 # h*
   4786      1   1 -0.820000     9.080159825     1.182720693    44.458132691   0   0   0 # o*
   4787      1   2  0.410000     8.949796093     0.230178293    44.757890739   0   0   0 # h*
   4788      1   2  0.410000     9.214858792     1.127754410    43.479698153   0   0   0 # h*
   4789      1   1 -0.820000     2.875543467     4.234363520    35.380404545   0   0   0 # o*
   4790      1   2  0.410000     2.824321195     4.655867336    34.460653245   0   0   0 # h*
   4791      1   2  0.410000     1.901677249     4.034607379    35.498112668   0   0   0 # h*
   4792      1   1 -0.820000     8.817412051     6.624586671    65.644894238   0   0   0 # o*
   4793      1   2  0.410000     8.236761637     5.818484289    65.423226748   0   0   0 # h*
   4794      1   2  0.410000     9.739548526     6.164337315    65.701218639   0   0   0 # h*
   4795      1   1 -0.820000     7.731883047     4.039589473    39.375073158   0   0   0 # o*
   4796      1   2  0.410000     7.681996161     3.947215007    40.340488009   0   0   0 # h*
   4797      1   2  0.410000     8.418145762     4.754871939    39.286768686   0   0   0 # h*
   4798      1   1 -0.820000    16.696932990    11.668495478    56.149072942   0   0   0 # o*
   4799      1   2  0.410000    16.913525551    12.639668587    56.065235624   0   0   0 # h*
   4800      1   2  0.410000    17.007530430    11.544223226    57.086550770   0   0   0 # h*
   4801      1   1 -0.820000     8.233566015    14.646436103    45.210030568   0   0   0 # o*
   4802      1   2  0.410000     7.362222501    14.152555900    44.978279088   0   0   0 # h*
   4803      1   2  0.410000     8.835891458    13.902624642    45.355618111   0   0   0 # h*
   4804      1   1 -0.820000    16.311659635    18.941891071    61.988389291   0   0   0 # o*
   4805      1   2  0.410000    15.697803072    19.616385463    62.322810851   0   0   0 # h*
   4806      1   2  0.410000    15.597398483    18.372339840    61.615822917   0   0   0 # h*
   4807      1   1 -0.820000    12.771845427     8.534024176    54.819346228   0   0   0 # o*
   4808      1   2  0.410000    12.527848431     9.376405703    55.305679087   0   0   0 # h*
   4809      1   2  0.410000    11.840760786     8.322791903    54.565434514   0   0   0 # h*
   4810      1   1 -0.820000     5.547490594    17.492919895    45.927621275   0   0   0 # o*
   4811      1   2  0.410000     5.042524998    17.201350424    46.691974671   0   0   0 # h*
   4812      1   2  0.410000     6.309723375    17.794743281    46.402089699   0   0   0 # h*
   4813      1   1 -0.820000    12.676861196    15.639282609    25.049942636   0   0   0 # o*
   4814      1   2  0.410000    11.977941094    15.027722827    24.722903919   0   0   0 # h*
   4815      1   2  0.410000    12.211525323    16.453190001    25.173869726   0   0   0 # h*
   4816      1   1 -0.820000     9.554572471     3.454582631    29.691401124   0   0   0 # o*
   4817      1   2  0.410000     9.558375392     2.775747350    30.377216668   0   0   0 # h*
   4818      1   2  0.410000    10.455906927     3.371115438    29.330704070   0   0   0 # h*
   4819      1   1 -0.820000    18.830299372     7.515880616    40.043835347   0   0   0 # o*
   4820      1   2  0.410000    18.618145108     6.763748059    39.394902045   0   0   0 # h*
   4821      1   2  0.410000    17.964255916     7.974380228    40.031640776   0   0   0 # h*
   4822      1   1 -0.820000     7.170870276     3.963496006    25.386498473   0   0   0 # o*
   4823      1   2  0.410000     7.810649514     3.813208867    24.631941604   0   0   0 # h*
   4824      1   2  0.410000     7.774615773     4.421284699    26.049609291   0   0   0 # h*
   4825      1   1 -0.820000     6.689051408    12.280180061    51.134517286   0   0   0 # o*
   4826      1   2  0.410000     6.142036925    12.168388131    51.945767908   0   0   0 # h*
   4827      1   2  0.410000     7.306753975    12.891454075    51.540881591   0   0   0 # h*
   4828      1   1 -0.820000     7.922316515     8.255051518    63.717611904   0   0   0 # o*
   4829      1   2  0.410000     8.222295521     7.858300540    64.559651411   0   0   0 # h*
   4830      1   2  0.410000     8.285132552     7.687550803    62.975006920   0   0   0 # h*
   4831      1   1 -0.820000     6.393532954    17.094096728    60.184113320   0   0   0 # o*
   4832      1   2  0.410000     6.753134273    16.277569698    59.680429823   0   0   0 # h*
   4833      1   2  0.410000     6.699775318    17.790705698    59.590190361   0   0   0 # h*
   4834      1   1 -0.820000     1.417454727     3.105347405    41.803607310   0   0   0 # o*
   4835      1   2  0.410000     1.492749395     2.135192209    41.788971868   0   0   0 # h*
   4836      1   2  0.410000     2.342297830     3.426223291    41.810233558   0   0   0 # h*
   4837      1   1 -0.820000     5.733554060     7.802721617    58.917782435   0   0   0 # o*
   4838      1   2  0.410000     6.120992364     8.509647095    59.432611344   0   0   0 # h*
   4839      1   2  0.410000     5.826131883     8.230597878    58.050267691   0   0   0 # h*
   4840      1   1 -0.820000    17.490541839    12.724194774    29.594054290   0   0   0 # o*
   4841      1   2  0.410000    18.410026727    12.315159270    29.681402387   0   0   0 # h*
   4842      1   2  0.410000    16.973289875    11.999079037    30.066381049   0   0   0 # h*
   4843      1   1 -0.820000    13.992465013    21.637544123    33.896980880   0   0   0 # o*
   4844      1   2  0.410000    14.456643206     0.003284178    34.460001512   0   1   0 # h*
   4845      1   2  0.410000    13.176384004    21.541090498    34.385835977   0   0   0 # h*
   4846      1   1 -0.820000    16.395200847    21.070024415    65.081216712   0   0   0 # o*
   4847      1   2  0.410000    17.108307178    20.439677596    65.315214658   0   0   0 # h*
   4848      1   2  0.410000    16.894062843    -0.332793676    65.235398377   0   1   0 # h*
   4849      1   1 -0.820000     6.508804889    12.036502096    47.983471040   0   0   0 # o*
   4850      1   2  0.410000     7.267089897    12.518643304    48.439949632   0   0   0 # h*
   4851      1   2  0.410000     5.885693188    12.768054668    47.929296956   0   0   0 # h*
   4852      1   1 -0.820000    13.518530653    19.196983229    32.455614657   0   0   0 # o*
   4853      1   2  0.410000    13.709989593    20.090465662    32.851699909   0   0   0 # h*
   4854      1   2  0.410000    13.133854736    19.607172366    31.675574254   0   0   0 # h*
   4855      1   1 -0.820000    16.516523252    16.026413841    58.222002904   0   0   0 # o*
   4856      1   2  0.410000    17.078682976    16.399557048    58.931574289   0   0   0 # h*
   4857      1   2  0.410000    15.950461419    15.438922124    58.757624195   0   0   0 # h*
   4858      1   1 -0.820000    12.043341715    20.994459240    26.241149708   0   0   0 # o*
   4859      1   2  0.410000    12.475905826    21.483879439    26.978735657   0   0   0 # h*
   4860      1   2  0.410000    11.103201706    21.292915245    26.338765058   0   0   0 # h*
   4861      1   1 -0.820000     2.595671043     1.399681747    23.257591569   0   0   0 # o*
   4862      1   2  0.410000     1.630203221     1.661967433    23.378393316   0   0   0 # h*
   4863      1   2  0.410000     3.065242251     1.573971883    24.131826722   0   0   0 # h*
   4864      1   1 -0.820000    10.113701244     2.115812425    33.314214767   0   0   0 # o*
   4865      1   2  0.410000     9.550938890     2.661125327    33.947013574   0   0   0 # h*
   4866      1   2  0.410000    10.434266160     2.925616529    32.837587748   0   0   0 # h*
   4867      1   1 -0.820000    11.911985942     0.776096063    64.697141785   0   0   0 # o*
   4868      1   2  0.410000    12.546007866     0.833234641    65.432037885   0   0   0 # h*
   4869      1   2  0.410000    11.600070529    -0.135368013    64.842282362   0   0   0 # h*
   4870      1   1 -0.820000     9.265420683     1.818498877    66.390595037   0   0   0 # o*
   4871      1   2  0.410000     9.671034243     2.583668268    66.838679998   0   0   0 # h*
   4872      1   2  0.410000     9.971692917     1.556144002    65.733579293   0   0   0 # h*
   4873      1   1 -0.820000     6.054903372    16.655060838    40.727136598   0   0   0 # o*
   4874      1   2  0.410000     6.040107142    17.554910753    40.450159975   0   0   0 # h*
   4875      1   2  0.410000     6.048297469    16.748080035    41.728911237   0   0   0 # h*
   4876      1   1 -0.820000     4.716909424    18.968220655    41.547886477   0   0   0 # o*
   4877      1   2  0.410000     5.475018852    19.120458457    42.157399301   0   0   0 # h*
   4878      1   2  0.410000     4.007456919    19.123685619    42.222729250   0   0   0 # h*
   4879      1   1 -0.820000     4.156736552     7.361683985    50.430705900   0   0   0 # o*
   4880      1   2  0.410000     5.032952261     7.247117038    50.812126854   0   0   0 # h*
   4881      1   2  0.410000     4.127466258     8.285895547    50.312140032   0   0   0 # h*
   4882      1   1 -0.820000     8.899463875    20.491343791    25.937282202   0   0   0 # o*
   4883      1   2  0.410000     8.218432454    19.874856214    26.275126752   0   0   0 # h*
   4884      1   2  0.410000     8.932814382    20.244514529    24.970122442   0   0   0 # h*
   4885      1   1 -0.820000    19.953445941    21.413096908    50.014699508   0   0   0 # o*
   4886      1   2  0.410000    20.041502082    20.567870254    49.551962389   0   0   0 # h*
   4887      1   2  0.410000    19.059453727    21.332887458    50.276720101   0   0   0 # h*
   4888      1   1 -0.820000    12.655264121    -0.384579874    45.594923860   0   1   0 # o*
   4889      1   2  0.410000    13.595039577    -0.152941093    45.831506632   0   1   0 # h*
   4890      1   2  0.410000    12.761850563    20.928366217    45.470092645   0   0   0 # h*
   4891      1   1 -0.820000     4.459451437     2.971942440    37.313591442   0   0   0 # o*
   4892      1   2  0.410000     4.990182923     3.778393179    37.137916354   0   0   0 # h*
   4893      1   2  0.410000     3.744426413     3.054517668    36.626669326   0   0   0 # h*
   4894      1   1 -0.820000     1.750805215    10.538613197    39.131406109   0   0   0 # o*
   4895      1   2  0.410000     1.539508690    10.742432253    38.198780128   0   0   0 # h*
   4896      1   2  0.410000     1.102834982    11.046659738    39.653539464   0   0   0 # h*

Bonds

     1   1      1      3
     2   1      1      2
     3   2      4      9
     4   1      5     25
     5   1      5     26
     6   3      8     12
     7   4      8     13
     8   4      8   2434
     9   3      8     57
    10   5      9     11
    11   6      9     14
    12   5      9     16
    13   3     10     12
    14   3     10     16
    15   4     10     17
    16   4     10     18
    17   3    100     11
    18   7     14     20
    19   1     15     21
    20   1     15     22
    21   1     19     23
    22   1     19     24
    23   2     27     32
    24   1     28     48
    25   1     28     49
    26   3     31     35
    27   4     31     36
    28   4     31   2435
    29   3     31     80
    30   5     32     34
    31   6     32     37
    32   5     32     39
    33   3     33     35
    34   3     33     39
    35   4     33     40
    36   4     33     41
    37   3    120     34
    38   7     37     43
    39   1     38     44
    40   1     38     45
    41   1     42     46
    42   1     42     47
    43   2     50     55
    44   1     51     71
    45   1     51     72
    46   3     54     58
    47   4     54     59
    48   4     54   2436
    49   3     54    103
    50   5     55     57
    51   6     55     60
    52   5     55     62
    53   3     56     58
    54   3     56     62
    55   4     56     63
    56   4     56     64
    57   7     60     66
    58   1     61     67
    59   1     61     68
    60   1     65     69
    61   1     65     70
    62   2     73     78
    63   1     74     94
    64   1     74     95
    65   3     77     81
    66   4     77     82
    67   4     77   2437
    68   3     77    123
    69   5     78     80
    70   6     78     83
    71   5     78     85
    72   3     79     81
    73   3     79     85
    74   4     79     86
    75   4     79     87
    76   7     83     89
    77   1     84     90
    78   1     84     91
    79   1     88     92
    80   1     88     93
    81   2     96    101
    82   1     97    114
    83   1     97    115
    84   3    100    104
    85   4    100    105
    86   4    100   2448
    87   5    101    103
    88   6    101    106
    89   5    101    108
    90   3    102    104
    91   3    102    108
    92   4    102    109
    93   4    102    110
    94   7    106    111
    95   1    107    112
    96   1    107    113
    97   2    116    121
    98   1    117    134
    99   1    117    135
   100   3    120    124
   101   4    120    125
   102   4    120   2449
   103   5    121    123
   104   6    121    126
   105   5    121    128
   106   3    122    124
   107   3    122    128
   108   4    122    129
   109   4    122    130
   110   7    126    131
   111   1    127    132
   112   1    127    133
   113   3    138    141
   114   3    138    142
   115   4    138    143
   116   4    138    144
   117   5    139    141
   118   6    139    146
   119   5    139    148
   120   2    177    139
   121   3    140    142
   122   4    140    149
   123   4    140   2418
   124   3    140    548
   125   2    145    172
   126   7    146    207
   127   1    147    210
   128   1    147    211
   129   3    340    148
   130   1    150    234
   131   1    150    235
   132   1    151    212
   133   1    151    213
   134   1    153    214
   135   1    153    215
   136   3    156    159
   137   3    156    160
   138   4    156    161
   139   4    156    162
   140   5    157    159
   141   6    157    164
   142   2    193    157
   143   5    157    366
   144   3    158    160
   145   3    158    166
   146   4    158    167
   147   4    158   2438
   148   2    163    188
   149   7    164    205
   150   1    165    228
   151   1    165    229
   152   5   1158    166
   153   1    168    218
   154   1    168    219
   155   3    171    175
   156   4    171    176
   157   4    171   2439
   158   3    171    374
   159   5    172    174
   160   6    172    178
   161   5    172    180
   162   3    173    175
   163   3    173    180
   164   4    173    181
   165   4    173    182
   166   3    567    174
   167   7    178    204
   168   1    179    230
   169   1    179    231
   170   1    183    208
   171   1    183    209
   172   1    184    232
   173   1    184    233
   174   3    187    190
   175   4    187    192
   176   4    187   2440
   177   3    187   1164
   178   5    188    190
   179   6    188    194
   180   5    188    196
   181   3    189    191
   182   3    189    196
   183   4    189    197
   184   4    189    198
   185   3    387    191
   186   7    194    206
   187   1    195    216
   188   1    195    217
   189   1    199    224
   190   1    199    225
   191   1    200    222
   192   1    200    223
   193   1    201    220
   194   1    201    221
   195   1    203    226
   196   1    203    227
   197   3    238    241
   198   3    238    242
   199   4    238    243
   200   4    238    244
   201   5    239    241
   202   6    239    246
   203   5    239    248
   204   2    277    239
   205   3    240    242
   206   4    240    249
   207   4    240   2419
   208   3    240    635
   209   2    245    272
   210   7    246    307
   211   1    247    310
   212   1    247    311
   213   3    440    248
   214   1    250    334
   215   1    250    335
   216   1    251    312
   217   1    251    313
   218   1    253    314
   219   1    253    315
   220   3    256    259
   221   3    256    260
   222   4    256    261
   223   4    256    262
   224   5    257    259
   225   6    257    264
   226   2    293    257
   227   5    257    466
   228   3    258    260
   229   3    258    266
   230   4    258    267
   231   4    258   2441
   232   2    263    288
   233   7    264    305
   234   1    265    328
   235   1    265    329
   236   5   1171    266
   237   1    268    318
   238   1    268    319
   239   3    271    275
   240   4    271    276
   241   4    271   2442
   242   3    271    474
   243   5    272    274
   244   6    272    278
   245   5    272    280
   246   3    273    275
   247   3    273    280
   248   4    273    281
   249   4    273    282
   250   3    654    274
   251   7    278    304
   252   1    279    330
   253   1    279    331
   254   1    283    308
   255   1    283    309
   256   1    284    332
   257   1    284    333
   258   3    287    290
   259   4    287    292
   260   4    287   2443
   261   3    287   1177
   262   5    288    290
   263   6    288    294
   264   5    288    296
   265   3    289    291
   266   3    289    296
   267   4    289    297
   268   4    289    298
   269   3    487    291
   270   7    294    306
   271   1    295    316
   272   1    295    317
   273   1    299    324
   274   1    299    325
   275   1    300    322
   276   1    300    323
   277   1    301    320
   278   1    301    321
   279   1    303    326
   280   1    303    327
   281   3    338    341
   282   3    338    342
   283   4    338    343
   284   4    338    344
   285   5    339    341
   286   6    339    346
   287   5    339    348
   288   2    377    339
   289   3    340    342
   290   4    340    349
   291   4    340   2404
   292   2    345    372
   293   7    346    407
   294   1    347    410
   295   1    347    411
   296   3    540    348
   297   1    350    434
   298   1    350    435
   299   1    351    412
   300   1    351    413
   301   1    353    414
   302   1    353    415
   303   3    356    359
   304   3    356    360
   305   4    356    361
   306   4    356    362
   307   5    357    359
   308   6    357    364
   309   2    393    357
   310   5    357    564
   311   3    358    360
   312   3    358    366
   313   4    358    367
   314   4    358   2405
   315   2    363    388
   316   7    364    405
   317   1    365    428
   318   1    365    429
   319   1    368    418
   320   1    368    419
   321   3    371    375
   322   4    371    376
   323   4    371   2406
   324   3    371    570
   325   5    372    374
   326   6    372    378
   327   5    372    380
   328   3    373    375
   329   3    373    380
   330   4    373    381
   331   4    373    382
   332   7    378    404
   333   1    379    430
   334   1    379    431
   335   1    383    408
   336   1    383    409
   337   1    384    432
   338   1    384    433
   339   3    387    390
   340   4    387    392
   341   4    387   2407
   342   5    388    390
   343   6    388    394
   344   5    388    396
   345   3    389    391
   346   3    389    396
   347   4    389    397
   348   4    389    398
   349   3    581    391
   350   7    394    406
   351   1    395    416
   352   1    395    417
   353   1    399    424
   354   1    399    425
   355   1    400    422
   356   1    400    423
   357   1    401    420
   358   1    401    421
   359   1    403    426
   360   1    403    427
   361   3    438    441
   362   3    438    442
   363   4    438    443
   364   4    438    444
   365   5    439    441
   366   6    439    446
   367   5    439    448
   368   2    477    439
   369   3    440    442
   370   4    440    449
   371   4    440   2408
   372   2    445    472
   373   7    446    507
   374   1    447    510
   375   1    447    511
   376   3    627    448
   377   1    450    534
   378   1    450    535
   379   1    451    512
   380   1    451    513
   381   1    453    514
   382   1    453    515
   383   3    456    459
   384   3    456    460
   385   4    456    461
   386   4    456    462
   387   5    457    459
   388   6    457    464
   389   2    493    457
   390   5    457    651
   391   3    458    460
   392   3    458    466
   393   4    458    467
   394   4    458   2409
   395   2    463    488
   396   7    464    505
   397   1    465    528
   398   1    465    529
   399   1    468    518
   400   1    468    519
   401   3    471    475
   402   4    471    476
   403   4    471   2410
   404   3    471    657
   405   5    472    474
   406   6    472    478
   407   5    472    480
   408   3    473    475
   409   3    473    480
   410   4    473    481
   411   4    473    482
   412   7    478    504
   413   1    479    530
   414   1    479    531
   415   1    483    508
   416   1    483    509
   417   1    484    532
   418   1    484    533
   419   3    487    490
   420   4    487    492
   421   4    487   2411
   422   5    488    490
   423   6    488    494
   424   5    488    496
   425   3    489    491
   426   3    489    496
   427   4    489    497
   428   4    489    498
   429   3    668    491
   430   7    494    506
   431   1    495    516
   432   1    495    517
   433   1    499    524
   434   1    499    525
   435   1    500    522
   436   1    500    523
   437   1    501    520
   438   1    501    521
   439   1    503    526
   440   1    503    527
   441   3    538    541
   442   3    538    542
   443   4    538    543
   444   4    538    544
   445   5    539    541
   446   6    539    546
   447   5    539    548
   448   2    573    539
   449   3    540    542
   450   4    540    549
   451   4    540   2412
   452   2    545    568
   453   7    546    598
   454   1    547    601
   455   1    547    602
   456   1    550    621
   457   1    550    622
   458   1    551    603
   459   1    551    604
   460   1    553    605
   461   1    553    606
   462   3    556    558
   463   3    556    559
   464   4    556    560
   465   4    556    561
   466   3    557    559
   467   3    557    564
   468   4    557    565
   469   4    557   2413
   470   5   1158    558
   471   2    562    582
   472   1    563    617
   473   1    563    618
   474   3    567    571
   475   4    567    572
   476   4    567   2450
   477   5    568    570
   478   6    568    574
   479   5    568    576
   480   3    569    571
   481   3    569    576
   482   4    569    577
   483   4    569    578
   484   7    574    596
   485   1    575    619
   486   1    575    620
   487   1    579    599
   488   1    579    600
   489   3    581    584
   490   4    581    585
   491   4    581   2414
   492   5    582    584
   493   6    582    586
   494   5    582    588
   495   3    583    588
   496   4    583    589
   497   4    583    590
   498   3    583   1164
   499   7    586    597
   500   1    587    607
   501   1    587    608
   502   1    591    613
   503   1    591    614
   504   1    592    611
   505   1    592    612
   506   1    593    609
   507   1    593    610
   508   1    595    615
   509   1    595    616
   510   3    625    628
   511   3    625    629
   512   4    625    630
   513   4    625    631
   514   5    626    628
   515   6    626    633
   516   5    626    635
   517   2    660    626
   518   3    627    629
   519   4    627    636
   520   4    627   2415
   521   2    632    655
   522   7    633    685
   523   1    634    688
   524   1    634    689
   525   1    637    708
   526   1    637    709
   527   1    638    690
   528   1    638    691
   529   1    640    692
   530   1    640    693
   531   3    643    645
   532   3    643    646
   533   4    643    647
   534   4    643    648
   535   3    644    646
   536   3    644    651
   537   4    644    652
   538   4    644   2416
   539   5   1171    645
   540   2    649    669
   541   1    650    704
   542   1    650    705
   543   3    654    658
   544   4    654    659
   545   4    654   2451
   546   5    655    657
   547   6    655    661
   548   5    655    663
   549   3    656    658
   550   3    656    663
   551   4    656    664
   552   4    656    665
   553   7    661    683
   554   1    662    706
   555   1    662    707
   556   1    666    686
   557   1    666    687
   558   3    668    671
   559   4    668    672
   560   4    668   2417
   561   5    669    671
   562   6    669    673
   563   5    669    675
   564   3    670    675
   565   4    670    676
   566   4    670    677
   567   3    670   1177
   568   7    673    684
   569   1    674    694
   570   1    674    695
   571   1    678    700
   572   1    678    701
   573   1    679    698
   574   1    679    699
   575   1    680    696
   576   1    680    697
   577   1    682    702
   578   1    682    703
   579   3    712    715
   580   3    712    716
   581   4    712    717
   582   4    712    718
   583   5    713    715
   584   6    713    719
   585   5    713    721
   586   2    741    713
   587   3    714    716
   588   4    714    722
   589   4    714   2432
   590   3    714   1029
   591   7    719    764
   592   1    720    767
   593   1    720    768
   594   3    868    721
   595   1    723    769
   596   1    723    770
   597   1    725    771
   598   1    725    772
   599   3    727    730
   600   3    727    731
   601   4    727    732
   602   4    727    733
   603   5    728    730
   604   6    728    735
   605   2    751    728
   606   5    728    891
   607   3    729    731
   608   3    729    737
   609   4    729    738
   610   4    729   2444
   611   2    734    746
   612   7    735    762
   613   1    736    785
   614   1    736    786
   615   5   1184    737
   616   1    739    775
   617   1    739    776
   618   1    742    765
   619   1    742    766
   620   3    745    748
   621   4    745    750
   622   4    745   2445
   623   3    745   1189
   624   5    746    748
   625   6    746    752
   626   5    746    754
   627   3    747    749
   628   3    747    754
   629   4    747    755
   630   4    747    756
   631   3    899    749
   632   7    752    763
   633   1    753    773
   634   1    753    774
   635   1    757    781
   636   1    757    782
   637   1    758    779
   638   1    758    780
   639   1    759    777
   640   1    759    778
   641   1    761    783
   642   1    761    784
   643   3    789    792
   644   3    789    793
   645   4    789    794
   646   4    789    795
   647   5    790    792
   648   6    790    796
   649   5    790    798
   650   2    818    790
   651   3    791    793
   652   4    791    799
   653   4    791   2433
   654   3    791   1096
   655   7    796    841
   656   1    797    844
   657   1    797    845
   658   3    945    798
   659   1    800    846
   660   1    800    847
   661   1    802    848
   662   1    802    849
   663   3    804    807
   664   3    804    808
   665   4    804    809
   666   4    804    810
   667   5    805    807
   668   6    805    812
   669   2    828    805
   670   5    805    968
   671   3    806    808
   672   3    806    814
   673   4    806    815
   674   4    806   2446
   675   2    811    823
   676   7    812    839
   677   1    813    862
   678   1    813    863
   679   5   1194    814
   680   1    816    852
   681   1    816    853
   682   1    819    842
   683   1    819    843
   684   3    822    825
   685   4    822    827
   686   4    822   2447
   687   3    822   1199
   688   5    823    825
   689   6    823    829
   690   5    823    831
   691   3    824    826
   692   3    824    831
   693   4    824    832
   694   4    824    833
   695   3    976    826
   696   7    829    840
   697   1    830    850
   698   1    830    851
   699   1    834    858
   700   1    834    859
   701   1    835    856
   702   1    835    857
   703   1    836    854
   704   1    836    855
   705   1    838    860
   706   1    838    861
   707   3    866    869
   708   3    866    870
   709   4    866    871
   710   4    866    872
   711   5    867    869
   712   6    867    873
   713   5    867    875
   714   2    895    867
   715   3    868    870
   716   4    868    876
   717   4    868   2420
   718   7    873    918
   719   1    874    921
   720   1    874    922
   721   3   1022    875
   722   1    877    923
   723   1    877    924
   724   1    879    925
   725   1    879    926
   726   3    881    884
   727   3    881    885
   728   4    881    886
   729   4    881    887
   730   5    882    884
   731   6    882    889
   732   2    905    882
   733   5    882   1043
   734   3    883    885
   735   3    883    891
   736   4    883    892
   737   4    883   2421
   738   2    888    900
   739   7    889    916
   740   1    890    939
   741   1    890    940
   742   1    893    929
   743   1    893    930
   744   1    896    919
   745   1    896    920
   746   3    899    902
   747   4    899    904
   748   4    899   2422
   749   5    900    902
   750   6    900    906
   751   5    900    908
   752   3    901    903
   753   3    901    908
   754   4    901    909
   755   4    901    910
   756   3   1048    903
   757   7    906    917
   758   1    907    927
   759   1    907    928
   760   1    911    935
   761   1    911    936
   762   1    912    933
   763   1    912    934
   764   1    913    931
   765   1    913    932
   766   1    915    937
   767   1    915    938
   768   3    943    946
   769   3    943    947
   770   4    943    948
   771   4    943    949
   772   5    944    946
   773   6    944    950
   774   5    944    952
   775   2    972    944
   776   3    945    947
   777   4    945    953
   778   4    945   2423
   779   7    950    995
   780   1    951    998
   781   1    951    999
   782   3   1089    952
   783   1    954   1000
   784   1    954   1001
   785   1    956   1002
   786   1    956   1003
   787   3    958    961
   788   3    958    962
   789   4    958    963
   790   4    958    964
   791   5    959    961
   792   6    959    966
   793   2    982    959
   794   5    959   1110
   795   3    960    962
   796   3    960    968
   797   4    960    969
   798   4    960   2424
   799   2    965    977
   800   7    966    993
   801   1    967   1016
   802   1    967   1017
   803   1    970   1006
   804   1    970   1007
   805   1    973    996
   806   1    973    997
   807   3    976    979
   808   4    976    981
   809   4    976   2425
   810   5    977    979
   811   6    977    983
   812   5    977    985
   813   3    978    980
   814   3    978    985
   815   4    978    986
   816   4    978    987
   817   3   1115    980
   818   7    983    994
   819   1    984   1004
   820   1    984   1005
   821   1    988   1012
   822   1    988   1013
   823   1    989   1010
   824   1    989   1011
   825   1    990   1008
   826   1    990   1009
   827   1    992   1014
   828   1    992   1015
   829   3   1020   1023
   830   3   1020   1024
   831   4   1020   1025
   832   4   1020   1026
   833   5   1021   1023
   834   6   1021   1027
   835   5   1021   1029
   836   2   1045   1021
   837   3   1022   1024
   838   4   1022   1030
   839   4   1022   2426
   840   7   1027   1064
   841   1   1028   1067
   842   1   1028   1068
   843   1   1031   1069
   844   1   1031   1070
   845   1   1033   1071
   846   1   1033   1072
   847   3   1035   1037
   848   3   1035   1038
   849   4   1035   1039
   850   4   1035   1040
   851   3   1036   1038
   852   3   1036   1043
   853   4   1036   1044
   854   4   1036   2427
   855   5   1184   1037
   856   2   1041   1049
   857   1   1042   1083
   858   1   1042   1084
   859   1   1046   1065
   860   1   1046   1066
   861   3   1048   1051
   862   4   1048   1052
   863   4   1048   2428
   864   5   1049   1051
   865   6   1049   1053
   866   5   1049   1055
   867   3   1050   1055
   868   4   1050   1056
   869   4   1050   1057
   870   3   1050   1189
   871   7   1053   1063
   872   1   1054   1073
   873   1   1054   1074
   874   1   1058   1079
   875   1   1058   1080
   876   1   1059   1077
   877   1   1059   1078
   878   1   1060   1075
   879   1   1060   1076
   880   1   1062   1081
   881   1   1062   1082
   882   3   1087   1090
   883   3   1087   1091
   884   4   1087   1092
   885   4   1087   1093
   886   5   1088   1090
   887   6   1088   1094
   888   5   1088   1096
   889   2   1112   1088
   890   3   1089   1091
   891   4   1089   1097
   892   4   1089   2429
   893   7   1094   1131
   894   1   1095   1134
   895   1   1095   1135
   896   1   1098   1136
   897   1   1098   1137
   898   1   1100   1138
   899   1   1100   1139
   900   3   1102   1104
   901   3   1102   1105
   902   4   1102   1106
   903   4   1102   1107
   904   3   1103   1105
   905   3   1103   1110
   906   4   1103   1111
   907   4   1103   2430
   908   5   1194   1104
   909   2   1108   1116
   910   1   1109   1150
   911   1   1109   1151
   912   1   1113   1132
   913   1   1113   1133
   914   3   1115   1118
   915   4   1115   1119
   916   4   1115   2431
   917   5   1116   1118
   918   6   1116   1120
   919   5   1116   1122
   920   3   1117   1122
   921   4   1117   1123
   922   4   1117   1124
   923   3   1117   1199
   924   7   1120   1130
   925   1   1121   1140
   926   1   1121   1141
   927   1   1125   1146
   928   1   1125   1147
   929   1   1126   1144
   930   1   1126   1145
   931   1   1127   1142
   932   1   1127   1143
   933   1   1129   1148
   934   1   1129   1149
   935   1   1152   1153
   936   1   1152   1154
   937   1   1155   1156
   938   1   1155   1157
   939   6   1158   1159
   940   2   1165   1158
   941   7   1159   1166
   942   1   1160   1167
   943   1   1160   1168
   944   1   1162   1169
   945   1   1162   1170
   946   6   1171   1172
   947   2   1178   1171
   948   7   1172   1179
   949   1   1173   1180
   950   1   1173   1181
   951   1   1175   1182
   952   1   1175   1183
   953   6   1184   1185
   954   2   1190   1184
   955   7   1185   1191
   956   1   1186   1192
   957   1   1186   1193
   958   6   1194   1195
   959   2   1200   1194
   960   7   1195   1201
   961   1   1196   1202
   962   1   1196   1203
   963   2   1204   1209
   964   1   1205   1224
   965   1   1205   1225
   966   3   1208   1211
   967   3   1208   1212
   968   4   1208   1213
   969   4   1208   2494
   970   5   1209   1211
   971   6   1209   1214
   972   5   1209   1216
   973   3   1210   1212
   974   4   1210   1217
   975   4   1210   2384
   976   3   1210   1306
   977   7   1214   1219
   978   1   1215   1220
   979   1   1215   1221
   980   3   1254   1216
   981   1   1218   1222
   982   1   1218   1223
   983   2   1226   1231
   984   1   1227   1246
   985   1   1227   1247
   986   3   1230   1233
   987   3   1230   1234
   988   4   1230   1235
   989   4   1230   2495
   990   5   1231   1233
   991   6   1231   1236
   992   5   1231   1238
   993   3   1232   1234
   994   4   1232   1239
   995   4   1232   2385
   996   3   1232   1329
   997   7   1236   1241
   998   1   1237   1242
   999   1   1237   1243
  1000   3   1277   1238
  1001   1   1240   1244
  1002   1   1240   1245
  1003   2   1248   1253
  1004   1   1249   1269
  1005   1   1249   1270
  1006   3   1252   1255
  1007   3   1252   1256
  1008   4   1252   1257
  1009   4   1252   2496
  1010   5   1253   1255
  1011   6   1253   1258
  1012   5   1253   1260
  1013   3   1254   1256
  1014   4   1254   1261
  1015   4   1254   1262
  1016   7   1258   1264
  1017   1   1259   1265
  1018   1   1259   1266
  1019   3   1300   1260
  1020   1   1263   1267
  1021   1   1263   1268
  1022   2   1271   1276
  1023   1   1272   1292
  1024   1   1272   1293
  1025   3   1275   1278
  1026   3   1275   1279
  1027   4   1275   1280
  1028   4   1275   2497
  1029   5   1276   1278
  1030   6   1276   1281
  1031   5   1276   1283
  1032   3   1277   1279
  1033   4   1277   1284
  1034   4   1277   1285
  1035   7   1281   1287
  1036   1   1282   1288
  1037   1   1282   1289
  1038   3   1323   1283
  1039   1   1286   1290
  1040   1   1286   1291
  1041   2   1294   1299
  1042   1   1295   1315
  1043   1   1295   1316
  1044   3   1298   1301
  1045   3   1298   1302
  1046   4   1298   1303
  1047   4   1298   2498
  1048   5   1299   1301
  1049   6   1299   1304
  1050   5   1299   1306
  1051   3   1300   1302
  1052   4   1300   1307
  1053   4   1300   1308
  1054   7   1304   1310
  1055   1   1305   1311
  1056   1   1305   1312
  1057   1   1309   1313
  1058   1   1309   1314
  1059   2   1317   1322
  1060   1   1318   1338
  1061   1   1318   1339
  1062   3   1321   1324
  1063   3   1321   1325
  1064   4   1321   1326
  1065   4   1321   2499
  1066   5   1322   1324
  1067   6   1322   1327
  1068   5   1322   1329
  1069   3   1323   1325
  1070   4   1323   1330
  1071   4   1323   1331
  1072   7   1327   1333
  1073   1   1328   1334
  1074   1   1328   1335
  1075   1   1332   1336
  1076   1   1332   1337
  1077   3   1342   1346
  1078   4   1342   1347
  1079   4   1342   1348
  1080   3   1342   1535
  1081   5   1343   1345
  1082   6   1343   1350
  1083   5   1343   1352
  1084   2   1381   1343
  1085   3   1344   1346
  1086   3   1344   1352
  1087   4   1344   1353
  1088   4   1344   2452
  1089   3   1732   1345
  1090   2   1349   1376
  1091   7   1350   1408
  1092   1   1351   1411
  1093   1   1351   1412
  1094   1   1354   1433
  1095   1   1354   1434
  1096   1   1355   1413
  1097   1   1355   1414
  1098   1   1357   1415
  1099   1   1357   1416
  1100   3   1360   1363
  1101   4   1360   1365
  1102   4   1360   1366
  1103   3   1360   2377
  1104   5   1361   1363
  1105   6   1361   1368
  1106   5   1361   1370
  1107   2   1396   1361
  1108   3   1362   1370
  1109   4   1362   1371
  1110   4   1362   2453
  1111   3   1362   1364
  1112   3   1550   1364
  1113   2   1367   1391
  1114   7   1368   1407
  1115   1   1369   1427
  1116   1   1369   1428
  1117   1   1372   1419
  1118   1   1372   1420
  1119   3   1375   1378
  1120   3   1375   1379
  1121   4   1375   1380
  1122   4   1375   2454
  1123   5   1376   1378
  1124   6   1376   1382
  1125   5   1376   1384
  1126   3   1377   1379
  1127   4   1377   1385
  1128   4   1377   2386
  1129   3   1377   1772
  1130   7   1382   1406
  1131   1   1383   1429
  1132   1   1383   1430
  1133   3   1567   1384
  1134   1   1386   1409
  1135   1   1386   1410
  1136   1   1387   1431
  1137   1   1387   1432
  1138   3   1390   1393
  1139   3   1390   1394
  1140   4   1390   1395
  1141   4   1390   2455
  1142   6   1391   1397
  1143   5   1391   1399
  1144   5   1391   1782
  1145   3   1392   1394
  1146   3   1392   1399
  1147   4   1392   1400
  1148   4   1392   1401
  1149   5   1582   1393
  1150   7   1397   2388
  1151   1   1398   1417
  1152   1   1398   1418
  1153   1   1402   1423
  1154   1   1402   1424
  1155   1   1403   1421
  1156   1   1403   1422
  1157   1   1405   1425
  1158   1   1405   1426
  1159   3   1437   1441
  1160   4   1437   1442
  1161   4   1437   1443
  1162   3   1437   1635
  1163   5   1438   1440
  1164   6   1438   1445
  1165   5   1438   1447
  1166   2   1476   1438
  1167   3   1439   1441
  1168   3   1439   1447
  1169   4   1439   1448
  1170   4   1439   2456
  1171   3   1830   1440
  1172   2   1444   1471
  1173   7   1445   1503
  1174   1   1446   1506
  1175   1   1446   1507
  1176   1   1449   1528
  1177   1   1449   1529
  1178   1   1450   1508
  1179   1   1450   1509
  1180   1   1452   1510
  1181   1   1452   1511
  1182   3   1455   1458
  1183   4   1455   1460
  1184   4   1455   1461
  1185   3   1455   2379
  1186   5   1456   1458
  1187   6   1456   1463
  1188   5   1456   1465
  1189   2   1491   1456
  1190   3   1457   1465
  1191   4   1457   1466
  1192   4   1457   2457
  1193   3   1457   1459
  1194   3   1650   1459
  1195   2   1462   1486
  1196   7   1463   1502
  1197   1   1464   1522
  1198   1   1464   1523
  1199   1   1467   1514
  1200   1   1467   1515
  1201   3   1470   1473
  1202   3   1470   1474
  1203   4   1470   1475
  1204   4   1470   2458
  1205   5   1471   1473
  1206   6   1471   1477
  1207   5   1471   1479
  1208   3   1472   1474
  1209   4   1472   1480
  1210   4   1472   2391
  1211   3   1472   1870
  1212   7   1477   1501
  1213   1   1478   1524
  1214   1   1478   1525
  1215   3   1667   1479
  1216   1   1481   1504
  1217   1   1481   1505
  1218   1   1482   1526
  1219   1   1482   1527
  1220   3   1485   1488
  1221   3   1485   1489
  1222   4   1485   1490
  1223   4   1485   2459
  1224   6   1486   1492
  1225   5   1486   1494
  1226   5   1486   1880
  1227   3   1487   1489
  1228   3   1487   1494
  1229   4   1487   1495
  1230   4   1487   1496
  1231   5   1682   1488
  1232   7   1492   2393
  1233   1   1493   1512
  1234   1   1493   1513
  1235   1   1497   1518
  1236   1   1497   1519
  1237   1   1498   1516
  1238   1   1498   1517
  1239   1   1500   1520
  1240   1   1500   1521
  1241   3   1532   1536
  1242   4   1532   1537
  1243   4   1532   1538
  1244   3   1532   1735
  1245   5   1533   1535
  1246   6   1533   1540
  1247   5   1533   1542
  1248   2   1571   1533
  1249   3   1534   1536
  1250   3   1534   1542
  1251   4   1534   1543
  1252   4   1534   2460
  1253   2   1539   1566
  1254   7   1540   1601
  1255   1   1541   1604
  1256   1   1541   1605
  1257   1   1544   1628
  1258   1   1544   1629
  1259   1   1545   1606
  1260   1   1545   1607
  1261   1   1547   1608
  1262   1   1547   1609
  1263   3   1550   1553
  1264   4   1550   1555
  1265   4   1550   1556
  1266   5   1551   1553
  1267   6   1551   1558
  1268   5   1551   1560
  1269   2   1587   1551
  1270   3   1552   1560
  1271   4   1552   1561
  1272   4   1552   2461
  1273   3   1552   1554
  1274   3   1749   1554
  1275   2   1557   1582
  1276   7   1558   1599
  1277   1   1559   1622
  1278   1   1559   1623
  1279   1   1562   1612
  1280   1   1562   1613
  1281   3   1565   1568
  1282   3   1565   1569
  1283   4   1565   1570
  1284   4   1565   2462
  1285   5   1566   1568
  1286   6   1566   1572
  1287   5   1566   1574
  1288   3   1567   1569
  1289   4   1567   1575
  1290   4   1567   1576
  1291   7   1572   1598
  1292   1   1573   1624
  1293   1   1573   1625
  1294   3   1765   1574
  1295   1   1577   1602
  1296   1   1577   1603
  1297   1   1578   1626
  1298   1   1578   1627
  1299   3   1581   1584
  1300   3   1581   1585
  1301   4   1581   1586
  1302   4   1581   2463
  1303   6   1582   1588
  1304   5   1582   1590
  1305   3   1583   1585
  1306   3   1583   1590
  1307   4   1583   1591
  1308   4   1583   1592
  1309   5   1780   1584
  1310   7   1588   1600
  1311   1   1589   1610
  1312   1   1589   1611
  1313   1   1593   1618
  1314   1   1593   1619
  1315   1   1594   1616
  1316   1   1594   1617
  1317   1   1595   1614
  1318   1   1595   1615
  1319   1   1597   1620
  1320   1   1597   1621
  1321   3   1632   1636
  1322   4   1632   1637
  1323   4   1632   1638
  1324   3   1632   1833
  1325   5   1633   1635
  1326   6   1633   1640
  1327   5   1633   1642
  1328   2   1671   1633
  1329   3   1634   1636
  1330   3   1634   1642
  1331   4   1634   1643
  1332   4   1634   2464
  1333   2   1639   1666
  1334   7   1640   1701
  1335   1   1641   1704
  1336   1   1641   1705
  1337   1   1644   1728
  1338   1   1644   1729
  1339   1   1645   1706
  1340   1   1645   1707
  1341   1   1647   1708
  1342   1   1647   1709
  1343   3   1650   1653
  1344   4   1650   1655
  1345   4   1650   1656
  1346   5   1651   1653
  1347   6   1651   1658
  1348   5   1651   1660
  1349   2   1687   1651
  1350   3   1652   1660
  1351   4   1652   1661
  1352   4   1652   2465
  1353   3   1652   1654
  1354   3   1847   1654
  1355   2   1657   1682
  1356   7   1658   1699
  1357   1   1659   1722
  1358   1   1659   1723
  1359   1   1662   1712
  1360   1   1662   1713
  1361   3   1665   1668
  1362   3   1665   1669
  1363   4   1665   1670
  1364   4   1665   2466
  1365   5   1666   1668
  1366   6   1666   1672
  1367   5   1666   1674
  1368   3   1667   1669
  1369   4   1667   1675
  1370   4   1667   1676
  1371   7   1672   1698
  1372   1   1673   1724
  1373   1   1673   1725
  1374   3   1863   1674
  1375   1   1677   1702
  1376   1   1677   1703
  1377   1   1678   1726
  1378   1   1678   1727
  1379   3   1681   1684
  1380   3   1681   1685
  1381   4   1681   1686
  1382   4   1681   2467
  1383   6   1682   1688
  1384   5   1682   1690
  1385   3   1683   1685
  1386   3   1683   1690
  1387   4   1683   1691
  1388   4   1683   1692
  1389   5   1878   1684
  1390   7   1688   1700
  1391   1   1689   1710
  1392   1   1689   1711
  1393   1   1693   1718
  1394   1   1693   1719
  1395   1   1694   1716
  1396   1   1694   1717
  1397   1   1695   1714
  1398   1   1695   1715
  1399   1   1697   1720
  1400   1   1697   1721
  1401   3   1732   1736
  1402   4   1732   1737
  1403   4   1732   2376
  1404   5   1733   1735
  1405   6   1733   1739
  1406   5   1733   1741
  1407   2   1769   1733
  1408   3   1734   1736
  1409   3   1734   1741
  1410   4   1734   1742
  1411   4   1734   2468
  1412   2   1738   1764
  1413   7   1739   1799
  1414   1   1740   1802
  1415   1   1740   1803
  1416   1   1743   1826
  1417   1   1743   1827
  1418   1   1744   1804
  1419   1   1744   1805
  1420   1   1746   1806
  1421   1   1746   1807
  1422   3   1749   1752
  1423   4   1749   1753
  1424   4   1749   1754
  1425   5   1750   1752
  1426   6   1750   1756
  1427   5   1750   1758
  1428   2   1785   1750
  1429   3   1751   1758
  1430   4   1751   1759
  1431   4   1751   2469
  1432   3   1751   2377
  1433   2   1755   1780
  1434   7   1756   1797
  1435   1   1757   1820
  1436   1   1757   1821
  1437   1   1760   1810
  1438   1   1760   1811
  1439   3   1763   1766
  1440   3   1763   1767
  1441   4   1763   1768
  1442   4   1763   2470
  1443   5   1764   1766
  1444   6   1764   1770
  1445   5   1764   1772
  1446   3   1765   1767
  1447   4   1765   1773
  1448   4   1765   1774
  1449   7   1770   1796
  1450   1   1771   1822
  1451   1   1771   1823
  1452   1   1775   1800
  1453   1   1775   1801
  1454   1   1776   1824
  1455   1   1776   1825
  1456   3   1779   1782
  1457   3   1779   1783
  1458   4   1779   1784
  1459   4   1779   2471
  1460   6   1780   1786
  1461   5   1780   1788
  1462   3   1781   1783
  1463   3   1781   1788
  1464   4   1781   1789
  1465   4   1781   1790
  1466   7   1786   1798
  1467   1   1787   1808
  1468   1   1787   1809
  1469   1   1791   1816
  1470   1   1791   1817
  1471   1   1792   1814
  1472   1   1792   1815
  1473   1   1793   1812
  1474   1   1793   1813
  1475   1   1795   1818
  1476   1   1795   1819
  1477   3   1830   1834
  1478   4   1830   1835
  1479   4   1830   2378
  1480   5   1831   1833
  1481   6   1831   1837
  1482   5   1831   1839
  1483   2   1867   1831
  1484   3   1832   1834
  1485   3   1832   1839
  1486   4   1832   1840
  1487   4   1832   2472
  1488   2   1836   1862
  1489   7   1837   1897
  1490   1   1838   1900
  1491   1   1838   1901
  1492   1   1841   1924
  1493   1   1841   1925
  1494   1   1842   1902
  1495   1   1842   1903
  1496   1   1844   1904
  1497   1   1844   1905
  1498   3   1847   1850
  1499   4   1847   1851
  1500   4   1847   1852
  1501   5   1848   1850
  1502   6   1848   1854
  1503   5   1848   1856
  1504   2   1883   1848
  1505   3   1849   1856
  1506   4   1849   1857
  1507   4   1849   2473
  1508   3   1849   2379
  1509   2   1853   1878
  1510   7   1854   1895
  1511   1   1855   1918
  1512   1   1855   1919
  1513   1   1858   1908
  1514   1   1858   1909
  1515   3   1861   1864
  1516   3   1861   1865
  1517   4   1861   1866
  1518   4   1861   2474
  1519   5   1862   1864
  1520   6   1862   1868
  1521   5   1862   1870
  1522   3   1863   1865
  1523   4   1863   1871
  1524   4   1863   1872
  1525   7   1868   1894
  1526   1   1869   1920
  1527   1   1869   1921
  1528   1   1873   1898
  1529   1   1873   1899
  1530   1   1874   1922
  1531   1   1874   1923
  1532   3   1877   1880
  1533   3   1877   1881
  1534   4   1877   1882
  1535   4   1877   2475
  1536   6   1878   1884
  1537   5   1878   1886
  1538   3   1879   1881
  1539   3   1879   1886
  1540   4   1879   1887
  1541   4   1879   1888
  1542   7   1884   1896
  1543   1   1885   1906
  1544   1   1885   1907
  1545   1   1889   1914
  1546   1   1889   1915
  1547   1   1890   1912
  1548   1   1890   1913
  1549   1   1891   1910
  1550   1   1891   1911
  1551   1   1893   1916
  1552   1   1893   1917
  1553   3   1928   1932
  1554   4   1928   1933
  1555   4   1928   1934
  1556   3   1928   2077
  1557   5   1929   1931
  1558   6   1929   1935
  1559   5   1929   1937
  1560   2   1957   1929
  1561   3   1930   1932
  1562   3   1930   1937
  1563   4   1930   1938
  1564   4   1930   2476
  1565   3   2228   1931
  1566   7   1935   1978
  1567   1   1936   1981
  1568   1   1936   1982
  1569   1   1939   1983
  1570   1   1939   1984
  1571   1   1941   1985
  1572   1   1941   1986
  1573   3   1943   1946
  1574   4   1943   1948
  1575   4   1943   1949
  1576   3   1943   2381
  1577   5   1944   1946
  1578   6   1944   1951
  1579   5   1944   1953
  1580   2   1967   1944
  1581   3   1945   1953
  1582   4   1945   1954
  1583   4   1945   2477
  1584   3   1945   1947
  1585   3   2089   1947
  1586   2   1950   1962
  1587   7   1951   1977
  1588   1   1952   1997
  1589   1   1952   1998
  1590   1   1955   1989
  1591   1   1955   1990
  1592   1   1958   1979
  1593   1   1958   1980
  1594   3   1961   1964
  1595   3   1961   1965
  1596   4   1961   1966
  1597   4   1961   2478
  1598   6   1962   1968
  1599   5   1962   1970
  1600   5   1962   2262
  1601   3   1963   1965
  1602   3   1963   1970
  1603   4   1963   1971
  1604   4   1963   1972
  1605   5   2108   1964
  1606   7   1968   2397
  1607   1   1969   1987
  1608   1   1969   1988
  1609   1   1973   1993
  1610   1   1973   1994
  1611   1   1974   1991
  1612   1   1974   1992
  1613   1   1976   1995
  1614   1   1976   1996
  1615   3   2001   2005
  1616   4   2001   2006
  1617   4   2001   2007
  1618   3   2001   2154
  1619   5   2002   2004
  1620   6   2002   2008
  1621   5   2002   2010
  1622   2   2030   2002
  1623   3   2003   2005
  1624   3   2003   2010
  1625   4   2003   2011
  1626   4   2003   2479
  1627   3   2303   2004
  1628   7   2008   2051
  1629   1   2009   2054
  1630   1   2009   2055
  1631   1   2012   2056
  1632   1   2012   2057
  1633   1   2014   2058
  1634   1   2014   2059
  1635   3   2016   2019
  1636   4   2016   2021
  1637   4   2016   2022
  1638   3   2016   2383
  1639   5   2017   2019
  1640   6   2017   2024
  1641   5   2017   2026
  1642   2   2040   2017
  1643   3   2018   2026
  1644   4   2018   2027
  1645   4   2018   2480
  1646   3   2018   2020
  1647   3   2166   2020
  1648   2   2023   2035
  1649   7   2024   2050
  1650   1   2025   2070
  1651   1   2025   2071
  1652   1   2028   2062
  1653   1   2028   2063
  1654   1   2031   2052
  1655   1   2031   2053
  1656   3   2034   2037
  1657   3   2034   2038
  1658   4   2034   2039
  1659   4   2034   2481
  1660   6   2035   2041
  1661   5   2035   2043
  1662   5   2035   2337
  1663   3   2036   2038
  1664   3   2036   2043
  1665   4   2036   2044
  1666   4   2036   2045
  1667   5   2185   2037
  1668   7   2041   2401
  1669   1   2042   2060
  1670   1   2042   2061
  1671   1   2046   2066
  1672   1   2046   2067
  1673   1   2047   2064
  1674   1   2047   2065
  1675   1   2049   2068
  1676   1   2049   2069
  1677   3   2074   2078
  1678   4   2074   2079
  1679   4   2074   2080
  1680   3   2074   2231
  1681   5   2075   2077
  1682   6   2075   2081
  1683   5   2075   2083
  1684   2   2103   2075
  1685   3   2076   2078
  1686   3   2076   2083
  1687   4   2076   2084
  1688   4   2076   2482
  1689   7   2081   2126
  1690   1   2082   2129
  1691   1   2082   2130
  1692   1   2085   2131
  1693   1   2085   2132
  1694   1   2087   2133
  1695   1   2087   2134
  1696   3   2089   2092
  1697   4   2089   2094
  1698   4   2089   2095
  1699   5   2090   2092
  1700   6   2090   2097
  1701   5   2090   2099
  1702   2   2113   2090
  1703   3   2091   2099
  1704   4   2091   2100
  1705   4   2091   2483
  1706   3   2091   2093
  1707   3   2242   2093
  1708   2   2096   2108
  1709   7   2097   2124
  1710   1   2098   2147
  1711   1   2098   2148
  1712   1   2101   2137
  1713   1   2101   2138
  1714   1   2104   2127
  1715   1   2104   2128
  1716   3   2107   2110
  1717   3   2107   2111
  1718   4   2107   2112
  1719   4   2107   2484
  1720   6   2108   2114
  1721   5   2108   2116
  1722   3   2109   2111
  1723   3   2109   2116
  1724   4   2109   2117
  1725   4   2109   2118
  1726   5   2260   2110
  1727   7   2114   2125
  1728   1   2115   2135
  1729   1   2115   2136
  1730   1   2119   2143
  1731   1   2119   2144
  1732   1   2120   2141
  1733   1   2120   2142
  1734   1   2121   2139
  1735   1   2121   2140
  1736   1   2123   2145
  1737   1   2123   2146
  1738   3   2151   2155
  1739   4   2151   2156
  1740   4   2151   2157
  1741   3   2151   2306
  1742   5   2152   2154
  1743   6   2152   2158
  1744   5   2152   2160
  1745   2   2180   2152
  1746   3   2153   2155
  1747   3   2153   2160
  1748   4   2153   2161
  1749   4   2153   2485
  1750   7   2158   2203
  1751   1   2159   2206
  1752   1   2159   2207
  1753   1   2162   2208
  1754   1   2162   2209
  1755   1   2164   2210
  1756   1   2164   2211
  1757   3   2166   2169
  1758   4   2166   2171
  1759   4   2166   2172
  1760   5   2167   2169
  1761   6   2167   2174
  1762   5   2167   2176
  1763   2   2190   2167
  1764   3   2168   2176
  1765   4   2168   2177
  1766   4   2168   2486
  1767   3   2168   2170
  1768   3   2317   2170
  1769   2   2173   2185
  1770   7   2174   2201
  1771   1   2175   2224
  1772   1   2175   2225
  1773   1   2178   2214
  1774   1   2178   2215
  1775   1   2181   2204
  1776   1   2181   2205
  1777   3   2184   2187
  1778   3   2184   2188
  1779   4   2184   2189
  1780   4   2184   2487
  1781   6   2185   2191
  1782   5   2185   2193
  1783   3   2186   2188
  1784   3   2186   2193
  1785   4   2186   2194
  1786   4   2186   2195
  1787   5   2335   2187
  1788   7   2191   2202
  1789   1   2192   2212
  1790   1   2192   2213
  1791   1   2196   2220
  1792   1   2196   2221
  1793   1   2197   2218
  1794   1   2197   2219
  1795   1   2198   2216
  1796   1   2198   2217
  1797   1   2200   2222
  1798   1   2200   2223
  1799   3   2228   2232
  1800   4   2228   2233
  1801   4   2228   2380
  1802   5   2229   2231
  1803   6   2229   2234
  1804   5   2229   2236
  1805   2   2255   2229
  1806   3   2230   2232
  1807   3   2230   2236
  1808   4   2230   2237
  1809   4   2230   2488
  1810   7   2234   2278
  1811   1   2235   2281
  1812   1   2235   2282
  1813   1   2238   2283
  1814   1   2238   2284
  1815   1   2240   2285
  1816   1   2240   2286
  1817   3   2242   2245
  1818   4   2242   2246
  1819   4   2242   2247
  1820   5   2243   2245
  1821   6   2243   2249
  1822   5   2243   2251
  1823   2   2265   2243
  1824   3   2244   2251
  1825   4   2244   2252
  1826   4   2244   2489
  1827   3   2244   2381
  1828   2   2248   2260
  1829   7   2249   2276
  1830   1   2250   2299
  1831   1   2250   2300
  1832   1   2253   2289
  1833   1   2253   2290
  1834   1   2256   2279
  1835   1   2256   2280
  1836   3   2259   2262
  1837   3   2259   2263
  1838   4   2259   2264
  1839   4   2259   2490
  1840   6   2260   2266
  1841   5   2260   2268
  1842   3   2261   2263
  1843   3   2261   2268
  1844   4   2261   2269
  1845   4   2261   2270
  1846   7   2266   2277
  1847   1   2267   2287
  1848   1   2267   2288
  1849   1   2271   2295
  1850   1   2271   2296
  1851   1   2272   2293
  1852   1   2272   2294
  1853   1   2273   2291
  1854   1   2273   2292
  1855   1   2275   2297
  1856   1   2275   2298
  1857   3   2303   2307
  1858   4   2303   2308
  1859   4   2303   2382
  1860   5   2304   2306
  1861   6   2304   2309
  1862   5   2304   2311
  1863   2   2330   2304
  1864   3   2305   2307
  1865   3   2305   2311
  1866   4   2305   2312
  1867   4   2305   2491
  1868   7   2309   2353
  1869   1   2310   2356
  1870   1   2310   2357
  1871   1   2313   2358
  1872   1   2313   2359
  1873   1   2315   2360
  1874   1   2315   2361
  1875   3   2317   2320
  1876   4   2317   2321
  1877   4   2317   2322
  1878   5   2318   2320
  1879   6   2318   2324
  1880   5   2318   2326
  1881   2   2340   2318
  1882   3   2319   2326
  1883   4   2319   2327
  1884   4   2319   2492
  1885   3   2319   2383
  1886   2   2323   2335
  1887   7   2324   2351
  1888   1   2325   2374
  1889   1   2325   2375
  1890   1   2328   2364
  1891   1   2328   2365
  1892   1   2331   2354
  1893   1   2331   2355
  1894   3   2334   2337
  1895   3   2334   2338
  1896   4   2334   2339
  1897   4   2334   2493
  1898   6   2335   2341
  1899   5   2335   2343
  1900   3   2336   2338
  1901   3   2336   2343
  1902   4   2336   2344
  1903   4   2336   2345
  1904   7   2341   2352
  1905   1   2342   2362
  1906   1   2342   2363
  1907   1   2346   2370
  1908   1   2346   2371
  1909   1   2347   2368
  1910   1   2347   2369
  1911   1   2348   2366
  1912   1   2348   2367
  1913   1   2350   2372
  1914   1   2350   2373
  1915   1   2387   2389
  1916   1   2387   2390
  1917   1   2392   2394
  1918   1   2392   2395
  1919   1   2396   2398
  1920   1   2396   2399
  1921   1   2400   2402
  1922   1   2400   2403
  1923   1   2500   2502
  1924   1   2500   2501
  1925   1   2503   2505
  1926   1   2503   2504
  1927   1   2506   2508
  1928   1   2506   2507
  1929   1   2509   2511
  1930   1   2509   2510
  1931   1   2512   2514
  1932   1   2512   2513
  1933   1   2515   2517
  1934   1   2515   2516
  1935   1   2518   2520
  1936   1   2518   2519
  1937   1   2521   2523
  1938   1   2521   2522
  1939   1   2524   2526
  1940   1   2524   2525
  1941   1   2527   2529
  1942   1   2527   2528
  1943   1   2530   2532
  1944   1   2530   2531
  1945   1   2533   2535
  1946   1   2533   2534
  1947   1   2536   2538
  1948   1   2536   2537
  1949   1   2539   2541
  1950   1   2539   2540
  1951   1   2542   2544
  1952   1   2542   2543
  1953   1   2545   2547
  1954   1   2545   2546
  1955   1   2548   2550
  1956   1   2548   2549
  1957   1   2551   2553
  1958   1   2551   2552
  1959   1   2554   2556
  1960   1   2554   2555
  1961   1   2557   2559
  1962   1   2557   2558
  1963   1   2560   2562
  1964   1   2560   2561
  1965   1   2563   2565
  1966   1   2563   2564
  1967   1   2566   2568
  1968   1   2566   2567
  1969   1   2569   2571
  1970   1   2569   2570
  1971   1   2572   2574
  1972   1   2572   2573
  1973   1   2575   2577
  1974   1   2575   2576
  1975   1   2578   2580
  1976   1   2578   2579
  1977   1   2581   2583
  1978   1   2581   2582
  1979   1   2584   2586
  1980   1   2584   2585
  1981   1   2587   2589
  1982   1   2587   2588
  1983   1   2590   2592
  1984   1   2590   2591
  1985   1   2593   2595
  1986   1   2593   2594
  1987   1   2596   2598
  1988   1   2596   2597
  1989   1   2599   2601
  1990   1   2599   2600
  1991   1   2602   2604
  1992   1   2602   2603
  1993   1   2605   2607
  1994   1   2605   2606
  1995   1   2608   2610
  1996   1   2608   2609
  1997   1   2611   2613
  1998   1   2611   2612
  1999   1   2614   2616
  2000   1   2614   2615
  2001   1   2617   2619
  2002   1   2617   2618
  2003   1   2620   2622
  2004   1   2620   2621
  2005   1   2623   2625
  2006   1   2623   2624
  2007   1   2626   2628
  2008   1   2626   2627
  2009   1   2629   2631
  2010   1   2629   2630
  2011   1   2632   2634
  2012   1   2632   2633
  2013   1   2635   2637
  2014   1   2635   2636
  2015   1   2638   2640
  2016   1   2638   2639
  2017   1   2641   2643
  2018   1   2641   2642
  2019   1   2644   2646
  2020   1   2644   2645
  2021   1   2647   2649
  2022   1   2647   2648
  2023   1   2650   2652
  2024   1   2650   2651
  2025   1   2653   2655
  2026   1   2653   2654
  2027   1   2656   2658
  2028   1   2656   2657
  2029   1   2659   2661
  2030   1   2659   2660
  2031   1   2662   2664
  2032   1   2662   2663
  2033   1   2665   2667
  2034   1   2665   2666
  2035   1   2668   2670
  2036   1   2668   2669
  2037   1   2671   2673
  2038   1   2671   2672
  2039   1   2674   2676
  2040   1   2674   2675
  2041   1   2677   2679
  2042   1   2677   2678
  2043   1   2680   2682
  2044   1   2680   2681
  2045   1   2683   2685
  2046   1   2683   2684
  2047   1   2686   2688
  2048   1   2686   2687
  2049   1   2689   2691
  2050   1   2689   2690
  2051   1   2692   2694
  2052   1   2692   2693
  2053   1   2695   2697
  2054   1   2695   2696
  2055   1   2698   2700
  2056   1   2698   2699
  2057   1   2701   2703
  2058   1   2701   2702
  2059   1   2704   2706
  2060   1   2704   2705
  2061   1   2707   2709
  2062   1   2707   2708
  2063   1   2710   2712
  2064   1   2710   2711
  2065   1   2713   2715
  2066   1   2713   2714
  2067   1   2716   2718
  2068   1   2716   2717
  2069   1   2719   2721
  2070   1   2719   2720
  2071   1   2722   2724
  2072   1   2722   2723
  2073   1   2725   2727
  2074   1   2725   2726
  2075   1   2728   2730
  2076   1   2728   2729
  2077   1   2731   2733
  2078   1   2731   2732
  2079   1   2734   2736
  2080   1   2734   2735
  2081   1   2737   2739
  2082   1   2737   2738
  2083   1   2740   2742
  2084   1   2740   2741
  2085   1   2743   2745
  2086   1   2743   2744
  2087   1   2746   2748
  2088   1   2746   2747
  2089   1   2749   2751
  2090   1   2749   2750
  2091   1   2752   2754
  2092   1   2752   2753
  2093   1   2755   2757
  2094   1   2755   2756
  2095   1   2758   2760
  2096   1   2758   2759
  2097   1   2761   2763
  2098   1   2761   2762
  2099   1   2764   2766
  2100   1   2764   2765
  2101   1   2767   2769
  2102   1   2767   2768
  2103   1   2770   2772
  2104   1   2770   2771
  2105   1   2773   2775
  2106   1   2773   2774
  2107   1   2776   2778
  2108   1   2776   2777
  2109   1   2779   2781
  2110   1   2779   2780
  2111   1   2782   2784
  2112   1   2782   2783
  2113   1   2785   2787
  2114   1   2785   2786
  2115   1   2788   2790
  2116   1   2788   2789
  2117   1   2791   2793
  2118   1   2791   2792
  2119   1   2794   2796
  2120   1   2794   2795
  2121   1   2797   2799
  2122   1   2797   2798
  2123   1   2800   2802
  2124   1   2800   2801
  2125   1   2803   2805
  2126   1   2803   2804
  2127   1   2806   2808
  2128   1   2806   2807
  2129   1   2809   2811
  2130   1   2809   2810
  2131   1   2812   2814
  2132   1   2812   2813
  2133   1   2815   2817
  2134   1   2815   2816
  2135   1   2818   2820
  2136   1   2818   2819
  2137   1   2821   2823
  2138   1   2821   2822
  2139   1   2824   2826
  2140   1   2824   2825
  2141   1   2827   2829
  2142   1   2827   2828
  2143   1   2830   2832
  2144   1   2830   2831
  2145   1   2833   2835
  2146   1   2833   2834
  2147   1   2836   2838
  2148   1   2836   2837
  2149   1   2839   2841
  2150   1   2839   2840
  2151   1   2842   2844
  2152   1   2842   2843
  2153   1   2845   2847
  2154   1   2845   2846
  2155   1   2848   2850
  2156   1   2848   2849
  2157   1   2851   2853
  2158   1   2851   2852
  2159   1   2854   2856
  2160   1   2854   2855
  2161   1   2857   2859
  2162   1   2857   2858
  2163   1   2860   2862
  2164   1   2860   2861
  2165   1   2863   2865
  2166   1   2863   2864
  2167   1   2866   2868
  2168   1   2866   2867
  2169   1   2869   2871
  2170   1   2869   2870
  2171   1   2872   2874
  2172   1   2872   2873
  2173   1   2875   2877
  2174   1   2875   2876
  2175   1   2878   2880
  2176   1   2878   2879
  2177   1   2881   2883
  2178   1   2881   2882
  2179   1   2884   2886
  2180   1   2884   2885
  2181   1   2887   2889
  2182   1   2887   2888
  2183   1   2890   2892
  2184   1   2890   2891
  2185   1   2893   2895
  2186   1   2893   2894
  2187   1   2896   2898
  2188   1   2896   2897
  2189   1   2899   2901
  2190   1   2899   2900
  2191   1   2902   2904
  2192   1   2902   2903
  2193   1   2905   2907
  2194   1   2905   2906
  2195   1   2908   2910
  2196   1   2908   2909
  2197   1   2911   2913
  2198   1   2911   2912
  2199   1   2914   2916
  2200   1   2914   2915
  2201   1   2917   2919
  2202   1   2917   2918
  2203   1   2920   2922
  2204   1   2920   2921
  2205   1   2923   2925
  2206   1   2923   2924
  2207   1   2926   2928
  2208   1   2926   2927
  2209   1   2929   2931
  2210   1   2929   2930
  2211   1   2932   2934
  2212   1   2932   2933
  2213   1   2935   2937
  2214   1   2935   2936
  2215   1   2938   2940
  2216   1   2938   2939
  2217   1   2941   2943
  2218   1   2941   2942
  2219   1   2944   2946
  2220   1   2944   2945
  2221   1   2947   2949
  2222   1   2947   2948
  2223   1   2950   2952
  2224   1   2950   2951
  2225   1   2953   2955
  2226   1   2953   2954
  2227   1   2956   2958
  2228   1   2956   2957
  2229   1   2959   2961
  2230   1   2959   2960
  2231   1   2962   2964
  2232   1   2962   2963
  2233   1   2965   2967
  2234   1   2965   2966
  2235   1   2968   2970
  2236   1   2968   2969
  2237   1   2971   2973
  2238   1   2971   2972
  2239   1   2974   2976
  2240   1   2974   2975
  2241   1   2977   2979
  2242   1   2977   2978
  2243   1   2980   2982
  2244   1   2980   2981
  2245   1   2983   2985
  2246   1   2983   2984
  2247   1   2986   2988
  2248   1   2986   2987
  2249   1   2989   2991
  2250   1   2989   2990
  2251   1   2992   2994
  2252   1   2992   2993
  2253   1   2995   2997
  2254   1   2995   2996
  2255   1   2998   3000
  2256   1   2998   2999
  2257   1   3001   3003
  2258   1   3001   3002
  2259   1   3004   3006
  2260   1   3004   3005
  2261   1   3007   3009
  2262   1   3007   3008
  2263   1   3010   3012
  2264   1   3010   3011
  2265   1   3013   3015
  2266   1   3013   3014
  2267   1   3016   3018
  2268   1   3016   3017
  2269   1   3019   3021
  2270   1   3019   3020
  2271   1   3022   3024
  2272   1   3022   3023
  2273   1   3025   3027
  2274   1   3025   3026
  2275   1   3028   3030
  2276   1   3028   3029
  2277   1   3031   3033
  2278   1   3031   3032
  2279   1   3034   3036
  2280   1   3034   3035
  2281   1   3037   3039
  2282   1   3037   3038
  2283   1   3040   3042
  2284   1   3040   3041
  2285   1   3043   3045
  2286   1   3043   3044
  2287   1   3046   3048
  2288   1   3046   3047
  2289   1   3049   3051
  2290   1   3049   3050
  2291   1   3052   3054
  2292   1   3052   3053
  2293   1   3055   3057
  2294   1   3055   3056
  2295   1   3058   3060
  2296   1   3058   3059
  2297   1   3061   3063
  2298   1   3061   3062
  2299   1   3064   3066
  2300   1   3064   3065
  2301   1   3067   3069
  2302   1   3067   3068
  2303   1   3070   3072
  2304   1   3070   3071
  2305   1   3073   3075
  2306   1   3073   3074
  2307   1   3076   3078
  2308   1   3076   3077
  2309   1   3079   3081
  2310   1   3079   3080
  2311   1   3082   3084
  2312   1   3082   3083
  2313   1   3085   3087
  2314   1   3085   3086
  2315   1   3088   3090
  2316   1   3088   3089
  2317   1   3091   3093
  2318   1   3091   3092
  2319   1   3094   3096
  2320   1   3094   3095
  2321   1   3097   3099
  2322   1   3097   3098
  2323   1   3100   3102
  2324   1   3100   3101
  2325   1   3103   3105
  2326   1   3103   3104
  2327   1   3106   3108
  2328   1   3106   3107
  2329   1   3109   3111
  2330   1   3109   3110
  2331   1   3112   3114
  2332   1   3112   3113
  2333   1   3115   3117
  2334   1   3115   3116
  2335   1   3118   3120
  2336   1   3118   3119
  2337   1   3121   3123
  2338   1   3121   3122
  2339   1   3124   3126
  2340   1   3124   3125
  2341   1   3127   3129
  2342   1   3127   3128
  2343   1   3130   3132
  2344   1   3130   3131
  2345   1   3133   3135
  2346   1   3133   3134
  2347   1   3136   3138
  2348   1   3136   3137
  2349   1   3139   3141
  2350   1   3139   3140
  2351   1   3142   3144
  2352   1   3142   3143
  2353   1   3145   3147
  2354   1   3145   3146
  2355   1   3148   3150
  2356   1   3148   3149
  2357   1   3151   3153
  2358   1   3151   3152
  2359   1   3154   3156
  2360   1   3154   3155
  2361   1   3157   3159
  2362   1   3157   3158
  2363   1   3160   3162
  2364   1   3160   3161
  2365   1   3163   3165
  2366   1   3163   3164
  2367   1   3166   3168
  2368   1   3166   3167
  2369   1   3169   3171
  2370   1   3169   3170
  2371   1   3172   3174
  2372   1   3172   3173
  2373   1   3175   3177
  2374   1   3175   3176
  2375   1   3178   3180
  2376   1   3178   3179
  2377   1   3181   3183
  2378   1   3181   3182
  2379   1   3184   3186
  2380   1   3184   3185
  2381   1   3187   3189
  2382   1   3187   3188
  2383   1   3190   3192
  2384   1   3190   3191
  2385   1   3193   3195
  2386   1   3193   3194
  2387   1   3196   3198
  2388   1   3196   3197
  2389   1   3199   3201
  2390   1   3199   3200
  2391   1   3202   3204
  2392   1   3202   3203
  2393   1   3205   3207
  2394   1   3205   3206
  2395   1   3208   3210
  2396   1   3208   3209
  2397   1   3211   3213
  2398   1   3211   3212
  2399   1   3214   3216
  2400   1   3214   3215
  2401   1   3217   3219
  2402   1   3217   3218
  2403   1   3220   3222
  2404   1   3220   3221
  2405   1   3223   3225
  2406   1   3223   3224
  2407   1   3226   3228
  2408   1   3226   3227
  2409   1   3229   3231
  2410   1   3229   3230
  2411   1   3232   3234
  2412   1   3232   3233
  2413   1   3235   3237
  2414   1   3235   3236
  2415   1   3238   3240
  2416   1   3238   3239
  2417   1   3241   3243
  2418   1   3241   3242
  2419   1   3244   3246
  2420   1   3244   3245
  2421   1   3247   3249
  2422   1   3247   3248
  2423   1   3250   3252
  2424   1   3250   3251
  2425   1   3253   3255
  2426   1   3253   3254
  2427   1   3256   3258
  2428   1   3256   3257
  2429   1   3259   3261
  2430   1   3259   3260
  2431   1   3262   3264
  2432   1   3262   3263
  2433   1   3265   3267
  2434   1   3265   3266
  2435   1   3268   3270
  2436   1   3268   3269
  2437   1   3271   3273
  2438   1   3271   3272
  2439   1   3274   3276
  2440   1   3274   3275
  2441   1   3277   3279
  2442   1   3277   3278
  2443   1   3280   3282
  2444   1   3280   3281
  2445   1   3283   3285
  2446   1   3283   3284
  2447   1   3286   3288
  2448   1   3286   3287
  2449   1   3289   3291
  2450   1   3289   3290
  2451   1   3292   3294
  2452   1   3292   3293
  2453   1   3295   3297
  2454   1   3295   3296
  2455   1   3298   3300
  2456   1   3298   3299
  2457   1   3301   3303
  2458   1   3301   3302
  2459   1   3304   3306
  2460   1   3304   3305
  2461   1   3307   3309
  2462   1   3307   3308
  2463   1   3310   3312
  2464   1   3310   3311
  2465   1   3313   3315
  2466   1   3313   3314
  2467   1   3316   3318
  2468   1   3316   3317
  2469   1   3319   3321
  2470   1   3319   3320
  2471   1   3322   3324
  2472   1   3322   3323
  2473   1   3325   3327
  2474   1   3325   3326
  2475   1   3328   3330
  2476   1   3328   3329
  2477   1   3331   3333
  2478   1   3331   3332
  2479   1   3334   3336
  2480   1   3334   3335
  2481   1   3337   3339
  2482   1   3337   3338
  2483   1   3340   3342
  2484   1   3340   3341
  2485   1   3343   3345
  2486   1   3343   3344
  2487   1   3346   3348
  2488   1   3346   3347
  2489   1   3349   3351
  2490   1   3349   3350
  2491   1   3352   3354
  2492   1   3352   3353
  2493   1   3355   3357
  2494   1   3355   3356
  2495   1   3358   3360
  2496   1   3358   3359
  2497   1   3361   3363
  2498   1   3361   3362
  2499   1   3364   3366
  2500   1   3364   3365
  2501   1   3367   3369
  2502   1   3367   3368
  2503   1   3370   3372
  2504   1   3370   3371
  2505   1   3373   3375
  2506   1   3373   3374
  2507   1   3376   3378
  2508   1   3376   3377
  2509   1   3379   3381
  2510   1   3379   3380
  2511   1   3382   3384
  2512   1   3382   3383
  2513   1   3385   3387
  2514   1   3385   3386
  2515   1   3388   3390
  2516   1   3388   3389
  2517   1   3391   3393
  2518   1   3391   3392
  2519   1   3394   3396
  2520   1   3394   3395
  2521   1   3397   3399
  2522   1   3397   3398
  2523   1   3400   3402
  2524   1   3400   3401
  2525   1   3403   3405
  2526   1   3403   3404
  2527   1   3406   3408
  2528   1   3406   3407
  2529   1   3409   3411
  2530   1   3409   3410
  2531   1   3412   3414
  2532   1   3412   3413
  2533   1   3415   3417
  2534   1   3415   3416
  2535   1   3418   3420
  2536   1   3418   3419
  2537   1   3421   3423
  2538   1   3421   3422
  2539   1   3424   3426
  2540   1   3424   3425
  2541   1   3427   3429
  2542   1   3427   3428
  2543   1   3430   3432
  2544   1   3430   3431
  2545   1   3433   3435
  2546   1   3433   3434
  2547   1   3436   3438
  2548   1   3436   3437
  2549   1   3439   3441
  2550   1   3439   3440
  2551   1   3442   3444
  2552   1   3442   3443
  2553   1   3445   3447
  2554   1   3445   3446
  2555   1   3448   3450
  2556   1   3448   3449
  2557   1   3451   3453
  2558   1   3451   3452
  2559   1   3454   3456
  2560   1   3454   3455
  2561   1   3457   3459
  2562   1   3457   3458
  2563   1   3460   3462
  2564   1   3460   3461
  2565   1   3463   3465
  2566   1   3463   3464
  2567   1   3466   3468
  2568   1   3466   3467
  2569   1   3469   3471
  2570   1   3469   3470
  2571   1   3472   3474
  2572   1   3472   3473
  2573   1   3475   3477
  2574   1   3475   3476
  2575   1   3478   3480
  2576   1   3478   3479
  2577   1   3481   3483
  2578   1   3481   3482
  2579   1   3484   3486
  2580   1   3484   3485
  2581   1   3487   3489
  2582   1   3487   3488
  2583   1   3490   3492
  2584   1   3490   3491
  2585   1   3493   3495
  2586   1   3493   3494
  2587   1   3496   3498
  2588   1   3496   3497
  2589   1   3499   3501
  2590   1   3499   3500
  2591   1   3502   3504
  2592   1   3502   3503
  2593   1   3505   3507
  2594   1   3505   3506
  2595   1   3508   3510
  2596   1   3508   3509
  2597   1   3511   3513
  2598   1   3511   3512
  2599   1   3514   3516
  2600   1   3514   3515
  2601   1   3517   3519
  2602   1   3517   3518
  2603   1   3520   3522
  2604   1   3520   3521
  2605   1   3523   3525
  2606   1   3523   3524
  2607   1   3526   3528
  2608   1   3526   3527
  2609   1   3529   3531
  2610   1   3529   3530
  2611   1   3532   3534
  2612   1   3532   3533
  2613   1   3535   3537
  2614   1   3535   3536
  2615   1   3538   3540
  2616   1   3538   3539
  2617   1   3541   3543
  2618   1   3541   3542
  2619   1   3544   3546
  2620   1   3544   3545
  2621   1   3547   3549
  2622   1   3547   3548
  2623   1   3550   3552
  2624   1   3550   3551
  2625   1   3553   3555
  2626   1   3553   3554
  2627   1   3556   3558
  2628   1   3556   3557
  2629   1   3559   3561
  2630   1   3559   3560
  2631   1   3562   3564
  2632   1   3562   3563
  2633   1   3565   3567
  2634   1   3565   3566
  2635   1   3568   3570
  2636   1   3568   3569
  2637   1   3571   3573
  2638   1   3571   3572
  2639   1   3574   3576
  2640   1   3574   3575
  2641   1   3577   3579
  2642   1   3577   3578
  2643   1   3580   3582
  2644   1   3580   3581
  2645   1   3583   3585
  2646   1   3583   3584
  2647   1   3586   3588
  2648   1   3586   3587
  2649   1   3589   3591
  2650   1   3589   3590
  2651   1   3592   3594
  2652   1   3592   3593
  2653   1   3595   3597
  2654   1   3595   3596
  2655   1   3598   3600
  2656   1   3598   3599
  2657   1   3601   3603
  2658   1   3601   3602
  2659   1   3604   3606
  2660   1   3604   3605
  2661   1   3607   3609
  2662   1   3607   3608
  2663   1   3610   3612
  2664   1   3610   3611
  2665   1   3613   3615
  2666   1   3613   3614
  2667   1   3616   3618
  2668   1   3616   3617
  2669   1   3619   3621
  2670   1   3619   3620
  2671   1   3622   3624
  2672   1   3622   3623
  2673   1   3625   3627
  2674   1   3625   3626
  2675   1   3628   3630
  2676   1   3628   3629
  2677   1   3631   3633
  2678   1   3631   3632
  2679   1   3634   3636
  2680   1   3634   3635
  2681   1   3637   3639
  2682   1   3637   3638
  2683   1   3640   3642
  2684   1   3640   3641
  2685   1   3643   3645
  2686   1   3643   3644
  2687   1   3646   3648
  2688   1   3646   3647
  2689   1   3649   3651
  2690   1   3649   3650
  2691   1   3652   3654
  2692   1   3652   3653
  2693   1   3655   3657
  2694   1   3655   3656
  2695   1   3658   3660
  2696   1   3658   3659
  2697   1   3661   3663
  2698   1   3661   3662
  2699   1   3664   3666
  2700   1   3664   3665
  2701   1   3667   3669
  2702   1   3667   3668
  2703   1   3670   3672
  2704   1   3670   3671
  2705   1   3673   3675
  2706   1   3673   3674
  2707   1   3676   3678
  2708   1   3676   3677
  2709   1   3679   3681
  2710   1   3679   3680
  2711   1   3682   3684
  2712   1   3682   3683
  2713   1   3685   3687
  2714   1   3685   3686
  2715   1   3688   3690
  2716   1   3688   3689
  2717   1   3691   3693
  2718   1   3691   3692
  2719   1   3694   3696
  2720   1   3694   3695
  2721   1   3697   3699
  2722   1   3697   3698
  2723   1   3700   3702
  2724   1   3700   3701
  2725   1   3703   3705
  2726   1   3703   3704
  2727   1   3706   3708
  2728   1   3706   3707
  2729   1   3709   3711
  2730   1   3709   3710
  2731   1   3712   3714
  2732   1   3712   3713
  2733   1   3715   3717
  2734   1   3715   3716
  2735   1   3718   3720
  2736   1   3718   3719
  2737   1   3721   3723
  2738   1   3721   3722
  2739   1   3724   3726
  2740   1   3724   3725
  2741   1   3727   3729
  2742   1   3727   3728
  2743   1   3730   3732
  2744   1   3730   3731
  2745   1   3733   3735
  2746   1   3733   3734
  2747   1   3736   3738
  2748   1   3736   3737
  2749   1   3739   3741
  2750   1   3739   3740
  2751   1   3742   3744
  2752   1   3742   3743
  2753   1   3745   3747
  2754   1   3745   3746
  2755   1   3748   3750
  2756   1   3748   3749
  2757   1   3751   3753
  2758   1   3751   3752
  2759   1   3754   3756
  2760   1   3754   3755
  2761   1   3757   3759
  2762   1   3757   3758
  2763   1   3760   3762
  2764   1   3760   3761
  2765   1   3763   3765
  2766   1   3763   3764
  2767   1   3766   3768
  2768   1   3766   3767
  2769   1   3769   3771
  2770   1   3769   3770
  2771   1   3772   3774
  2772   1   3772   3773
  2773   1   3775   3777
  2774   1   3775   3776
  2775   1   3778   3780
  2776   1   3778   3779
  2777   1   3781   3783
  2778   1   3781   3782
  2779   1   3784   3786
  2780   1   3784   3785
  2781   1   3787   3789
  2782   1   3787   3788
  2783   1   3790   3792
  2784   1   3790   3791
  2785   1   3793   3795
  2786   1   3793   3794
  2787   1   3796   3798
  2788   1   3796   3797
  2789   1   3799   3801
  2790   1   3799   3800
  2791   1   3802   3804
  2792   1   3802   3803
  2793   1   3805   3807
  2794   1   3805   3806
  2795   1   3808   3810
  2796   1   3808   3809
  2797   1   3811   3813
  2798   1   3811   3812
  2799   1   3814   3816
  2800   1   3814   3815
  2801   1   3817   3819
  2802   1   3817   3818
  2803   1   3820   3822
  2804   1   3820   3821
  2805   1   3823   3825
  2806   1   3823   3824
  2807   1   3826   3828
  2808   1   3826   3827
  2809   1   3829   3831
  2810   1   3829   3830
  2811   1   3832   3834
  2812   1   3832   3833
  2813   1   3835   3837
  2814   1   3835   3836
  2815   1   3838   3840
  2816   1   3838   3839
  2817   1   3841   3843
  2818   1   3841   3842
  2819   1   3844   3846
  2820   1   3844   3845
  2821   1   3847   3849
  2822   1   3847   3848
  2823   1   3850   3852
  2824   1   3850   3851
  2825   1   3853   3855
  2826   1   3853   3854
  2827   1   3856   3858
  2828   1   3856   3857
  2829   1   3859   3861
  2830   1   3859   3860
  2831   1   3862   3864
  2832   1   3862   3863
  2833   1   3865   3867
  2834   1   3865   3866
  2835   1   3868   3870
  2836   1   3868   3869
  2837   1   3871   3873
  2838   1   3871   3872
  2839   1   3874   3876
  2840   1   3874   3875
  2841   1   3877   3879
  2842   1   3877   3878
  2843   1   3880   3882
  2844   1   3880   3881
  2845   1   3883   3885
  2846   1   3883   3884
  2847   1   3886   3888
  2848   1   3886   3887
  2849   1   3889   3891
  2850   1   3889   3890
  2851   1   3892   3894
  2852   1   3892   3893
  2853   1   3895   3897
  2854   1   3895   3896
  2855   1   3898   3900
  2856   1   3898   3899
  2857   1   3901   3903
  2858   1   3901   3902
  2859   1   3904   3906
  2860   1   3904   3905
  2861   1   3907   3909
  2862   1   3907   3908
  2863   1   3910   3912
  2864   1   3910   3911
  2865   1   3913   3915
  2866   1   3913   3914
  2867   1   3916   3918
  2868   1   3916   3917
  2869   1   3919   3921
  2870   1   3919   3920
  2871   1   3922   3924
  2872   1   3922   3923
  2873   1   3925   3927
  2874   1   3925   3926
  2875   1   3928   3930
  2876   1   3928   3929
  2877   1   3931   3933
  2878   1   3931   3932
  2879   1   3934   3936
  2880   1   3934   3935
  2881   1   3937   3939
  2882   1   3937   3938
  2883   1   3940   3942
  2884   1   3940   3941
  2885   1   3943   3945
  2886   1   3943   3944
  2887   1   3946   3948
  2888   1   3946   3947
  2889   1   3949   3951
  2890   1   3949   3950
  2891   1   3952   3954
  2892   1   3952   3953
  2893   1   3955   3957
  2894   1   3955   3956
  2895   1   3958   3960
  2896   1   3958   3959
  2897   1   3961   3963
  2898   1   3961   3962
  2899   1   3964   3966
  2900   1   3964   3965
  2901   1   3967   3969
  2902   1   3967   3968
  2903   1   3970   3972
  2904   1   3970   3971
  2905   1   3973   3975
  2906   1   3973   3974
  2907   1   3976   3978
  2908   1   3976   3977
  2909   1   3979   3981
  2910   1   3979   3980
  2911   1   3982   3984
  2912   1   3982   3983
  2913   1   3985   3987
  2914   1   3985   3986
  2915   1   3988   3990
  2916   1   3988   3989
  2917   1   3991   3993
  2918   1   3991   3992
  2919   1   3994   3996
  2920   1   3994   3995
  2921   1   3997   3999
  2922   1   3997   3998
  2923   1   4000   4002
  2924   1   4000   4001
  2925   1   4003   4005
  2926   1   4003   4004
  2927   1   4006   4008
  2928   1   4006   4007
  2929   1   4009   4011
  2930   1   4009   4010
  2931   1   4012   4014
  2932   1   4012   4013
  2933   1   4015   4017
  2934   1   4015   4016
  2935   1   4018   4020
  2936   1   4018   4019
  2937   1   4021   4023
  2938   1   4021   4022
  2939   1   4024   4026
  2940   1   4024   4025
  2941   1   4027   4029
  2942   1   4027   4028
  2943   1   4030   4032
  2944   1   4030   4031
  2945   1   4033   4035
  2946   1   4033   4034
  2947   1   4036   4038
  2948   1   4036   4037
  2949   1   4039   4041
  2950   1   4039   4040
  2951   1   4042   4044
  2952   1   4042   4043
  2953   1   4045   4047
  2954   1   4045   4046
  2955   1   4048   4050
  2956   1   4048   4049
  2957   1   4051   4053
  2958   1   4051   4052
  2959   1   4054   4056
  2960   1   4054   4055
  2961   1   4057   4059
  2962   1   4057   4058
  2963   1   4060   4062
  2964   1   4060   4061
  2965   1   4063   4065
  2966   1   4063   4064
  2967   1   4066   4068
  2968   1   4066   4067
  2969   1   4069   4071
  2970   1   4069   4070
  2971   1   4072   4074
  2972   1   4072   4073
  2973   1   4075   4077
  2974   1   4075   4076
  2975   1   4078   4080
  2976   1   4078   4079
  2977   1   4081   4083
  2978   1   4081   4082
  2979   1   4084   4086
  2980   1   4084   4085
  2981   1   4087   4089
  2982   1   4087   4088
  2983   1   4090   4092
  2984   1   4090   4091
  2985   1   4093   4095
  2986   1   4093   4094
  2987   1   4096   4098
  2988   1   4096   4097
  2989   1   4099   4101
  2990   1   4099   4100
  2991   1   4102   4104
  2992   1   4102   4103
  2993   1   4105   4107
  2994   1   4105   4106
  2995   1   4108   4110
  2996   1   4108   4109
  2997   1   4111   4113
  2998   1   4111   4112
  2999   1   4114   4116
  3000   1   4114   4115
  3001   1   4117   4119
  3002   1   4117   4118
  3003   1   4120   4122
  3004   1   4120   4121
  3005   1   4123   4125
  3006   1   4123   4124
  3007   1   4126   4128
  3008   1   4126   4127
  3009   1   4129   4131
  3010   1   4129   4130
  3011   1   4132   4134
  3012   1   4132   4133
  3013   1   4135   4137
  3014   1   4135   4136
  3015   1   4138   4140
  3016   1   4138   4139
  3017   1   4141   4143
  3018   1   4141   4142
  3019   1   4144   4146
  3020   1   4144   4145
  3021   1   4147   4149
  3022   1   4147   4148
  3023   1   4150   4152
  3024   1   4150   4151
  3025   1   4153   4155
  3026   1   4153   4154
  3027   1   4156   4158
  3028   1   4156   4157
  3029   1   4159   4161
  3030   1   4159   4160
  3031   1   4162   4164
  3032   1   4162   4163
  3033   1   4165   4167
  3034   1   4165   4166
  3035   1   4168   4170
  3036   1   4168   4169
  3037   1   4171   4173
  3038   1   4171   4172
  3039   1   4174   4176
  3040   1   4174   4175
  3041   1   4177   4179
  3042   1   4177   4178
  3043   1   4180   4182
  3044   1   4180   4181
  3045   1   4183   4185
  3046   1   4183   4184
  3047   1   4186   4188
  3048   1   4186   4187
  3049   1   4189   4191
  3050   1   4189   4190
  3051   1   4192   4194
  3052   1   4192   4193
  3053   1   4195   4197
  3054   1   4195   4196
  3055   1   4198   4200
  3056   1   4198   4199
  3057   1   4201   4203
  3058   1   4201   4202
  3059   1   4204   4206
  3060   1   4204   4205
  3061   1   4207   4209
  3062   1   4207   4208
  3063   1   4210   4212
  3064   1   4210   4211
  3065   1   4213   4215
  3066   1   4213   4214
  3067   1   4216   4218
  3068   1   4216   4217
  3069   1   4219   4221
  3070   1   4219   4220
  3071   1   4222   4224
  3072   1   4222   4223
  3073   1   4225   4227
  3074   1   4225   4226
  3075   1   4228   4230
  3076   1   4228   4229
  3077   1   4231   4233
  3078   1   4231   4232
  3079   1   4234   4236
  3080   1   4234   4235
  3081   1   4237   4239
  3082   1   4237   4238
  3083   1   4240   4242
  3084   1   4240   4241
  3085   1   4243   4245
  3086   1   4243   4244
  3087   1   4246   4248
  3088   1   4246   4247
  3089   1   4249   4251
  3090   1   4249   4250
  3091   1   4252   4254
  3092   1   4252   4253
  3093   1   4255   4257
  3094   1   4255   4256
  3095   1   4258   4260
  3096   1   4258   4259
  3097   1   4261   4263
  3098   1   4261   4262
  3099   1   4264   4266
  3100   1   4264   4265
  3101   1   4267   4269
  3102   1   4267   4268
  3103   1   4270   4272
  3104   1   4270   4271
  3105   1   4273   4275
  3106   1   4273   4274
  3107   1   4276   4278
  3108   1   4276   4277
  3109   1   4279   4281
  3110   1   4279   4280
  3111   1   4282   4284
  3112   1   4282   4283
  3113   1   4285   4287
  3114   1   4285   4286
  3115   1   4288   4290
  3116   1   4288   4289
  3117   1   4291   4293
  3118   1   4291   4292
  3119   1   4294   4296
  3120   1   4294   4295
  3121   1   4297   4299
  3122   1   4297   4298
  3123   1   4300   4302
  3124   1   4300   4301
  3125   1   4303   4305
  3126   1   4303   4304
  3127   1   4306   4308
  3128   1   4306   4307
  3129   1   4309   4311
  3130   1   4309   4310
  3131   1   4312   4314
  3132   1   4312   4313
  3133   1   4315   4317
  3134   1   4315   4316
  3135   1   4318   4320
  3136   1   4318   4319
  3137   1   4321   4323
  3138   1   4321   4322
  3139   1   4324   4326
  3140   1   4324   4325
  3141   1   4327   4329
  3142   1   4327   4328
  3143   1   4330   4332
  3144   1   4330   4331
  3145   1   4333   4335
  3146   1   4333   4334
  3147   1   4336   4338
  3148   1   4336   4337
  3149   1   4339   4341
  3150   1   4339   4340
  3151   1   4342   4344
  3152   1   4342   4343
  3153   1   4345   4347
  3154   1   4345   4346
  3155   1   4348   4350
  3156   1   4348   4349
  3157   1   4351   4353
  3158   1   4351   4352
  3159   1   4354   4356
  3160   1   4354   4355
  3161   1   4357   4359
  3162   1   4357   4358
  3163   1   4360   4362
  3164   1   4360   4361
  3165   1   4363   4365
  3166   1   4363   4364
  3167   1   4366   4368
  3168   1   4366   4367
  3169   1   4369   4371
  3170   1   4369   4370
  3171   1   4372   4374
  3172   1   4372   4373
  3173   1   4375   4377
  3174   1   4375   4376
  3175   1   4378   4380
  3176   1   4378   4379
  3177   1   4381   4383
  3178   1   4381   4382
  3179   1   4384   4386
  3180   1   4384   4385
  3181   1   4387   4389
  3182   1   4387   4388
  3183   1   4390   4392
  3184   1   4390   4391
  3185   1   4393   4395
  3186   1   4393   4394
  3187   1   4396   4398
  3188   1   4396   4397
  3189   1   4399   4401
  3190   1   4399   4400
  3191   1   4402   4404
  3192   1   4402   4403
  3193   1   4405   4407
  3194   1   4405   4406
  3195   1   4408   4410
  3196   1   4408   4409
  3197   1   4411   4413
  3198   1   4411   4412
  3199   1   4414   4416
  3200   1   4414   4415
  3201   1   4417   4419
  3202   1   4417   4418
  3203   1   4420   4422
  3204   1   4420   4421
  3205   1   4423   4425
  3206   1   4423   4424
  3207   1   4426   4428
  3208   1   4426   4427
  3209   1   4429   4431
  3210   1   4429   4430
  3211   1   4432   4434
  3212   1   4432   4433
  3213   1   4435   4437
  3214   1   4435   4436
  3215   1   4438   4440
  3216   1   4438   4439
  3217   1   4441   4443
  3218   1   4441   4442
  3219   1   4444   4446
  3220   1   4444   4445
  3221   1   4447   4449
  3222   1   4447   4448
  3223   1   4450   4452
  3224   1   4450   4451
  3225   1   4453   4455
  3226   1   4453   4454
  3227   1   4456   4458
  3228   1   4456   4457
  3229   1   4459   4461
  3230   1   4459   4460
  3231   1   4462   4464
  3232   1   4462   4463
  3233   1   4465   4467
  3234   1   4465   4466
  3235   1   4468   4470
  3236   1   4468   4469
  3237   1   4471   4473
  3238   1   4471   4472
  3239   1   4474   4476
  3240   1   4474   4475
  3241   1   4477   4479
  3242   1   4477   4478
  3243   1   4480   4482
  3244   1   4480   4481
  3245   1   4483   4485
  3246   1   4483   4484
  3247   1   4486   4488
  3248   1   4486   4487
  3249   1   4489   4491
  3250   1   4489   4490
  3251   1   4492   4494
  3252   1   4492   4493
  3253   1   4495   4497
  3254   1   4495   4496
  3255   1   4498   4500
  3256   1   4498   4499
  3257   1   4501   4503
  3258   1   4501   4502
  3259   1   4504   4506
  3260   1   4504   4505
  3261   1   4507   4509
  3262   1   4507   4508
  3263   1   4510   4512
  3264   1   4510   4511
  3265   1   4513   4515
  3266   1   4513   4514
  3267   1   4516   4518
  3268   1   4516   4517
  3269   1   4519   4521
  3270   1   4519   4520
  3271   1   4522   4524
  3272   1   4522   4523
  3273   1   4525   4527
  3274   1   4525   4526
  3275   1   4528   4530
  3276   1   4528   4529
  3277   1   4531   4533
  3278   1   4531   4532
  3279   1   4534   4536
  3280   1   4534   4535
  3281   1   4537   4539
  3282   1   4537   4538
  3283   1   4540   4542
  3284   1   4540   4541
  3285   1   4543   4545
  3286   1   4543   4544
  3287   1   4546   4548
  3288   1   4546   4547
  3289   1   4549   4551
  3290   1   4549   4550
  3291   1   4552   4554
  3292   1   4552   4553
  3293   1   4555   4557
  3294   1   4555   4556
  3295   1   4558   4560
  3296   1   4558   4559
  3297   1   4561   4563
  3298   1   4561   4562
  3299   1   4564   4566
  3300   1   4564   4565
  3301   1   4567   4569
  3302   1   4567   4568
  3303   1   4570   4572
  3304   1   4570   4571
  3305   1   4573   4575
  3306   1   4573   4574
  3307   1   4576   4578
  3308   1   4576   4577
  3309   1   4579   4581
  3310   1   4579   4580
  3311   1   4582   4584
  3312   1   4582   4583
  3313   1   4585   4587
  3314   1   4585   4586
  3315   1   4588   4590
  3316   1   4588   4589
  3317   1   4591   4593
  3318   1   4591   4592
  3319   1   4594   4596
  3320   1   4594   4595
  3321   1   4597   4599
  3322   1   4597   4598
  3323   1   4600   4602
  3324   1   4600   4601
  3325   1   4603   4605
  3326   1   4603   4604
  3327   1   4606   4608
  3328   1   4606   4607
  3329   1   4609   4611
  3330   1   4609   4610
  3331   1   4612   4614
  3332   1   4612   4613
  3333   1   4615   4617
  3334   1   4615   4616
  3335   1   4618   4620
  3336   1   4618   4619
  3337   1   4621   4623
  3338   1   4621   4622
  3339   1   4624   4626
  3340   1   4624   4625
  3341   1   4627   4629
  3342   1   4627   4628
  3343   1   4630   4632
  3344   1   4630   4631
  3345   1   4633   4635
  3346   1   4633   4634
  3347   1   4636   4638
  3348   1   4636   4637
  3349   1   4639   4641
  3350   1   4639   4640
  3351   1   4642   4644
  3352   1   4642   4643
  3353   1   4645   4647
  3354   1   4645   4646
  3355   1   4648   4650
  3356   1   4648   4649
  3357   1   4651   4653
  3358   1   4651   4652
  3359   1   4654   4656
  3360   1   4654   4655
  3361   1   4657   4659
  3362   1   4657   4658
  3363   1   4660   4662
  3364   1   4660   4661
  3365   1   4663   4665
  3366   1   4663   4664
  3367   1   4666   4668
  3368   1   4666   4667
  3369   1   4669   4671
  3370   1   4669   4670
  3371   1   4672   4674
  3372   1   4672   4673
  3373   1   4675   4677
  3374   1   4675   4676
  3375   1   4678   4680
  3376   1   4678   4679
  3377   1   4681   4683
  3378   1   4681   4682
  3379   1   4684   4686
  3380   1   4684   4685
  3381   1   4687   4689
  3382   1   4687   4688
  3383   1   4690   4692
  3384   1   4690   4691
  3385   1   4693   4695
  3386   1   4693   4694
  3387   1   4696   4698
  3388   1   4696   4697
  3389   1   4699   4701
  3390   1   4699   4700
  3391   1   4702   4704
  3392   1   4702   4703
  3393   1   4705   4707
  3394   1   4705   4706
  3395   1   4708   4710
  3396   1   4708   4709
  3397   1   4711   4713
  3398   1   4711   4712
  3399   1   4714   4716
  3400   1   4714   4715
  3401   1   4717   4719
  3402   1   4717   4718
  3403   1   4720   4722
  3404   1   4720   4721
  3405   1   4723   4725
  3406   1   4723   4724
  3407   1   4726   4728
  3408   1   4726   4727
  3409   1   4729   4731
  3410   1   4729   4730
  3411   1   4732   4734
  3412   1   4732   4733
  3413   1   4735   4737
  3414   1   4735   4736
  3415   1   4738   4740
  3416   1   4738   4739
  3417   1   4741   4743
  3418   1   4741   4742
  3419   1   4744   4746
  3420   1   4744   4745
  3421   1   4747   4749
  3422   1   4747   4748
  3423   1   4750   4752
  3424   1   4750   4751
  3425   1   4753   4755
  3426   1   4753   4754
  3427   1   4756   4758
  3428   1   4756   4757
  3429   1   4759   4761
  3430   1   4759   4760
  3431   1   4762   4764
  3432   1   4762   4763
  3433   1   4765   4767
  3434   1   4765   4766
  3435   1   4768   4770
  3436   1   4768   4769
  3437   1   4771   4773
  3438   1   4771   4772
  3439   1   4774   4776
  3440   1   4774   4775
  3441   1   4777   4779
  3442   1   4777   4778
  3443   1   4780   4782
  3444   1   4780   4781
  3445   1   4783   4785
  3446   1   4783   4784
  3447   1   4786   4788
  3448   1   4786   4787
  3449   1   4789   4791
  3450   1   4789   4790
  3451   1   4792   4794
  3452   1   4792   4793
  3453   1   4795   4797
  3454   1   4795   4796
  3455   1   4798   4800
  3456   1   4798   4799
  3457   1   4801   4803
  3458   1   4801   4802
  3459   1   4804   4806
  3460   1   4804   4805
  3461   1   4807   4809
  3462   1   4807   4808
  3463   1   4810   4812
  3464   1   4810   4811
  3465   1   4813   4815
  3466   1   4813   4814
  3467   1   4816   4818
  3468   1   4816   4817
  3469   1   4819   4821
  3470   1   4819   4820
  3471   1   4822   4824
  3472   1   4822   4823
  3473   1   4825   4827
  3474   1   4825   4826
  3475   1   4828   4830
  3476   1   4828   4829
  3477   1   4831   4833
  3478   1   4831   4832
  3479   1   4834   4836
  3480   1   4834   4835
  3481   1   4837   4839
  3482   1   4837   4838
  3483   1   4840   4842
  3484   1   4840   4841
  3485   1   4843   4845
  3486   1   4843   4844
  3487   1   4846   4848
  3488   1   4846   4847
  3489   1   4849   4851
  3490   1   4849   4850
  3491   1   4852   4854
  3492   1   4852   4853
  3493   1   4855   4857
  3494   1   4855   4856
  3495   1   4858   4860
  3496   1   4858   4859
  3497   1   4861   4863
  3498   1   4861   4862
  3499   1   4864   4866
  3500   1   4864   4865
  3501   1   4867   4869
  3502   1   4867   4868
  3503   1   4870   4872
  3504   1   4870   4871
  3505   1   4873   4875
  3506   1   4873   4874
  3507   1   4876   4878
  3508   1   4876   4877
  3509   1   4879   4881
  3510   1   4879   4880
  3511   1   4882   4884
  3512   1   4882   4883
  3513   1   4885   4887
  3514   1   4885   4886
  3515   1   4888   4890
  3516   1   4888   4889
  3517   1   4891   4893
  3518   1   4891   4892
  3519   1   4894   4896
  3520   1   4894   4895

Angles

     1   1      3      1      2
     2   1     25      5     26
     3   2     12      8     13
     4   2     12      8   2434
     5   3     12      8     57
     6   4     13      8   2434
     7   2     57      8     13
     8   2     57      8   2434
     9   5      4      9     11
    10   6      4      9     14
    11   5      4      9     16
    12   7     11      9     14
    13   8     11      9     16
    14   7     16      9     14
    15   3     12     10     16
    16   2     12     10     17
    17   2     12     10     18
    18   2     16     10     17
    19   2     16     10     18
    20   4     17     10     18
    21   9    100     11      9
    22  10      8     12     10
    23  11      9     14     20
    24   1     21     15     22
    25   9     10     16      9
    26   1     23     19     24
    27   1     48     28     49
    28   2     35     31     36
    29   2     35     31   2435
    30   3     35     31     80
    31   4     36     31   2435
    32   2     80     31     36
    33   2     80     31   2435
    34   5     27     32     34
    35   6     27     32     37
    36   5     27     32     39
    37   7     34     32     37
    38   8     34     32     39
    39   7     39     32     37
    40   3     35     33     39
    41   2     35     33     40
    42   2     35     33     41
    43   2     39     33     40
    44   2     39     33     41
    45   4     40     33     41
    46   9    120     34     32
    47  10     31     35     33
    48  11     32     37     43
    49   1     44     38     45
    50   9     33     39     32
    51   1     46     42     47
    52   1     71     51     72
    53   2     58     54     59
    54   2     58     54   2436
    55   3     58     54    103
    56   4     59     54   2436
    57   2    103     54     59
    58   2    103     54   2436
    59   5     50     55     57
    60   6     50     55     60
    61   5     50     55     62
    62   7     57     55     60
    63   8     57     55     62
    64   7     62     55     60
    65   3     58     56     62
    66   2     58     56     63
    67   2     58     56     64
    68   2     62     56     63
    69   2     62     56     64
    70   4     63     56     64
    71   9      8     57     55
    72  10     54     58     56
    73  11     55     60     66
    74   1     67     61     68
    75   9     56     62     55
    76   1     69     65     70
    77   1     94     74     95
    78   2     81     77     82
    79   2     81     77   2437
    80   3     81     77    123
    81   4     82     77   2437
    82   2    123     77     82
    83   2    123     77   2437
    84   5     73     78     80
    85   6     73     78     83
    86   5     73     78     85
    87   7     80     78     83
    88   8     80     78     85
    89   7     85     78     83
    90   3     81     79     85
    91   2     81     79     86
    92   2     81     79     87
    93   2     85     79     86
    94   2     85     79     87
    95   4     86     79     87
    96   9     31     80     78
    97  10     77     81     79
    98  11     78     83     89
    99   1     90     84     91
   100   9     79     85     78
   101   1     92     88     93
   102   1    114     97    115
   103   2    104    100    105
   104   3    104    100     11
   105   2    104    100   2448
   106   2     11    100    105
   107   4    105    100   2448
   108   2     11    100   2448
   109   5     96    101    103
   110   6     96    101    106
   111   5     96    101    108
   112   7    103    101    106
   113   8    103    101    108
   114   7    108    101    106
   115   3    104    102    108
   116   2    104    102    109
   117   2    104    102    110
   118   2    108    102    109
   119   2    108    102    110
   120   4    109    102    110
   121   9     54    103    101
   122  10    100    104    102
   123  11    101    106    111
   124   1    112    107    113
   125   9    102    108    101
   126   1    134    117    135
   127   2    124    120    125
   128   3    124    120     34
   129   2    124    120   2449
   130   2     34    120    125
   131   4    125    120   2449
   132   2     34    120   2449
   133   5    116    121    123
   134   6    116    121    126
   135   5    116    121    128
   136   7    123    121    126
   137   8    123    121    128
   138   7    128    121    126
   139   3    124    122    128
   140   2    124    122    129
   141   2    124    122    130
   142   2    128    122    129
   143   2    128    122    130
   144   4    129    122    130
   145   9     77    123    121
   146  10    120    124    122
   147  11    121    126    131
   148   1    132    127    133
   149   9    122    128    121
   150   3    141    138    142
   151   2    141    138    143
   152   2    141    138    144
   153   2    142    138    143
   154   2    142    138    144
   155   4    143    138    144
   156   7    141    139    146
   157   8    141    139    148
   158   5    177    139    141
   159   7    148    139    146
   160   6    177    139    146
   161   5    177    139    148
   162   2    142    140    149
   163   2    142    140   2418
   164   3    142    140    548
   165   4    149    140   2418
   166   2    548    140    149
   167   2    548    140   2418
   168   9    138    141    139
   169  10    138    142    140
   170  11    139    146    207
   171   1    210    147    211
   172   9    340    148    139
   173   1    234    150    235
   174   1    212    151    213
   175   1    214    153    215
   176   3    159    156    160
   177   2    159    156    161
   178   2    159    156    162
   179   2    160    156    161
   180   2    160    156    162
   181   4    161    156    162
   182   7    159    157    164
   183   5    193    157    159
   184   8    159    157    366
   185   6    193    157    164
   186   7    366    157    164
   187   5    193    157    366
   188   3    160    158    166
   189   2    160    158    167
   190   2    160    158   2438
   191   2    166    158    167
   192   2    166    158   2438
   193   4    167    158   2438
   194   9    156    159    157
   195  10    156    160    158
   196  11    157    164    205
   197   1    228    165    229
   198   9    158    166   1158
   199   1    218    168    219
   200   2    175    171    176
   201   2    175    171   2439
   202   3    175    171    374
   203   4    176    171   2439
   204   2    374    171    176
   205   2    374    171   2439
   206   5    145    172    174
   207   6    145    172    178
   208   5    145    172    180
   209   7    174    172    178
   210   8    174    172    180
   211   7    180    172    178
   212   3    175    173    180
   213   2    175    173    181
   214   2    175    173    182
   215   2    180    173    181
   216   2    180    173    182
   217   4    181    173    182
   218   9    567    174    172
   219  10    171    175    173
   220  11    172    178    204
   221   1    230    179    231
   222   9    173    180    172
   223   1    208    183    209
   224   1    232    184    233
   225   2    190    187    192
   226   2    190    187   2440
   227   3    190    187   1164
   228   4    192    187   2440
   229   2   1164    187    192
   230   2   1164    187   2440
   231   5    163    188    190
   232   6    163    188    194
   233   5    163    188    196
   234   7    190    188    194
   235   8    190    188    196
   236   7    196    188    194
   237   3    191    189    196
   238   2    191    189    197
   239   2    191    189    198
   240   2    196    189    197
   241   2    196    189    198
   242   4    197    189    198
   243   9    187    190    188
   244  10    189    191    387
   245  11    188    194    206
   246   1    216    195    217
   247   9    189    196    188
   248   1    224    199    225
   249   1    222    200    223
   250   1    220    201    221
   251   1    226    203    227
   252   3    241    238    242
   253   2    241    238    243
   254   2    241    238    244
   255   2    242    238    243
   256   2    242    238    244
   257   4    243    238    244
   258   7    241    239    246
   259   8    241    239    248
   260   5    277    239    241
   261   7    248    239    246
   262   6    277    239    246
   263   5    277    239    248
   264   2    242    240    249
   265   2    242    240   2419
   266   3    242    240    635
   267   4    249    240   2419
   268   2    635    240    249
   269   2    635    240   2419
   270   9    238    241    239
   271  10    238    242    240
   272  11    239    246    307
   273   1    310    247    311
   274   9    440    248    239
   275   1    334    250    335
   276   1    312    251    313
   277   1    314    253    315
   278   3    259    256    260
   279   2    259    256    261
   280   2    259    256    262
   281   2    260    256    261
   282   2    260    256    262
   283   4    261    256    262
   284   7    259    257    264
   285   5    293    257    259
   286   8    259    257    466
   287   6    293    257    264
   288   7    466    257    264
   289   5    293    257    466
   290   3    260    258    266
   291   2    260    258    267
   292   2    260    258   2441
   293   2    266    258    267
   294   2    266    258   2441
   295   4    267    258   2441
   296   9    256    259    257
   297  10    256    260    258
   298  11    257    264    305
   299   1    328    265    329
   300   9    258    266   1171
   301   1    318    268    319
   302   2    275    271    276
   303   2    275    271   2442
   304   3    275    271    474
   305   4    276    271   2442
   306   2    474    271    276
   307   2    474    271   2442
   308   5    245    272    274
   309   6    245    272    278
   310   5    245    272    280
   311   7    274    272    278
   312   8    274    272    280
   313   7    280    272    278
   314   3    275    273    280
   315   2    275    273    281
   316   2    275    273    282
   317   2    280    273    281
   318   2    280    273    282
   319   4    281    273    282
   320   9    654    274    272
   321  10    271    275    273
   322  11    272    278    304
   323   1    330    279    331
   324   9    273    280    272
   325   1    308    283    309
   326   1    332    284    333
   327   2    290    287    292
   328   2    290    287   2443
   329   3    290    287   1177
   330   4    292    287   2443
   331   2   1177    287    292
   332   2   1177    287   2443
   333   5    263    288    290
   334   6    263    288    294
   335   5    263    288    296
   336   7    290    288    294
   337   8    290    288    296
   338   7    296    288    294
   339   3    291    289    296
   340   2    291    289    297
   341   2    291    289    298
   342   2    296    289    297
   343   2    296    289    298
   344   4    297    289    298
   345   9    287    290    288
   346  10    289    291    487
   347  11    288    294    306
   348   1    316    295    317
   349   9    289    296    288
   350   1    324    299    325
   351   1    322    300    323
   352   1    320    301    321
   353   1    326    303    327
   354   3    341    338    342
   355   2    341    338    343
   356   2    341    338    344
   357   2    342    338    343
   358   2    342    338    344
   359   4    343    338    344
   360   7    341    339    346
   361   8    341    339    348
   362   5    377    339    341
   363   7    348    339    346
   364   6    377    339    346
   365   5    377    339    348
   366   3    148    340    342
   367   2    148    340    349
   368   2    148    340   2404
   369   2    342    340    349
   370   2    342    340   2404
   371   4    349    340   2404
   372   9    338    341    339
   373  10    338    342    340
   374  11    339    346    407
   375   1    410    347    411
   376   9    540    348    339
   377   1    434    350    435
   378   1    412    351    413
   379   1    414    353    415
   380   3    359    356    360
   381   2    359    356    361
   382   2    359    356    362
   383   2    360    356    361
   384   2    360    356    362
   385   4    361    356    362
   386   7    359    357    364
   387   5    393    357    359
   388   8    359    357    564
   389   6    393    357    364
   390   7    564    357    364
   391   5    393    357    564
   392   3    360    358    366
   393   2    360    358    367
   394   2    360    358   2405
   395   2    366    358    367
   396   2    366    358   2405
   397   4    367    358   2405
   398   9    356    359    357
   399  10    356    360    358
   400  11    357    364    405
   401   1    428    365    429
   402   9    358    366    157
   403   1    418    368    419
   404   2    375    371    376
   405   2    375    371   2406
   406   3    375    371    570
   407   4    376    371   2406
   408   2    570    371    376
   409   2    570    371   2406
   410   5    345    372    374
   411   6    345    372    378
   412   5    345    372    380
   413   7    374    372    378
   414   8    374    372    380
   415   7    380    372    378
   416   3    375    373    380
   417   2    375    373    381
   418   2    375    373    382
   419   2    380    373    381
   420   2    380    373    382
   421   4    381    373    382
   422   9    171    374    372
   423  10    371    375    373
   424  11    372    378    404
   425   1    430    379    431
   426   9    373    380    372
   427   1    408    383    409
   428   1    432    384    433
   429   3    191    387    390
   430   2    191    387    392
   431   2    191    387   2407
   432   2    390    387    392
   433   2    390    387   2407
   434   4    392    387   2407
   435   5    363    388    390
   436   6    363    388    394
   437   5    363    388    396
   438   7    390    388    394
   439   8    390    388    396
   440   7    396    388    394
   441   3    391    389    396
   442   2    391    389    397
   443   2    391    389    398
   444   2    396    389    397
   445   2    396    389    398
   446   4    397    389    398
   447   9    387    390    388
   448  10    389    391    581
   449  11    388    394    406
   450   1    416    395    417
   451   9    389    396    388
   452   1    424    399    425
   453   1    422    400    423
   454   1    420    401    421
   455   1    426    403    427
   456   3    441    438    442
   457   2    441    438    443
   458   2    441    438    444
   459   2    442    438    443
   460   2    442    438    444
   461   4    443    438    444
   462   7    441    439    446
   463   8    441    439    448
   464   5    477    439    441
   465   7    448    439    446
   466   6    477    439    446
   467   5    477    439    448
   468   3    248    440    442
   469   2    248    440    449
   470   2    248    440   2408
   471   2    442    440    449
   472   2    442    440   2408
   473   4    449    440   2408
   474   9    438    441    439
   475  10    438    442    440
   476  11    439    446    507
   477   1    510    447    511
   478   9    627    448    439
   479   1    534    450    535
   480   1    512    451    513
   481   1    514    453    515
   482   3    459    456    460
   483   2    459    456    461
   484   2    459    456    462
   485   2    460    456    461
   486   2    460    456    462
   487   4    461    456    462
   488   7    459    457    464
   489   5    493    457    459
   490   8    459    457    651
   491   6    493    457    464
   492   7    651    457    464
   493   5    493    457    651
   494   3    460    458    466
   495   2    460    458    467
   496   2    460    458   2409
   497   2    466    458    467
   498   2    466    458   2409
   499   4    467    458   2409
   500   9    456    459    457
   501  10    456    460    458
   502  11    457    464    505
   503   1    528    465    529
   504   9    458    466    257
   505   1    518    468    519
   506   2    475    471    476
   507   2    475    471   2410
   508   3    475    471    657
   509   4    476    471   2410
   510   2    657    471    476
   511   2    657    471   2410
   512   5    445    472    474
   513   6    445    472    478
   514   5    445    472    480
   515   7    474    472    478
   516   8    474    472    480
   517   7    480    472    478
   518   3    475    473    480
   519   2    475    473    481
   520   2    475    473    482
   521   2    480    473    481
   522   2    480    473    482
   523   4    481    473    482
   524   9    271    474    472
   525  10    471    475    473
   526  11    472    478    504
   527   1    530    479    531
   528   9    473    480    472
   529   1    508    483    509
   530   1    532    484    533
   531   3    291    487    490
   532   2    291    487    492
   533   2    291    487   2411
   534   2    490    487    492
   535   2    490    487   2411
   536   4    492    487   2411
   537   5    463    488    490
   538   6    463    488    494
   539   5    463    488    496
   540   7    490    488    494
   541   8    490    488    496
   542   7    496    488    494
   543   3    491    489    496
   544   2    491    489    497
   545   2    491    489    498
   546   2    496    489    497
   547   2    496    489    498
   548   4    497    489    498
   549   9    487    490    488
   550  10    489    491    668
   551  11    488    494    506
   552   1    516    495    517
   553   9    489    496    488
   554   1    524    499    525
   555   1    522    500    523
   556   1    520    501    521
   557   1    526    503    527
   558   3    541    538    542
   559   2    541    538    543
   560   2    541    538    544
   561   2    542    538    543
   562   2    542    538    544
   563   4    543    538    544
   564   7    541    539    546
   565   8    541    539    548
   566   5    573    539    541
   567   7    548    539    546
   568   6    573    539    546
   569   5    573    539    548
   570   3    348    540    542
   571   2    348    540    549
   572   2    348    540   2412
   573   2    542    540    549
   574   2    542    540   2412
   575   4    549    540   2412
   576   9    538    541    539
   577  10    538    542    540
   578  11    539    546    598
   579   1    601    547    602
   580   9    140    548    539
   581   1    621    550    622
   582   1    603    551    604
   583   1    605    553    606
   584   3    558    556    559
   585   2    558    556    560
   586   2    558    556    561
   587   2    559    556    560
   588   2    559    556    561
   589   4    560    556    561
   590   3    559    557    564
   591   2    559    557    565
   592   2    559    557   2413
   593   2    564    557    565
   594   2    564    557   2413
   595   4    565    557   2413
   596   9    556    558   1158
   597  10    556    559    557
   598   1    617    563    618
   599   9    557    564    357
   600   2    571    567    572
   601   3    571    567    174
   602   2    571    567   2450
   603   2    174    567    572
   604   4    572    567   2450
   605   2    174    567   2450
   606   5    545    568    570
   607   6    545    568    574
   608   5    545    568    576
   609   7    570    568    574
   610   8    570    568    576
   611   7    576    568    574
   612   3    571    569    576
   613   2    571    569    577
   614   2    571    569    578
   615   2    576    569    577
   616   2    576    569    578
   617   4    577    569    578
   618   9    371    570    568
   619  10    567    571    569
   620  11    568    574    596
   621   1    619    575    620
   622   9    569    576    568
   623   1    599    579    600
   624   3    391    581    584
   625   2    391    581    585
   626   2    391    581   2414
   627   2    584    581    585
   628   2    584    581   2414
   629   4    585    581   2414
   630   5    562    582    584
   631   6    562    582    586
   632   5    562    582    588
   633   7    584    582    586
   634   8    584    582    588
   635   7    588    582    586
   636   2    588    583    589
   637   2    588    583    590
   638   3    588    583   1164
   639   4    589    583    590
   640   2   1164    583    589
   641   2   1164    583    590
   642   9    581    584    582
   643  11    582    586    597
   644   1    607    587    608
   645   9    583    588    582
   646   1    613    591    614
   647   1    611    592    612
   648   1    609    593    610
   649   1    615    595    616
   650   3    628    625    629
   651   2    628    625    630
   652   2    628    625    631
   653   2    629    625    630
   654   2    629    625    631
   655   4    630    625    631
   656   7    628    626    633
   657   8    628    626    635
   658   5    660    626    628
   659   7    635    626    633
   660   6    660    626    633
   661   5    660    626    635
   662   3    448    627    629
   663   2    448    627    636
   664   2    448    627   2415
   665   2    629    627    636
   666   2    629    627   2415
   667   4    636    627   2415
   668   9    625    628    626
   669  10    625    629    627
   670  11    626    633    685
   671   1    688    634    689
   672   9    240    635    626
   673   1    708    637    709
   674   1    690    638    691
   675   1    692    640    693
   676   3    645    643    646
   677   2    645    643    647
   678   2    645    643    648
   679   2    646    643    647
   680   2    646    643    648
   681   4    647    643    648
   682   3    646    644    651
   683   2    646    644    652
   684   2    646    644   2416
   685   2    651    644    652
   686   2    651    644   2416
   687   4    652    644   2416
   688   9    643    645   1171
   689  10    643    646    644
   690   1    704    650    705
   691   9    644    651    457
   692   2    658    654    659
   693   3    658    654    274
   694   2    658    654   2451
   695   2    274    654    659
   696   4    659    654   2451
   697   2    274    654   2451
   698   5    632    655    657
   699   6    632    655    661
   700   5    632    655    663
   701   7    657    655    661
   702   8    657    655    663
   703   7    663    655    661
   704   3    658    656    663
   705   2    658    656    664
   706   2    658    656    665
   707   2    663    656    664
   708   2    663    656    665
   709   4    664    656    665
   710   9    471    657    655
   711  10    654    658    656
   712  11    655    661    683
   713   1    706    662    707
   714   9    656    663    655
   715   1    686    666    687
   716   3    491    668    671
   717   2    491    668    672
   718   2    491    668   2417
   719   2    671    668    672
   720   2    671    668   2417
   721   4    672    668   2417
   722   5    649    669    671
   723   6    649    669    673
   724   5    649    669    675
   725   7    671    669    673
   726   8    671    669    675
   727   7    675    669    673
   728   2    675    670    676
   729   2    675    670    677
   730   3    675    670   1177
   731   4    676    670    677
   732   2   1177    670    676
   733   2   1177    670    677
   734   9    668    671    669
   735  11    669    673    684
   736   1    694    674    695
   737   9    670    675    669
   738   1    700    678    701
   739   1    698    679    699
   740   1    696    680    697
   741   1    702    682    703
   742   3    715    712    716
   743   2    715    712    717
   744   2    715    712    718
   745   2    716    712    717
   746   2    716    712    718
   747   4    717    712    718
   748   7    715    713    719
   749   8    715    713    721
   750   5    741    713    715
   751   7    721    713    719
   752   6    741    713    719
   753   5    741    713    721
   754   2    716    714    722
   755   2    716    714   2432
   756   3    716    714   1029
   757   4    722    714   2432
   758   2   1029    714    722
   759   2   1029    714   2432
   760   9    712    715    713
   761  10    712    716    714
   762  11    713    719    764
   763   1    767    720    768
   764   9    868    721    713
   765   1    769    723    770
   766   1    771    725    772
   767   3    730    727    731
   768   2    730    727    732
   769   2    730    727    733
   770   2    731    727    732
   771   2    731    727    733
   772   4    732    727    733
   773   7    730    728    735
   774   5    751    728    730
   775   8    730    728    891
   776   6    751    728    735
   777   7    891    728    735
   778   5    751    728    891
   779   3    731    729    737
   780   2    731    729    738
   781   2    731    729   2444
   782   2    737    729    738
   783   2    737    729   2444
   784   4    738    729   2444
   785   9    727    730    728
   786  10    727    731    729
   787  11    728    735    762
   788   1    785    736    786
   789   9    729    737   1184
   790   1    775    739    776
   791   1    765    742    766
   792   2    748    745    750
   793   2    748    745   2445
   794   3    748    745   1189
   795   4    750    745   2445
   796   2   1189    745    750
   797   2   1189    745   2445
   798   5    734    746    748
   799   6    734    746    752
   800   5    734    746    754
   801   7    748    746    752
   802   8    748    746    754
   803   7    754    746    752
   804   3    749    747    754
   805   2    749    747    755
   806   2    749    747    756
   807   2    754    747    755
   808   2    754    747    756
   809   4    755    747    756
   810   9    745    748    746
   811  10    747    749    899
   812  11    746    752    763
   813   1    773    753    774
   814   9    747    754    746
   815   1    781    757    782
   816   1    779    758    780
   817   1    777    759    778
   818   1    783    761    784
   819   3    792    789    793
   820   2    792    789    794
   821   2    792    789    795
   822   2    793    789    794
   823   2    793    789    795
   824   4    794    789    795
   825   7    792    790    796
   826   8    792    790    798
   827   5    818    790    792
   828   7    798    790    796
   829   6    818    790    796
   830   5    818    790    798
   831   2    793    791    799
   832   2    793    791   2433
   833   3    793    791   1096
   834   4    799    791   2433
   835   2   1096    791    799
   836   2   1096    791   2433
   837   9    789    792    790
   838  10    789    793    791
   839  11    790    796    841
   840   1    844    797    845
   841   9    945    798    790
   842   1    846    800    847
   843   1    848    802    849
   844   3    807    804    808
   845   2    807    804    809
   846   2    807    804    810
   847   2    808    804    809
   848   2    808    804    810
   849   4    809    804    810
   850   7    807    805    812
   851   5    828    805    807
   852   8    807    805    968
   853   6    828    805    812
   854   7    968    805    812
   855   5    828    805    968
   856   3    808    806    814
   857   2    808    806    815
   858   2    808    806   2446
   859   2    814    806    815
   860   2    814    806   2446
   861   4    815    806   2446
   862   9    804    807    805
   863  10    804    808    806
   864  11    805    812    839
   865   1    862    813    863
   866   9    806    814   1194
   867   1    852    816    853
   868   1    842    819    843
   869   2    825    822    827
   870   2    825    822   2447
   871   3    825    822   1199
   872   4    827    822   2447
   873   2   1199    822    827
   874   2   1199    822   2447
   875   5    811    823    825
   876   6    811    823    829
   877   5    811    823    831
   878   7    825    823    829
   879   8    825    823    831
   880   7    831    823    829
   881   3    826    824    831
   882   2    826    824    832
   883   2    826    824    833
   884   2    831    824    832
   885   2    831    824    833
   886   4    832    824    833
   887   9    822    825    823
   888  10    824    826    976
   889  11    823    829    840
   890   1    850    830    851
   891   9    824    831    823
   892   1    858    834    859
   893   1    856    835    857
   894   1    854    836    855
   895   1    860    838    861
   896   3    869    866    870
   897   2    869    866    871
   898   2    869    866    872
   899   2    870    866    871
   900   2    870    866    872
   901   4    871    866    872
   902   7    869    867    873
   903   8    869    867    875
   904   5    895    867    869
   905   7    875    867    873
   906   6    895    867    873
   907   5    895    867    875
   908   3    721    868    870
   909   2    721    868    876
   910   2    721    868   2420
   911   2    870    868    876
   912   2    870    868   2420
   913   4    876    868   2420
   914   9    866    869    867
   915  10    866    870    868
   916  11    867    873    918
   917   1    921    874    922
   918   9   1022    875    867
   919   1    923    877    924
   920   1    925    879    926
   921   3    884    881    885
   922   2    884    881    886
   923   2    884    881    887
   924   2    885    881    886
   925   2    885    881    887
   926   4    886    881    887
   927   7    884    882    889
   928   5    905    882    884
   929   8    884    882   1043
   930   6    905    882    889
   931   7   1043    882    889
   932   5    905    882   1043
   933   3    885    883    891
   934   2    885    883    892
   935   2    885    883   2421
   936   2    891    883    892
   937   2    891    883   2421
   938   4    892    883   2421
   939   9    881    884    882
   940  10    881    885    883
   941  11    882    889    916
   942   1    939    890    940
   943   9    883    891    728
   944   1    929    893    930
   945   1    919    896    920
   946   3    749    899    902
   947   2    749    899    904
   948   2    749    899   2422
   949   2    902    899    904
   950   2    902    899   2422
   951   4    904    899   2422
   952   5    888    900    902
   953   6    888    900    906
   954   5    888    900    908
   955   7    902    900    906
   956   8    902    900    908
   957   7    908    900    906
   958   3    903    901    908
   959   2    903    901    909
   960   2    903    901    910
   961   2    908    901    909
   962   2    908    901    910
   963   4    909    901    910
   964   9    899    902    900
   965  10    901    903   1048
   966  11    900    906    917
   967   1    927    907    928
   968   9    901    908    900
   969   1    935    911    936
   970   1    933    912    934
   971   1    931    913    932
   972   1    937    915    938
   973   3    946    943    947
   974   2    946    943    948
   975   2    946    943    949
   976   2    947    943    948
   977   2    947    943    949
   978   4    948    943    949
   979   7    946    944    950
   980   8    946    944    952
   981   5    972    944    946
   982   7    952    944    950
   983   6    972    944    950
   984   5    972    944    952
   985   3    798    945    947
   986   2    798    945    953
   987   2    798    945   2423
   988   2    947    945    953
   989   2    947    945   2423
   990   4    953    945   2423
   991   9    943    946    944
   992  10    943    947    945
   993  11    944    950    995
   994   1    998    951    999
   995   9   1089    952    944
   996   1   1000    954   1001
   997   1   1002    956   1003
   998   3    961    958    962
   999   2    961    958    963
  1000   2    961    958    964
  1001   2    962    958    963
  1002   2    962    958    964
  1003   4    963    958    964
  1004   7    961    959    966
  1005   5    982    959    961
  1006   8    961    959   1110
  1007   6    982    959    966
  1008   7   1110    959    966
  1009   5    982    959   1110
  1010   3    962    960    968
  1011   2    962    960    969
  1012   2    962    960   2424
  1013   2    968    960    969
  1014   2    968    960   2424
  1015   4    969    960   2424
  1016   9    958    961    959
  1017  10    958    962    960
  1018  11    959    966    993
  1019   1   1016    967   1017
  1020   9    960    968    805
  1021   1   1006    970   1007
  1022   1    996    973    997
  1023   3    826    976    979
  1024   2    826    976    981
  1025   2    826    976   2425
  1026   2    979    976    981
  1027   2    979    976   2425
  1028   4    981    976   2425
  1029   5    965    977    979
  1030   6    965    977    983
  1031   5    965    977    985
  1032   7    979    977    983
  1033   8    979    977    985
  1034   7    985    977    983
  1035   3    980    978    985
  1036   2    980    978    986
  1037   2    980    978    987
  1038   2    985    978    986
  1039   2    985    978    987
  1040   4    986    978    987
  1041   9    976    979    977
  1042  10    978    980   1115
  1043  11    977    983    994
  1044   1   1004    984   1005
  1045   9    978    985    977
  1046   1   1012    988   1013
  1047   1   1010    989   1011
  1048   1   1008    990   1009
  1049   1   1014    992   1015
  1050   3   1023   1020   1024
  1051   2   1023   1020   1025
  1052   2   1023   1020   1026
  1053   2   1024   1020   1025
  1054   2   1024   1020   1026
  1055   4   1025   1020   1026
  1056   7   1023   1021   1027
  1057   8   1023   1021   1029
  1058   5   1045   1021   1023
  1059   7   1029   1021   1027
  1060   6   1045   1021   1027
  1061   5   1045   1021   1029
  1062   3    875   1022   1024
  1063   2    875   1022   1030
  1064   2    875   1022   2426
  1065   2   1024   1022   1030
  1066   2   1024   1022   2426
  1067   4   1030   1022   2426
  1068   9   1020   1023   1021
  1069  10   1020   1024   1022
  1070  11   1021   1027   1064
  1071   1   1067   1028   1068
  1072   9    714   1029   1021
  1073   1   1069   1031   1070
  1074   1   1071   1033   1072
  1075   3   1037   1035   1038
  1076   2   1037   1035   1039
  1077   2   1037   1035   1040
  1078   2   1038   1035   1039
  1079   2   1038   1035   1040
  1080   4   1039   1035   1040
  1081   3   1038   1036   1043
  1082   2   1038   1036   1044
  1083   2   1038   1036   2427
  1084   2   1043   1036   1044
  1085   2   1043   1036   2427
  1086   4   1044   1036   2427
  1087   9   1035   1037   1184
  1088  10   1035   1038   1036
  1089   1   1083   1042   1084
  1090   9   1036   1043    882
  1091   1   1065   1046   1066
  1092   3    903   1048   1051
  1093   2    903   1048   1052
  1094   2    903   1048   2428
  1095   2   1051   1048   1052
  1096   2   1051   1048   2428
  1097   4   1052   1048   2428
  1098   5   1041   1049   1051
  1099   6   1041   1049   1053
  1100   5   1041   1049   1055
  1101   7   1051   1049   1053
  1102   8   1051   1049   1055
  1103   7   1055   1049   1053
  1104   2   1055   1050   1056
  1105   2   1055   1050   1057
  1106   3   1055   1050   1189
  1107   4   1056   1050   1057
  1108   2   1189   1050   1056
  1109   2   1189   1050   1057
  1110   9   1048   1051   1049
  1111  11   1049   1053   1063
  1112   1   1073   1054   1074
  1113   9   1050   1055   1049
  1114   1   1079   1058   1080
  1115   1   1077   1059   1078
  1116   1   1075   1060   1076
  1117   1   1081   1062   1082
  1118   3   1090   1087   1091
  1119   2   1090   1087   1092
  1120   2   1090   1087   1093
  1121   2   1091   1087   1092
  1122   2   1091   1087   1093
  1123   4   1092   1087   1093
  1124   7   1090   1088   1094
  1125   8   1090   1088   1096
  1126   5   1112   1088   1090
  1127   7   1096   1088   1094
  1128   6   1112   1088   1094
  1129   5   1112   1088   1096
  1130   3    952   1089   1091
  1131   2    952   1089   1097
  1132   2    952   1089   2429
  1133   2   1091   1089   1097
  1134   2   1091   1089   2429
  1135   4   1097   1089   2429
  1136   9   1087   1090   1088
  1137  10   1087   1091   1089
  1138  11   1088   1094   1131
  1139   1   1134   1095   1135
  1140   9    791   1096   1088
  1141   1   1136   1098   1137
  1142   1   1138   1100   1139
  1143   3   1104   1102   1105
  1144   2   1104   1102   1106
  1145   2   1104   1102   1107
  1146   2   1105   1102   1106
  1147   2   1105   1102   1107
  1148   4   1106   1102   1107
  1149   3   1105   1103   1110
  1150   2   1105   1103   1111
  1151   2   1105   1103   2430
  1152   2   1110   1103   1111
  1153   2   1110   1103   2430
  1154   4   1111   1103   2430
  1155   9   1102   1104   1194
  1156  10   1102   1105   1103
  1157   1   1150   1109   1151
  1158   9   1103   1110    959
  1159   1   1132   1113   1133
  1160   3    980   1115   1118
  1161   2    980   1115   1119
  1162   2    980   1115   2431
  1163   2   1118   1115   1119
  1164   2   1118   1115   2431
  1165   4   1119   1115   2431
  1166   5   1108   1116   1118
  1167   6   1108   1116   1120
  1168   5   1108   1116   1122
  1169   7   1118   1116   1120
  1170   8   1118   1116   1122
  1171   7   1122   1116   1120
  1172   2   1122   1117   1123
  1173   2   1122   1117   1124
  1174   3   1122   1117   1199
  1175   4   1123   1117   1124
  1176   2   1199   1117   1123
  1177   2   1199   1117   1124
  1178   9   1115   1118   1116
  1179  11   1116   1120   1130
  1180   1   1140   1121   1141
  1181   9   1117   1122   1116
  1182   1   1146   1125   1147
  1183   1   1144   1126   1145
  1184   1   1142   1127   1143
  1185   1   1148   1129   1149
  1186   1   1153   1152   1154
  1187   1   1156   1155   1157
  1188   7    166   1158   1159
  1189   5   1165   1158    166
  1190   8    166   1158    558
  1191   6   1165   1158   1159
  1192   7    558   1158   1159
  1193   5   1165   1158    558
  1194  11   1158   1159   1166
  1195   1   1167   1160   1168
  1196   1   1169   1162   1170
  1197  10    187   1164    583
  1198   7    266   1171   1172
  1199   5   1178   1171    266
  1200   8    266   1171    645
  1201   6   1178   1171   1172
  1202   7    645   1171   1172
  1203   5   1178   1171    645
  1204  11   1171   1172   1179
  1205   1   1180   1173   1181
  1206   1   1182   1175   1183
  1207  10    287   1177    670
  1208   7    737   1184   1185
  1209   5   1190   1184    737
  1210   8    737   1184   1037
  1211   6   1190   1184   1185
  1212   7   1037   1184   1185
  1213   5   1190   1184   1037
  1214  11   1184   1185   1191
  1215   1   1192   1186   1193
  1216  10    745   1189   1050
  1217   7    814   1194   1195
  1218   5   1200   1194    814
  1219   8    814   1194   1104
  1220   6   1200   1194   1195
  1221   7   1104   1194   1195
  1222   5   1200   1194   1104
  1223  11   1194   1195   1201
  1224   1   1202   1196   1203
  1225  10    822   1199   1117
  1226   1   1224   1205   1225
  1227   3   1211   1208   1212
  1228   2   1211   1208   1213
  1229   2   1211   1208   2494
  1230   2   1212   1208   1213
  1231   2   1212   1208   2494
  1232   4   1213   1208   2494
  1233   5   1204   1209   1211
  1234   6   1204   1209   1214
  1235   5   1204   1209   1216
  1236   7   1211   1209   1214
  1237   8   1211   1209   1216
  1238   7   1216   1209   1214
  1239   2   1212   1210   1217
  1240   2   1212   1210   2384
  1241   3   1212   1210   1306
  1242   4   1217   1210   2384
  1243   2   1306   1210   1217
  1244   2   1306   1210   2384
  1245   9   1208   1211   1209
  1246  10   1208   1212   1210
  1247  11   1209   1214   1219
  1248   1   1220   1215   1221
  1249   9   1254   1216   1209
  1250   1   1222   1218   1223
  1251   1   1246   1227   1247
  1252   3   1233   1230   1234
  1253   2   1233   1230   1235
  1254   2   1233   1230   2495
  1255   2   1234   1230   1235
  1256   2   1234   1230   2495
  1257   4   1235   1230   2495
  1258   5   1226   1231   1233
  1259   6   1226   1231   1236
  1260   5   1226   1231   1238
  1261   7   1233   1231   1236
  1262   8   1233   1231   1238
  1263   7   1238   1231   1236
  1264   2   1234   1232   1239
  1265   2   1234   1232   2385
  1266   3   1234   1232   1329
  1267   4   1239   1232   2385
  1268   2   1329   1232   1239
  1269   2   1329   1232   2385
  1270   9   1230   1233   1231
  1271  10   1230   1234   1232
  1272  11   1231   1236   1241
  1273   1   1242   1237   1243
  1274   9   1277   1238   1231
  1275   1   1244   1240   1245
  1276   1   1269   1249   1270
  1277   3   1255   1252   1256
  1278   2   1255   1252   1257
  1279   2   1255   1252   2496
  1280   2   1256   1252   1257
  1281   2   1256   1252   2496
  1282   4   1257   1252   2496
  1283   5   1248   1253   1255
  1284   6   1248   1253   1258
  1285   5   1248   1253   1260
  1286   7   1255   1253   1258
  1287   8   1255   1253   1260
  1288   7   1260   1253   1258
  1289   3   1216   1254   1256
  1290   2   1216   1254   1261
  1291   2   1216   1254   1262
  1292   2   1256   1254   1261
  1293   2   1256   1254   1262
  1294   4   1261   1254   1262
  1295   9   1252   1255   1253
  1296  10   1252   1256   1254
  1297  11   1253   1258   1264
  1298   1   1265   1259   1266
  1299   9   1300   1260   1253
  1300   1   1267   1263   1268
  1301   1   1292   1272   1293
  1302   3   1278   1275   1279
  1303   2   1278   1275   1280
  1304   2   1278   1275   2497
  1305   2   1279   1275   1280
  1306   2   1279   1275   2497
  1307   4   1280   1275   2497
  1308   5   1271   1276   1278
  1309   6   1271   1276   1281
  1310   5   1271   1276   1283
  1311   7   1278   1276   1281
  1312   8   1278   1276   1283
  1313   7   1283   1276   1281
  1314   3   1238   1277   1279
  1315   2   1238   1277   1284
  1316   2   1238   1277   1285
  1317   2   1279   1277   1284
  1318   2   1279   1277   1285
  1319   4   1284   1277   1285
  1320   9   1275   1278   1276
  1321  10   1275   1279   1277
  1322  11   1276   1281   1287
  1323   1   1288   1282   1289
  1324   9   1323   1283   1276
  1325   1   1290   1286   1291
  1326   1   1315   1295   1316
  1327   3   1301   1298   1302
  1328   2   1301   1298   1303
  1329   2   1301   1298   2498
  1330   2   1302   1298   1303
  1331   2   1302   1298   2498
  1332   4   1303   1298   2498
  1333   5   1294   1299   1301
  1334   6   1294   1299   1304
  1335   5   1294   1299   1306
  1336   7   1301   1299   1304
  1337   8   1301   1299   1306
  1338   7   1306   1299   1304
  1339   3   1260   1300   1302
  1340   2   1260   1300   1307
  1341   2   1260   1300   1308
  1342   2   1302   1300   1307
  1343   2   1302   1300   1308
  1344   4   1307   1300   1308
  1345   9   1298   1301   1299
  1346  10   1298   1302   1300
  1347  11   1299   1304   1310
  1348   1   1311   1305   1312
  1349   9   1210   1306   1299
  1350   1   1313   1309   1314
  1351   1   1338   1318   1339
  1352   3   1324   1321   1325
  1353   2   1324   1321   1326
  1354   2   1324   1321   2499
  1355   2   1325   1321   1326
  1356   2   1325   1321   2499
  1357   4   1326   1321   2499
  1358   5   1317   1322   1324
  1359   6   1317   1322   1327
  1360   5   1317   1322   1329
  1361   7   1324   1322   1327
  1362   8   1324   1322   1329
  1363   7   1329   1322   1327
  1364   3   1283   1323   1325
  1365   2   1283   1323   1330
  1366   2   1283   1323   1331
  1367   2   1325   1323   1330
  1368   2   1325   1323   1331
  1369   4   1330   1323   1331
  1370   9   1321   1324   1322
  1371  10   1321   1325   1323
  1372  11   1322   1327   1333
  1373   1   1334   1328   1335
  1374   9   1232   1329   1322
  1375   1   1336   1332   1337
  1376   2   1346   1342   1347
  1377   2   1346   1342   1348
  1378   3   1346   1342   1535
  1379   4   1347   1342   1348
  1380   2   1535   1342   1347
  1381   2   1535   1342   1348
  1382   7   1345   1343   1350
  1383   8   1345   1343   1352
  1384   5   1381   1343   1345
  1385   7   1352   1343   1350
  1386   6   1381   1343   1350
  1387   5   1381   1343   1352
  1388   3   1346   1344   1352
  1389   2   1346   1344   1353
  1390   2   1346   1344   2452
  1391   2   1352   1344   1353
  1392   2   1352   1344   2452
  1393   4   1353   1344   2452
  1394   9   1732   1345   1343
  1395  10   1342   1346   1344
  1396  11   1343   1350   1408
  1397   1   1411   1351   1412
  1398   9   1344   1352   1343
  1399   1   1433   1354   1434
  1400   1   1413   1355   1414
  1401   1   1415   1357   1416
  1402   2   1363   1360   1365
  1403   2   1363   1360   1366
  1404   3   1363   1360   2377
  1405   4   1365   1360   1366
  1406   2   2377   1360   1365
  1407   2   2377   1360   1366
  1408   7   1363   1361   1368
  1409   8   1363   1361   1370
  1410   5   1396   1361   1363
  1411   7   1370   1361   1368
  1412   6   1396   1361   1368
  1413   5   1396   1361   1370
  1414   2   1370   1362   1371
  1415   2   1370   1362   2453
  1416   3   1370   1362   1364
  1417   4   1371   1362   2453
  1418   2   1364   1362   1371
  1419   2   1364   1362   2453
  1420   9   1360   1363   1361
  1421  10   1362   1364   1550
  1422  11   1361   1368   1407
  1423   1   1427   1369   1428
  1424   9   1362   1370   1361
  1425   1   1419   1372   1420
  1426   3   1378   1375   1379
  1427   2   1378   1375   1380
  1428   2   1378   1375   2454
  1429   2   1379   1375   1380
  1430   2   1379   1375   2454
  1431   4   1380   1375   2454
  1432   5   1349   1376   1378
  1433   6   1349   1376   1382
  1434   5   1349   1376   1384
  1435   7   1378   1376   1382
  1436   8   1378   1376   1384
  1437   7   1384   1376   1382
  1438   2   1379   1377   1385
  1439   2   1379   1377   2386
  1440   3   1379   1377   1772
  1441   4   1385   1377   2386
  1442   2   1772   1377   1385
  1443   2   1772   1377   2386
  1444   9   1375   1378   1376
  1445  10   1375   1379   1377
  1446  11   1376   1382   1406
  1447   1   1429   1383   1430
  1448   9   1567   1384   1376
  1449   1   1409   1386   1410
  1450   1   1431   1387   1432
  1451   3   1393   1390   1394
  1452   2   1393   1390   1395
  1453   2   1393   1390   2455
  1454   2   1394   1390   1395
  1455   2   1394   1390   2455
  1456   4   1395   1390   2455
  1457   6   1367   1391   1397
  1458   5   1367   1391   1399
  1459   5   1367   1391   1782
  1460   7   1399   1391   1397
  1461   7   1782   1391   1397
  1462   8   1399   1391   1782
  1463   3   1394   1392   1399
  1464   2   1394   1392   1400
  1465   2   1394   1392   1401
  1466   2   1399   1392   1400
  1467   2   1399   1392   1401
  1468   4   1400   1392   1401
  1469   9   1390   1393   1582
  1470  10   1390   1394   1392
  1471  11   1391   1397   2388
  1472   1   1417   1398   1418
  1473   9   1392   1399   1391
  1474   1   1423   1402   1424
  1475   1   1421   1403   1422
  1476   1   1425   1405   1426
  1477   2   1441   1437   1442
  1478   2   1441   1437   1443
  1479   3   1441   1437   1635
  1480   4   1442   1437   1443
  1481   2   1635   1437   1442
  1482   2   1635   1437   1443
  1483   7   1440   1438   1445
  1484   8   1440   1438   1447
  1485   5   1476   1438   1440
  1486   7   1447   1438   1445
  1487   6   1476   1438   1445
  1488   5   1476   1438   1447
  1489   3   1441   1439   1447
  1490   2   1441   1439   1448
  1491   2   1441   1439   2456
  1492   2   1447   1439   1448
  1493   2   1447   1439   2456
  1494   4   1448   1439   2456
  1495   9   1830   1440   1438
  1496  10   1437   1441   1439
  1497  11   1438   1445   1503
  1498   1   1506   1446   1507
  1499   9   1439   1447   1438
  1500   1   1528   1449   1529
  1501   1   1508   1450   1509
  1502   1   1510   1452   1511
  1503   2   1458   1455   1460
  1504   2   1458   1455   1461
  1505   3   1458   1455   2379
  1506   4   1460   1455   1461
  1507   2   2379   1455   1460
  1508   2   2379   1455   1461
  1509   7   1458   1456   1463
  1510   8   1458   1456   1465
  1511   5   1491   1456   1458
  1512   7   1465   1456   1463
  1513   6   1491   1456   1463
  1514   5   1491   1456   1465
  1515   2   1465   1457   1466
  1516   2   1465   1457   2457
  1517   3   1465   1457   1459
  1518   4   1466   1457   2457
  1519   2   1459   1457   1466
  1520   2   1459   1457   2457
  1521   9   1455   1458   1456
  1522  10   1457   1459   1650
  1523  11   1456   1463   1502
  1524   1   1522   1464   1523
  1525   9   1457   1465   1456
  1526   1   1514   1467   1515
  1527   3   1473   1470   1474
  1528   2   1473   1470   1475
  1529   2   1473   1470   2458
  1530   2   1474   1470   1475
  1531   2   1474   1470   2458
  1532   4   1475   1470   2458
  1533   5   1444   1471   1473
  1534   6   1444   1471   1477
  1535   5   1444   1471   1479
  1536   7   1473   1471   1477
  1537   8   1473   1471   1479
  1538   7   1479   1471   1477
  1539   2   1474   1472   1480
  1540   2   1474   1472   2391
  1541   3   1474   1472   1870
  1542   4   1480   1472   2391
  1543   2   1870   1472   1480
  1544   2   1870   1472   2391
  1545   9   1470   1473   1471
  1546  10   1470   1474   1472
  1547  11   1471   1477   1501
  1548   1   1524   1478   1525
  1549   9   1667   1479   1471
  1550   1   1504   1481   1505
  1551   1   1526   1482   1527
  1552   3   1488   1485   1489
  1553   2   1488   1485   1490
  1554   2   1488   1485   2459
  1555   2   1489   1485   1490
  1556   2   1489   1485   2459
  1557   4   1490   1485   2459
  1558   6   1462   1486   1492
  1559   5   1462   1486   1494
  1560   5   1462   1486   1880
  1561   7   1494   1486   1492
  1562   7   1880   1486   1492
  1563   8   1494   1486   1880
  1564   3   1489   1487   1494
  1565   2   1489   1487   1495
  1566   2   1489   1487   1496
  1567   2   1494   1487   1495
  1568   2   1494   1487   1496
  1569   4   1495   1487   1496
  1570   9   1485   1488   1682
  1571  10   1485   1489   1487
  1572  11   1486   1492   2393
  1573   1   1512   1493   1513
  1574   9   1487   1494   1486
  1575   1   1518   1497   1519
  1576   1   1516   1498   1517
  1577   1   1520   1500   1521
  1578   2   1536   1532   1537
  1579   2   1536   1532   1538
  1580   3   1536   1532   1735
  1581   4   1537   1532   1538
  1582   2   1735   1532   1537
  1583   2   1735   1532   1538
  1584   7   1535   1533   1540
  1585   8   1535   1533   1542
  1586   5   1571   1533   1535
  1587   7   1542   1533   1540
  1588   6   1571   1533   1540
  1589   5   1571   1533   1542
  1590   3   1536   1534   1542
  1591   2   1536   1534   1543
  1592   2   1536   1534   2460
  1593   2   1542   1534   1543
  1594   2   1542   1534   2460
  1595   4   1543   1534   2460
  1596   9   1342   1535   1533
  1597  10   1532   1536   1534
  1598  11   1533   1540   1601
  1599   1   1604   1541   1605
  1600   9   1534   1542   1533
  1601   1   1628   1544   1629
  1602   1   1606   1545   1607
  1603   1   1608   1547   1609
  1604   3   1364   1550   1553
  1605   2   1364   1550   1555
  1606   2   1364   1550   1556
  1607   2   1553   1550   1555
  1608   2   1553   1550   1556
  1609   4   1555   1550   1556
  1610   7   1553   1551   1558
  1611   8   1553   1551   1560
  1612   5   1587   1551   1553
  1613   7   1560   1551   1558
  1614   6   1587   1551   1558
  1615   5   1587   1551   1560
  1616   2   1560   1552   1561
  1617   2   1560   1552   2461
  1618   3   1560   1552   1554
  1619   4   1561   1552   2461
  1620   2   1554   1552   1561
  1621   2   1554   1552   2461
  1622   9   1550   1553   1551
  1623  10   1552   1554   1749
  1624  11   1551   1558   1599
  1625   1   1622   1559   1623
  1626   9   1552   1560   1551
  1627   1   1612   1562   1613
  1628   3   1568   1565   1569
  1629   2   1568   1565   1570
  1630   2   1568   1565   2462
  1631   2   1569   1565   1570
  1632   2   1569   1565   2462
  1633   4   1570   1565   2462
  1634   5   1539   1566   1568
  1635   6   1539   1566   1572
  1636   5   1539   1566   1574
  1637   7   1568   1566   1572
  1638   8   1568   1566   1574
  1639   7   1574   1566   1572
  1640   3   1384   1567   1569
  1641   2   1384   1567   1575
  1642   2   1384   1567   1576
  1643   2   1569   1567   1575
  1644   2   1569   1567   1576
  1645   4   1575   1567   1576
  1646   9   1565   1568   1566
  1647  10   1565   1569   1567
  1648  11   1566   1572   1598
  1649   1   1624   1573   1625
  1650   9   1765   1574   1566
  1651   1   1602   1577   1603
  1652   1   1626   1578   1627
  1653   3   1584   1581   1585
  1654   2   1584   1581   1586
  1655   2   1584   1581   2463
  1656   2   1585   1581   1586
  1657   2   1585   1581   2463
  1658   4   1586   1581   2463
  1659   5   1557   1582   1393
  1660   7   1393   1582   1588
  1661   8   1393   1582   1590
  1662   6   1557   1582   1588
  1663   5   1557   1582   1590
  1664   7   1590   1582   1588
  1665   3   1585   1583   1590
  1666   2   1585   1583   1591
  1667   2   1585   1583   1592
  1668   2   1590   1583   1591
  1669   2   1590   1583   1592
  1670   4   1591   1583   1592
  1671   9   1581   1584   1780
  1672  10   1581   1585   1583
  1673  11   1582   1588   1600
  1674   1   1610   1589   1611
  1675   9   1583   1590   1582
  1676   1   1618   1593   1619
  1677   1   1616   1594   1617
  1678   1   1614   1595   1615
  1679   1   1620   1597   1621
  1680   2   1636   1632   1637
  1681   2   1636   1632   1638
  1682   3   1636   1632   1833
  1683   4   1637   1632   1638
  1684   2   1833   1632   1637
  1685   2   1833   1632   1638
  1686   7   1635   1633   1640
  1687   8   1635   1633   1642
  1688   5   1671   1633   1635
  1689   7   1642   1633   1640
  1690   6   1671   1633   1640
  1691   5   1671   1633   1642
  1692   3   1636   1634   1642
  1693   2   1636   1634   1643
  1694   2   1636   1634   2464
  1695   2   1642   1634   1643
  1696   2   1642   1634   2464
  1697   4   1643   1634   2464
  1698   9   1437   1635   1633
  1699  10   1632   1636   1634
  1700  11   1633   1640   1701
  1701   1   1704   1641   1705
  1702   9   1634   1642   1633
  1703   1   1728   1644   1729
  1704   1   1706   1645   1707
  1705   1   1708   1647   1709
  1706   3   1459   1650   1653
  1707   2   1459   1650   1655
  1708   2   1459   1650   1656
  1709   2   1653   1650   1655
  1710   2   1653   1650   1656
  1711   4   1655   1650   1656
  1712   7   1653   1651   1658
  1713   8   1653   1651   1660
  1714   5   1687   1651   1653
  1715   7   1660   1651   1658
  1716   6   1687   1651   1658
  1717   5   1687   1651   1660
  1718   2   1660   1652   1661
  1719   2   1660   1652   2465
  1720   3   1660   1652   1654
  1721   4   1661   1652   2465
  1722   2   1654   1652   1661
  1723   2   1654   1652   2465
  1724   9   1650   1653   1651
  1725  10   1652   1654   1847
  1726  11   1651   1658   1699
  1727   1   1722   1659   1723
  1728   9   1652   1660   1651
  1729   1   1712   1662   1713
  1730   3   1668   1665   1669
  1731   2   1668   1665   1670
  1732   2   1668   1665   2466
  1733   2   1669   1665   1670
  1734   2   1669   1665   2466
  1735   4   1670   1665   2466
  1736   5   1639   1666   1668
  1737   6   1639   1666   1672
  1738   5   1639   1666   1674
  1739   7   1668   1666   1672
  1740   8   1668   1666   1674
  1741   7   1674   1666   1672
  1742   3   1479   1667   1669
  1743   2   1479   1667   1675
  1744   2   1479   1667   1676
  1745   2   1669   1667   1675
  1746   2   1669   1667   1676
  1747   4   1675   1667   1676
  1748   9   1665   1668   1666
  1749  10   1665   1669   1667
  1750  11   1666   1672   1698
  1751   1   1724   1673   1725
  1752   9   1863   1674   1666
  1753   1   1702   1677   1703
  1754   1   1726   1678   1727
  1755   3   1684   1681   1685
  1756   2   1684   1681   1686
  1757   2   1684   1681   2467
  1758   2   1685   1681   1686
  1759   2   1685   1681   2467
  1760   4   1686   1681   2467
  1761   5   1657   1682   1488
  1762   7   1488   1682   1688
  1763   8   1488   1682   1690
  1764   6   1657   1682   1688
  1765   5   1657   1682   1690
  1766   7   1690   1682   1688
  1767   3   1685   1683   1690
  1768   2   1685   1683   1691
  1769   2   1685   1683   1692
  1770   2   1690   1683   1691
  1771   2   1690   1683   1692
  1772   4   1691   1683   1692
  1773   9   1681   1684   1878
  1774  10   1681   1685   1683
  1775  11   1682   1688   1700
  1776   1   1710   1689   1711
  1777   9   1683   1690   1682
  1778   1   1718   1693   1719
  1779   1   1716   1694   1717
  1780   1   1714   1695   1715
  1781   1   1720   1697   1721
  1782   2   1736   1732   1737
  1783   3   1736   1732   1345
  1784   2   1736   1732   2376
  1785   2   1345   1732   1737
  1786   4   1737   1732   2376
  1787   2   1345   1732   2376
  1788   7   1735   1733   1739
  1789   8   1735   1733   1741
  1790   5   1769   1733   1735
  1791   7   1741   1733   1739
  1792   6   1769   1733   1739
  1793   5   1769   1733   1741
  1794   3   1736   1734   1741
  1795   2   1736   1734   1742
  1796   2   1736   1734   2468
  1797   2   1741   1734   1742
  1798   2   1741   1734   2468
  1799   4   1742   1734   2468
  1800   9   1532   1735   1733
  1801  10   1732   1736   1734
  1802  11   1733   1739   1799
  1803   1   1802   1740   1803
  1804   9   1734   1741   1733
  1805   1   1826   1743   1827
  1806   1   1804   1744   1805
  1807   1   1806   1746   1807
  1808   3   1554   1749   1752
  1809   2   1554   1749   1753
  1810   2   1554   1749   1754
  1811   2   1752   1749   1753
  1812   2   1752   1749   1754
  1813   4   1753   1749   1754
  1814   7   1752   1750   1756
  1815   8   1752   1750   1758
  1816   5   1785   1750   1752
  1817   7   1758   1750   1756
  1818   6   1785   1750   1756
  1819   5   1785   1750   1758
  1820   2   1758   1751   1759
  1821   2   1758   1751   2469
  1822   3   1758   1751   2377
  1823   4   1759   1751   2469
  1824   2   2377   1751   1759
  1825   2   2377   1751   2469
  1826   9   1749   1752   1750
  1827  11   1750   1756   1797
  1828   1   1820   1757   1821
  1829   9   1751   1758   1750
  1830   1   1810   1760   1811
  1831   3   1766   1763   1767
  1832   2   1766   1763   1768
  1833   2   1766   1763   2470
  1834   2   1767   1763   1768
  1835   2   1767   1763   2470
  1836   4   1768   1763   2470
  1837   5   1738   1764   1766
  1838   6   1738   1764   1770
  1839   5   1738   1764   1772
  1840   7   1766   1764   1770
  1841   8   1766   1764   1772
  1842   7   1772   1764   1770
  1843   3   1574   1765   1767
  1844   2   1574   1765   1773
  1845   2   1574   1765   1774
  1846   2   1767   1765   1773
  1847   2   1767   1765   1774
  1848   4   1773   1765   1774
  1849   9   1763   1766   1764
  1850  10   1763   1767   1765
  1851  11   1764   1770   1796
  1852   1   1822   1771   1823
  1853   9   1377   1772   1764
  1854   1   1800   1775   1801
  1855   1   1824   1776   1825
  1856   3   1782   1779   1783
  1857   2   1782   1779   1784
  1858   2   1782   1779   2471
  1859   2   1783   1779   1784
  1860   2   1783   1779   2471
  1861   4   1784   1779   2471
  1862   5   1755   1780   1584
  1863   7   1584   1780   1786
  1864   8   1584   1780   1788
  1865   6   1755   1780   1786
  1866   5   1755   1780   1788
  1867   7   1788   1780   1786
  1868   3   1783   1781   1788
  1869   2   1783   1781   1789
  1870   2   1783   1781   1790
  1871   2   1788   1781   1789
  1872   2   1788   1781   1790
  1873   4   1789   1781   1790
  1874   9   1779   1782   1391
  1875  10   1779   1783   1781
  1876  11   1780   1786   1798
  1877   1   1808   1787   1809
  1878   9   1781   1788   1780
  1879   1   1816   1791   1817
  1880   1   1814   1792   1815
  1881   1   1812   1793   1813
  1882   1   1818   1795   1819
  1883   2   1834   1830   1835
  1884   3   1834   1830   1440
  1885   2   1834   1830   2378
  1886   2   1440   1830   1835
  1887   4   1835   1830   2378
  1888   2   1440   1830   2378
  1889   7   1833   1831   1837
  1890   8   1833   1831   1839
  1891   5   1867   1831   1833
  1892   7   1839   1831   1837
  1893   6   1867   1831   1837
  1894   5   1867   1831   1839
  1895   3   1834   1832   1839
  1896   2   1834   1832   1840
  1897   2   1834   1832   2472
  1898   2   1839   1832   1840
  1899   2   1839   1832   2472
  1900   4   1840   1832   2472
  1901   9   1632   1833   1831
  1902  10   1830   1834   1832
  1903  11   1831   1837   1897
  1904   1   1900   1838   1901
  1905   9   1832   1839   1831
  1906   1   1924   1841   1925
  1907   1   1902   1842   1903
  1908   1   1904   1844   1905
  1909   3   1654   1847   1850
  1910   2   1654   1847   1851
  1911   2   1654   1847   1852
  1912   2   1850   1847   1851
  1913   2   1850   1847   1852
  1914   4   1851   1847   1852
  1915   7   1850   1848   1854
  1916   8   1850   1848   1856
  1917   5   1883   1848   1850
  1918   7   1856   1848   1854
  1919   6   1883   1848   1854
  1920   5   1883   1848   1856
  1921   2   1856   1849   1857
  1922   2   1856   1849   2473
  1923   3   1856   1849   2379
  1924   4   1857   1849   2473
  1925   2   2379   1849   1857
  1926   2   2379   1849   2473
  1927   9   1847   1850   1848
  1928  11   1848   1854   1895
  1929   1   1918   1855   1919
  1930   9   1849   1856   1848
  1931   1   1908   1858   1909
  1932   3   1864   1861   1865
  1933   2   1864   1861   1866
  1934   2   1864   1861   2474
  1935   2   1865   1861   1866
  1936   2   1865   1861   2474
  1937   4   1866   1861   2474
  1938   5   1836   1862   1864
  1939   6   1836   1862   1868
  1940   5   1836   1862   1870
  1941   7   1864   1862   1868
  1942   8   1864   1862   1870
  1943   7   1870   1862   1868
  1944   3   1674   1863   1865
  1945   2   1674   1863   1871
  1946   2   1674   1863   1872
  1947   2   1865   1863   1871
  1948   2   1865   1863   1872
  1949   4   1871   1863   1872
  1950   9   1861   1864   1862
  1951  10   1861   1865   1863
  1952  11   1862   1868   1894
  1953   1   1920   1869   1921
  1954   9   1472   1870   1862
  1955   1   1898   1873   1899
  1956   1   1922   1874   1923
  1957   3   1880   1877   1881
  1958   2   1880   1877   1882
  1959   2   1880   1877   2475
  1960   2   1881   1877   1882
  1961   2   1881   1877   2475
  1962   4   1882   1877   2475
  1963   5   1853   1878   1684
  1964   7   1684   1878   1884
  1965   8   1684   1878   1886
  1966   6   1853   1878   1884
  1967   5   1853   1878   1886
  1968   7   1886   1878   1884
  1969   3   1881   1879   1886
  1970   2   1881   1879   1887
  1971   2   1881   1879   1888
  1972   2   1886   1879   1887
  1973   2   1886   1879   1888
  1974   4   1887   1879   1888
  1975   9   1877   1880   1486
  1976  10   1877   1881   1879
  1977  11   1878   1884   1896
  1978   1   1906   1885   1907
  1979   9   1879   1886   1878
  1980   1   1914   1889   1915
  1981   1   1912   1890   1913
  1982   1   1910   1891   1911
  1983   1   1916   1893   1917
  1984   2   1932   1928   1933
  1985   2   1932   1928   1934
  1986   3   1932   1928   2077
  1987   4   1933   1928   1934
  1988   2   2077   1928   1933
  1989   2   2077   1928   1934
  1990   7   1931   1929   1935
  1991   8   1931   1929   1937
  1992   5   1957   1929   1931
  1993   7   1937   1929   1935
  1994   6   1957   1929   1935
  1995   5   1957   1929   1937
  1996   3   1932   1930   1937
  1997   2   1932   1930   1938
  1998   2   1932   1930   2476
  1999   2   1937   1930   1938
  2000   2   1937   1930   2476
  2001   4   1938   1930   2476
  2002   9   2228   1931   1929
  2003  10   1928   1932   1930
  2004  11   1929   1935   1978
  2005   1   1981   1936   1982
  2006   9   1930   1937   1929
  2007   1   1983   1939   1984
  2008   1   1985   1941   1986
  2009   2   1946   1943   1948
  2010   2   1946   1943   1949
  2011   3   1946   1943   2381
  2012   4   1948   1943   1949
  2013   2   2381   1943   1948
  2014   2   2381   1943   1949
  2015   7   1946   1944   1951
  2016   8   1946   1944   1953
  2017   5   1967   1944   1946
  2018   7   1953   1944   1951
  2019   6   1967   1944   1951
  2020   5   1967   1944   1953
  2021   2   1953   1945   1954
  2022   2   1953   1945   2477
  2023   3   1953   1945   1947
  2024   4   1954   1945   2477
  2025   2   1947   1945   1954
  2026   2   1947   1945   2477
  2027   9   1943   1946   1944
  2028  10   1945   1947   2089
  2029  11   1944   1951   1977
  2030   1   1997   1952   1998
  2031   9   1945   1953   1944
  2032   1   1989   1955   1990
  2033   1   1979   1958   1980
  2034   3   1964   1961   1965
  2035   2   1964   1961   1966
  2036   2   1964   1961   2478
  2037   2   1965   1961   1966
  2038   2   1965   1961   2478
  2039   4   1966   1961   2478
  2040   6   1950   1962   1968
  2041   5   1950   1962   1970
  2042   5   1950   1962   2262
  2043   7   1970   1962   1968
  2044   7   2262   1962   1968
  2045   8   1970   1962   2262
  2046   3   1965   1963   1970
  2047   2   1965   1963   1971
  2048   2   1965   1963   1972
  2049   2   1970   1963   1971
  2050   2   1970   1963   1972
  2051   4   1971   1963   1972
  2052   9   1961   1964   2108
  2053  10   1961   1965   1963
  2054  11   1962   1968   2397
  2055   1   1987   1969   1988
  2056   9   1963   1970   1962
  2057   1   1993   1973   1994
  2058   1   1991   1974   1992
  2059   1   1995   1976   1996
  2060   2   2005   2001   2006
  2061   2   2005   2001   2007
  2062   3   2005   2001   2154
  2063   4   2006   2001   2007
  2064   2   2154   2001   2006
  2065   2   2154   2001   2007
  2066   7   2004   2002   2008
  2067   8   2004   2002   2010
  2068   5   2030   2002   2004
  2069   7   2010   2002   2008
  2070   6   2030   2002   2008
  2071   5   2030   2002   2010
  2072   3   2005   2003   2010
  2073   2   2005   2003   2011
  2074   2   2005   2003   2479
  2075   2   2010   2003   2011
  2076   2   2010   2003   2479
  2077   4   2011   2003   2479
  2078   9   2303   2004   2002
  2079  10   2001   2005   2003
  2080  11   2002   2008   2051
  2081   1   2054   2009   2055
  2082   9   2003   2010   2002
  2083   1   2056   2012   2057
  2084   1   2058   2014   2059
  2085   2   2019   2016   2021
  2086   2   2019   2016   2022
  2087   3   2019   2016   2383
  2088   4   2021   2016   2022
  2089   2   2383   2016   2021
  2090   2   2383   2016   2022
  2091   7   2019   2017   2024
  2092   8   2019   2017   2026
  2093   5   2040   2017   2019
  2094   7   2026   2017   2024
  2095   6   2040   2017   2024
  2096   5   2040   2017   2026
  2097   2   2026   2018   2027
  2098   2   2026   2018   2480
  2099   3   2026   2018   2020
  2100   4   2027   2018   2480
  2101   2   2020   2018   2027
  2102   2   2020   2018   2480
  2103   9   2016   2019   2017
  2104  10   2018   2020   2166
  2105  11   2017   2024   2050
  2106   1   2070   2025   2071
  2107   9   2018   2026   2017
  2108   1   2062   2028   2063
  2109   1   2052   2031   2053
  2110   3   2037   2034   2038
  2111   2   2037   2034   2039
  2112   2   2037   2034   2481
  2113   2   2038   2034   2039
  2114   2   2038   2034   2481
  2115   4   2039   2034   2481
  2116   6   2023   2035   2041
  2117   5   2023   2035   2043
  2118   5   2023   2035   2337
  2119   7   2043   2035   2041
  2120   7   2337   2035   2041
  2121   8   2043   2035   2337
  2122   3   2038   2036   2043
  2123   2   2038   2036   2044
  2124   2   2038   2036   2045
  2125   2   2043   2036   2044
  2126   2   2043   2036   2045
  2127   4   2044   2036   2045
  2128   9   2034   2037   2185
  2129  10   2034   2038   2036
  2130  11   2035   2041   2401
  2131   1   2060   2042   2061
  2132   9   2036   2043   2035
  2133   1   2066   2046   2067
  2134   1   2064   2047   2065
  2135   1   2068   2049   2069
  2136   2   2078   2074   2079
  2137   2   2078   2074   2080
  2138   3   2078   2074   2231
  2139   4   2079   2074   2080
  2140   2   2231   2074   2079
  2141   2   2231   2074   2080
  2142   7   2077   2075   2081
  2143   8   2077   2075   2083
  2144   5   2103   2075   2077
  2145   7   2083   2075   2081
  2146   6   2103   2075   2081
  2147   5   2103   2075   2083
  2148   3   2078   2076   2083
  2149   2   2078   2076   2084
  2150   2   2078   2076   2482
  2151   2   2083   2076   2084
  2152   2   2083   2076   2482
  2153   4   2084   2076   2482
  2154   9   1928   2077   2075
  2155  10   2074   2078   2076
  2156  11   2075   2081   2126
  2157   1   2129   2082   2130
  2158   9   2076   2083   2075
  2159   1   2131   2085   2132
  2160   1   2133   2087   2134
  2161   3   1947   2089   2092
  2162   2   1947   2089   2094
  2163   2   1947   2089   2095
  2164   2   2092   2089   2094
  2165   2   2092   2089   2095
  2166   4   2094   2089   2095
  2167   7   2092   2090   2097
  2168   8   2092   2090   2099
  2169   5   2113   2090   2092
  2170   7   2099   2090   2097
  2171   6   2113   2090   2097
  2172   5   2113   2090   2099
  2173   2   2099   2091   2100
  2174   2   2099   2091   2483
  2175   3   2099   2091   2093
  2176   4   2100   2091   2483
  2177   2   2093   2091   2100
  2178   2   2093   2091   2483
  2179   9   2089   2092   2090
  2180  10   2091   2093   2242
  2181  11   2090   2097   2124
  2182   1   2147   2098   2148
  2183   9   2091   2099   2090
  2184   1   2137   2101   2138
  2185   1   2127   2104   2128
  2186   3   2110   2107   2111
  2187   2   2110   2107   2112
  2188   2   2110   2107   2484
  2189   2   2111   2107   2112
  2190   2   2111   2107   2484
  2191   4   2112   2107   2484
  2192   5   2096   2108   1964
  2193   7   1964   2108   2114
  2194   8   1964   2108   2116
  2195   6   2096   2108   2114
  2196   5   2096   2108   2116
  2197   7   2116   2108   2114
  2198   3   2111   2109   2116
  2199   2   2111   2109   2117
  2200   2   2111   2109   2118
  2201   2   2116   2109   2117
  2202   2   2116   2109   2118
  2203   4   2117   2109   2118
  2204   9   2107   2110   2260
  2205  10   2107   2111   2109
  2206  11   2108   2114   2125
  2207   1   2135   2115   2136
  2208   9   2109   2116   2108
  2209   1   2143   2119   2144
  2210   1   2141   2120   2142
  2211   1   2139   2121   2140
  2212   1   2145   2123   2146
  2213   2   2155   2151   2156
  2214   2   2155   2151   2157
  2215   3   2155   2151   2306
  2216   4   2156   2151   2157
  2217   2   2306   2151   2156
  2218   2   2306   2151   2157
  2219   7   2154   2152   2158
  2220   8   2154   2152   2160
  2221   5   2180   2152   2154
  2222   7   2160   2152   2158
  2223   6   2180   2152   2158
  2224   5   2180   2152   2160
  2225   3   2155   2153   2160
  2226   2   2155   2153   2161
  2227   2   2155   2153   2485
  2228   2   2160   2153   2161
  2229   2   2160   2153   2485
  2230   4   2161   2153   2485
  2231   9   2001   2154   2152
  2232  10   2151   2155   2153
  2233  11   2152   2158   2203
  2234   1   2206   2159   2207
  2235   9   2153   2160   2152
  2236   1   2208   2162   2209
  2237   1   2210   2164   2211
  2238   3   2020   2166   2169
  2239   2   2020   2166   2171
  2240   2   2020   2166   2172
  2241   2   2169   2166   2171
  2242   2   2169   2166   2172
  2243   4   2171   2166   2172
  2244   7   2169   2167   2174
  2245   8   2169   2167   2176
  2246   5   2190   2167   2169
  2247   7   2176   2167   2174
  2248   6   2190   2167   2174
  2249   5   2190   2167   2176
  2250   2   2176   2168   2177
  2251   2   2176   2168   2486
  2252   3   2176   2168   2170
  2253   4   2177   2168   2486
  2254   2   2170   2168   2177
  2255   2   2170   2168   2486
  2256   9   2166   2169   2167
  2257  10   2168   2170   2317
  2258  11   2167   2174   2201
  2259   1   2224   2175   2225
  2260   9   2168   2176   2167
  2261   1   2214   2178   2215
  2262   1   2204   2181   2205
  2263   3   2187   2184   2188
  2264   2   2187   2184   2189
  2265   2   2187   2184   2487
  2266   2   2188   2184   2189
  2267   2   2188   2184   2487
  2268   4   2189   2184   2487
  2269   5   2173   2185   2037
  2270   7   2037   2185   2191
  2271   8   2037   2185   2193
  2272   6   2173   2185   2191
  2273   5   2173   2185   2193
  2274   7   2193   2185   2191
  2275   3   2188   2186   2193
  2276   2   2188   2186   2194
  2277   2   2188   2186   2195
  2278   2   2193   2186   2194
  2279   2   2193   2186   2195
  2280   4   2194   2186   2195
  2281   9   2184   2187   2335
  2282  10   2184   2188   2186
  2283  11   2185   2191   2202
  2284   1   2212   2192   2213
  2285   9   2186   2193   2185
  2286   1   2220   2196   2221
  2287   1   2218   2197   2219
  2288   1   2216   2198   2217
  2289   1   2222   2200   2223
  2290   2   2232   2228   2233
  2291   3   2232   2228   1931
  2292   2   2232   2228   2380
  2293   2   1931   2228   2233
  2294   4   2233   2228   2380
  2295   2   1931   2228   2380
  2296   7   2231   2229   2234
  2297   8   2231   2229   2236
  2298   5   2255   2229   2231
  2299   7   2236   2229   2234
  2300   6   2255   2229   2234
  2301   5   2255   2229   2236
  2302   3   2232   2230   2236
  2303   2   2232   2230   2237
  2304   2   2232   2230   2488
  2305   2   2236   2230   2237
  2306   2   2236   2230   2488
  2307   4   2237   2230   2488
  2308   9   2074   2231   2229
  2309  10   2228   2232   2230
  2310  11   2229   2234   2278
  2311   1   2281   2235   2282
  2312   9   2230   2236   2229
  2313   1   2283   2238   2284
  2314   1   2285   2240   2286
  2315   3   2093   2242   2245
  2316   2   2093   2242   2246
  2317   2   2093   2242   2247
  2318   2   2245   2242   2246
  2319   2   2245   2242   2247
  2320   4   2246   2242   2247
  2321   7   2245   2243   2249
  2322   8   2245   2243   2251
  2323   5   2265   2243   2245
  2324   7   2251   2243   2249
  2325   6   2265   2243   2249
  2326   5   2265   2243   2251
  2327   2   2251   2244   2252
  2328   2   2251   2244   2489
  2329   3   2251   2244   2381
  2330   4   2252   2244   2489
  2331   2   2381   2244   2252
  2332   2   2381   2244   2489
  2333   9   2242   2245   2243
  2334  11   2243   2249   2276
  2335   1   2299   2250   2300
  2336   9   2244   2251   2243
  2337   1   2289   2253   2290
  2338   1   2279   2256   2280
  2339   3   2262   2259   2263
  2340   2   2262   2259   2264
  2341   2   2262   2259   2490
  2342   2   2263   2259   2264
  2343   2   2263   2259   2490
  2344   4   2264   2259   2490
  2345   5   2248   2260   2110
  2346   7   2110   2260   2266
  2347   8   2110   2260   2268
  2348   6   2248   2260   2266
  2349   5   2248   2260   2268
  2350   7   2268   2260   2266
  2351   3   2263   2261   2268
  2352   2   2263   2261   2269
  2353   2   2263   2261   2270
  2354   2   2268   2261   2269
  2355   2   2268   2261   2270
  2356   4   2269   2261   2270
  2357   9   2259   2262   1962
  2358  10   2259   2263   2261
  2359  11   2260   2266   2277
  2360   1   2287   2267   2288
  2361   9   2261   2268   2260
  2362   1   2295   2271   2296
  2363   1   2293   2272   2294
  2364   1   2291   2273   2292
  2365   1   2297   2275   2298
  2366   2   2307   2303   2308
  2367   3   2307   2303   2004
  2368   2   2307   2303   2382
  2369   2   2004   2303   2308
  2370   4   2308   2303   2382
  2371   2   2004   2303   2382
  2372   7   2306   2304   2309
  2373   8   2306   2304   2311
  2374   5   2330   2304   2306
  2375   7   2311   2304   2309
  2376   6   2330   2304   2309
  2377   5   2330   2304   2311
  2378   3   2307   2305   2311
  2379   2   2307   2305   2312
  2380   2   2307   2305   2491
  2381   2   2311   2305   2312
  2382   2   2311   2305   2491
  2383   4   2312   2305   2491
  2384   9   2151   2306   2304
  2385  10   2303   2307   2305
  2386  11   2304   2309   2353
  2387   1   2356   2310   2357
  2388   9   2305   2311   2304
  2389   1   2358   2313   2359
  2390   1   2360   2315   2361
  2391   3   2170   2317   2320
  2392   2   2170   2317   2321
  2393   2   2170   2317   2322
  2394   2   2320   2317   2321
  2395   2   2320   2317   2322
  2396   4   2321   2317   2322
  2397   7   2320   2318   2324
  2398   8   2320   2318   2326
  2399   5   2340   2318   2320
  2400   7   2326   2318   2324
  2401   6   2340   2318   2324
  2402   5   2340   2318   2326
  2403   2   2326   2319   2327
  2404   2   2326   2319   2492
  2405   3   2326   2319   2383
  2406   4   2327   2319   2492
  2407   2   2383   2319   2327
  2408   2   2383   2319   2492
  2409   9   2317   2320   2318
  2410  11   2318   2324   2351
  2411   1   2374   2325   2375
  2412   9   2319   2326   2318
  2413   1   2364   2328   2365
  2414   1   2354   2331   2355
  2415   3   2337   2334   2338
  2416   2   2337   2334   2339
  2417   2   2337   2334   2493
  2418   2   2338   2334   2339
  2419   2   2338   2334   2493
  2420   4   2339   2334   2493
  2421   5   2323   2335   2187
  2422   7   2187   2335   2341
  2423   8   2187   2335   2343
  2424   6   2323   2335   2341
  2425   5   2323   2335   2343
  2426   7   2343   2335   2341
  2427   3   2338   2336   2343
  2428   2   2338   2336   2344
  2429   2   2338   2336   2345
  2430   2   2343   2336   2344
  2431   2   2343   2336   2345
  2432   4   2344   2336   2345
  2433   9   2334   2337   2035
  2434  10   2334   2338   2336
  2435  11   2335   2341   2352
  2436   1   2362   2342   2363
  2437   9   2336   2343   2335
  2438   1   2370   2346   2371
  2439   1   2368   2347   2369
  2440   1   2366   2348   2367
  2441   1   2372   2350   2373
  2442  10   1360   2377   1751
  2443  10   1455   2379   1849
  2444  10   1943   2381   2244
  2445  10   2016   2383   2319
  2446   1   2389   2387   2390
  2447   1   2394   2392   2395
  2448   1   2398   2396   2399
  2449   1   2402   2400   2403
  2450   1   2502   2500   2501
  2451   1   2505   2503   2504
  2452   1   2508   2506   2507
  2453   1   2511   2509   2510
  2454   1   2514   2512   2513
  2455   1   2517   2515   2516
  2456   1   2520   2518   2519
  2457   1   2523   2521   2522
  2458   1   2526   2524   2525
  2459   1   2529   2527   2528
  2460   1   2532   2530   2531
  2461   1   2535   2533   2534
  2462   1   2538   2536   2537
  2463   1   2541   2539   2540
  2464   1   2544   2542   2543
  2465   1   2547   2545   2546
  2466   1   2550   2548   2549
  2467   1   2553   2551   2552
  2468   1   2556   2554   2555
  2469   1   2559   2557   2558
  2470   1   2562   2560   2561
  2471   1   2565   2563   2564
  2472   1   2568   2566   2567
  2473   1   2571   2569   2570
  2474   1   2574   2572   2573
  2475   1   2577   2575   2576
  2476   1   2580   2578   2579
  2477   1   2583   2581   2582
  2478   1   2586   2584   2585
  2479   1   2589   2587   2588
  2480   1   2592   2590   2591
  2481   1   2595   2593   2594
  2482   1   2598   2596   2597
  2483   1   2601   2599   2600
  2484   1   2604   2602   2603
  2485   1   2607   2605   2606
  2486   1   2610   2608   2609
  2487   1   2613   2611   2612
  2488   1   2616   2614   2615
  2489   1   2619   2617   2618
  2490   1   2622   2620   2621
  2491   1   2625   2623   2624
  2492   1   2628   2626   2627
  2493   1   2631   2629   2630
  2494   1   2634   2632   2633
  2495   1   2637   2635   2636
  2496   1   2640   2638   2639
  2497   1   2643   2641   2642
  2498   1   2646   2644   2645
  2499   1   2649   2647   2648
  2500   1   2652   2650   2651
  2501   1   2655   2653   2654
  2502   1   2658   2656   2657
  2503   1   2661   2659   2660
  2504   1   2664   2662   2663
  2505   1   2667   2665   2666
  2506   1   2670   2668   2669
  2507   1   2673   2671   2672
  2508   1   2676   2674   2675
  2509   1   2679   2677   2678
  2510   1   2682   2680   2681
  2511   1   2685   2683   2684
  2512   1   2688   2686   2687
  2513   1   2691   2689   2690
  2514   1   2694   2692   2693
  2515   1   2697   2695   2696
  2516   1   2700   2698   2699
  2517   1   2703   2701   2702
  2518   1   2706   2704   2705
  2519   1   2709   2707   2708
  2520   1   2712   2710   2711
  2521   1   2715   2713   2714
  2522   1   2718   2716   2717
  2523   1   2721   2719   2720
  2524   1   2724   2722   2723
  2525   1   2727   2725   2726
  2526   1   2730   2728   2729
  2527   1   2733   2731   2732
  2528   1   2736   2734   2735
  2529   1   2739   2737   2738
  2530   1   2742   2740   2741
  2531   1   2745   2743   2744
  2532   1   2748   2746   2747
  2533   1   2751   2749   2750
  2534   1   2754   2752   2753
  2535   1   2757   2755   2756
  2536   1   2760   2758   2759
  2537   1   2763   2761   2762
  2538   1   2766   2764   2765
  2539   1   2769   2767   2768
  2540   1   2772   2770   2771
  2541   1   2775   2773   2774
  2542   1   2778   2776   2777
  2543   1   2781   2779   2780
  2544   1   2784   2782   2783
  2545   1   2787   2785   2786
  2546   1   2790   2788   2789
  2547   1   2793   2791   2792
  2548   1   2796   2794   2795
  2549   1   2799   2797   2798
  2550   1   2802   2800   2801
  2551   1   2805   2803   2804
  2552   1   2808   2806   2807
  2553   1   2811   2809   2810
  2554   1   2814   2812   2813
  2555   1   2817   2815   2816
  2556   1   2820   2818   2819
  2557   1   2823   2821   2822
  2558   1   2826   2824   2825
  2559   1   2829   2827   2828
  2560   1   2832   2830   2831
  2561   1   2835   2833   2834
  2562   1   2838   2836   2837
  2563   1   2841   2839   2840
  2564   1   2844   2842   2843
  2565   1   2847   2845   2846
  2566   1   2850   2848   2849
  2567   1   2853   2851   2852
  2568   1   2856   2854   2855
  2569   1   2859   2857   2858
  2570   1   2862   2860   2861
  2571   1   2865   2863   2864
  2572   1   2868   2866   2867
  2573   1   2871   2869   2870
  2574   1   2874   2872   2873
  2575   1   2877   2875   2876
  2576   1   2880   2878   2879
  2577   1   2883   2881   2882
  2578   1   2886   2884   2885
  2579   1   2889   2887   2888
  2580   1   2892   2890   2891
  2581   1   2895   2893   2894
  2582   1   2898   2896   2897
  2583   1   2901   2899   2900
  2584   1   2904   2902   2903
  2585   1   2907   2905   2906
  2586   1   2910   2908   2909
  2587   1   2913   2911   2912
  2588   1   2916   2914   2915
  2589   1   2919   2917   2918
  2590   1   2922   2920   2921
  2591   1   2925   2923   2924
  2592   1   2928   2926   2927
  2593   1   2931   2929   2930
  2594   1   2934   2932   2933
  2595   1   2937   2935   2936
  2596   1   2940   2938   2939
  2597   1   2943   2941   2942
  2598   1   2946   2944   2945
  2599   1   2949   2947   2948
  2600   1   2952   2950   2951
  2601   1   2955   2953   2954
  2602   1   2958   2956   2957
  2603   1   2961   2959   2960
  2604   1   2964   2962   2963
  2605   1   2967   2965   2966
  2606   1   2970   2968   2969
  2607   1   2973   2971   2972
  2608   1   2976   2974   2975
  2609   1   2979   2977   2978
  2610   1   2982   2980   2981
  2611   1   2985   2983   2984
  2612   1   2988   2986   2987
  2613   1   2991   2989   2990
  2614   1   2994   2992   2993
  2615   1   2997   2995   2996
  2616   1   3000   2998   2999
  2617   1   3003   3001   3002
  2618   1   3006   3004   3005
  2619   1   3009   3007   3008
  2620   1   3012   3010   3011
  2621   1   3015   3013   3014
  2622   1   3018   3016   3017
  2623   1   3021   3019   3020
  2624   1   3024   3022   3023
  2625   1   3027   3025   3026
  2626   1   3030   3028   3029
  2627   1   3033   3031   3032
  2628   1   3036   3034   3035
  2629   1   3039   3037   3038
  2630   1   3042   3040   3041
  2631   1   3045   3043   3044
  2632   1   3048   3046   3047
  2633   1   3051   3049   3050
  2634   1   3054   3052   3053
  2635   1   3057   3055   3056
  2636   1   3060   3058   3059
  2637   1   3063   3061   3062
  2638   1   3066   3064   3065
  2639   1   3069   3067   3068
  2640   1   3072   3070   3071
  2641   1   3075   3073   3074
  2642   1   3078   3076   3077
  2643   1   3081   3079   3080
  2644   1   3084   3082   3083
  2645   1   3087   3085   3086
  2646   1   3090   3088   3089
  2647   1   3093   3091   3092
  2648   1   3096   3094   3095
  2649   1   3099   3097   3098
  2650   1   3102   3100   3101
  2651   1   3105   3103   3104
  2652   1   3108   3106   3107
  2653   1   3111   3109   3110
  2654   1   3114   3112   3113
  2655   1   3117   3115   3116
  2656   1   3120   3118   3119
  2657   1   3123   3121   3122
  2658   1   3126   3124   3125
  2659   1   3129   3127   3128
  2660   1   3132   3130   3131
  2661   1   3135   3133   3134
  2662   1   3138   3136   3137
  2663   1   3141   3139   3140
  2664   1   3144   3142   3143
  2665   1   3147   3145   3146
  2666   1   3150   3148   3149
  2667   1   3153   3151   3152
  2668   1   3156   3154   3155
  2669   1   3159   3157   3158
  2670   1   3162   3160   3161
  2671   1   3165   3163   3164
  2672   1   3168   3166   3167
  2673   1   3171   3169   3170
  2674   1   3174   3172   3173
  2675   1   3177   3175   3176
  2676   1   3180   3178   3179
  2677   1   3183   3181   3182
  2678   1   3186   3184   3185
  2679   1   3189   3187   3188
  2680   1   3192   3190   3191
  2681   1   3195   3193   3194
  2682   1   3198   3196   3197
  2683   1   3201   3199   3200
  2684   1   3204   3202   3203
  2685   1   3207   3205   3206
  2686   1   3210   3208   3209
  2687   1   3213   3211   3212
  2688   1   3216   3214   3215
  2689   1   3219   3217   3218
  2690   1   3222   3220   3221
  2691   1   3225   3223   3224
  2692   1   3228   3226   3227
  2693   1   3231   3229   3230
  2694   1   3234   3232   3233
  2695   1   3237   3235   3236
  2696   1   3240   3238   3239
  2697   1   3243   3241   3242
  2698   1   3246   3244   3245
  2699   1   3249   3247   3248
  2700   1   3252   3250   3251
  2701   1   3255   3253   3254
  2702   1   3258   3256   3257
  2703   1   3261   3259   3260
  2704   1   3264   3262   3263
  2705   1   3267   3265   3266
  2706   1   3270   3268   3269
  2707   1   3273   3271   3272
  2708   1   3276   3274   3275
  2709   1   3279   3277   3278
  2710   1   3282   3280   3281
  2711   1   3285   3283   3284
  2712   1   3288   3286   3287
  2713   1   3291   3289   3290
  2714   1   3294   3292   3293
  2715   1   3297   3295   3296
  2716   1   3300   3298   3299
  2717   1   3303   3301   3302
  2718   1   3306   3304   3305
  2719   1   3309   3307   3308
  2720   1   3312   3310   3311
  2721   1   3315   3313   3314
  2722   1   3318   3316   3317
  2723   1   3321   3319   3320
  2724   1   3324   3322   3323
  2725   1   3327   3325   3326
  2726   1   3330   3328   3329
  2727   1   3333   3331   3332
  2728   1   3336   3334   3335
  2729   1   3339   3337   3338
  2730   1   3342   3340   3341
  2731   1   3345   3343   3344
  2732   1   3348   3346   3347
  2733   1   3351   3349   3350
  2734   1   3354   3352   3353
  2735   1   3357   3355   3356
  2736   1   3360   3358   3359
  2737   1   3363   3361   3362
  2738   1   3366   3364   3365
  2739   1   3369   3367   3368
  2740   1   3372   3370   3371
  2741   1   3375   3373   3374
  2742   1   3378   3376   3377
  2743   1   3381   3379   3380
  2744   1   3384   3382   3383
  2745   1   3387   3385   3386
  2746   1   3390   3388   3389
  2747   1   3393   3391   3392
  2748   1   3396   3394   3395
  2749   1   3399   3397   3398
  2750   1   3402   3400   3401
  2751   1   3405   3403   3404
  2752   1   3408   3406   3407
  2753   1   3411   3409   3410
  2754   1   3414   3412   3413
  2755   1   3417   3415   3416
  2756   1   3420   3418   3419
  2757   1   3423   3421   3422
  2758   1   3426   3424   3425
  2759   1   3429   3427   3428
  2760   1   3432   3430   3431
  2761   1   3435   3433   3434
  2762   1   3438   3436   3437
  2763   1   3441   3439   3440
  2764   1   3444   3442   3443
  2765   1   3447   3445   3446
  2766   1   3450   3448   3449
  2767   1   3453   3451   3452
  2768   1   3456   3454   3455
  2769   1   3459   3457   3458
  2770   1   3462   3460   3461
  2771   1   3465   3463   3464
  2772   1   3468   3466   3467
  2773   1   3471   3469   3470
  2774   1   3474   3472   3473
  2775   1   3477   3475   3476
  2776   1   3480   3478   3479
  2777   1   3483   3481   3482
  2778   1   3486   3484   3485
  2779   1   3489   3487   3488
  2780   1   3492   3490   3491
  2781   1   3495   3493   3494
  2782   1   3498   3496   3497
  2783   1   3501   3499   3500
  2784   1   3504   3502   3503
  2785   1   3507   3505   3506
  2786   1   3510   3508   3509
  2787   1   3513   3511   3512
  2788   1   3516   3514   3515
  2789   1   3519   3517   3518
  2790   1   3522   3520   3521
  2791   1   3525   3523   3524
  2792   1   3528   3526   3527
  2793   1   3531   3529   3530
  2794   1   3534   3532   3533
  2795   1   3537   3535   3536
  2796   1   3540   3538   3539
  2797   1   3543   3541   3542
  2798   1   3546   3544   3545
  2799   1   3549   3547   3548
  2800   1   3552   3550   3551
  2801   1   3555   3553   3554
  2802   1   3558   3556   3557
  2803   1   3561   3559   3560
  2804   1   3564   3562   3563
  2805   1   3567   3565   3566
  2806   1   3570   3568   3569
  2807   1   3573   3571   3572
  2808   1   3576   3574   3575
  2809   1   3579   3577   3578
  2810   1   3582   3580   3581
  2811   1   3585   3583   3584
  2812   1   3588   3586   3587
  2813   1   3591   3589   3590
  2814   1   3594   3592   3593
  2815   1   3597   3595   3596
  2816   1   3600   3598   3599
  2817   1   3603   3601   3602
  2818   1   3606   3604   3605
  2819   1   3609   3607   3608
  2820   1   3612   3610   3611
  2821   1   3615   3613   3614
  2822   1   3618   3616   3617
  2823   1   3621   3619   3620
  2824   1   3624   3622   3623
  2825   1   3627   3625   3626
  2826   1   3630   3628   3629
  2827   1   3633   3631   3632
  2828   1   3636   3634   3635
  2829   1   3639   3637   3638
  2830   1   3642   3640   3641
  2831   1   3645   3643   3644
  2832   1   3648   3646   3647
  2833   1   3651   3649   3650
  2834   1   3654   3652   3653
  2835   1   3657   3655   3656
  2836   1   3660   3658   3659
  2837   1   3663   3661   3662
  2838   1   3666   3664   3665
  2839   1   3669   3667   3668
  2840   1   3672   3670   3671
  2841   1   3675   3673   3674
  2842   1   3678   3676   3677
  2843   1   3681   3679   3680
  2844   1   3684   3682   3683
  2845   1   3687   3685   3686
  2846   1   3690   3688   3689
  2847   1   3693   3691   3692
  2848   1   3696   3694   3695
  2849   1   3699   3697   3698
  2850   1   3702   3700   3701
  2851   1   3705   3703   3704
  2852   1   3708   3706   3707
  2853   1   3711   3709   3710
  2854   1   3714   3712   3713
  2855   1   3717   3715   3716
  2856   1   3720   3718   3719
  2857   1   3723   3721   3722
  2858   1   3726   3724   3725
  2859   1   3729   3727   3728
  2860   1   3732   3730   3731
  2861   1   3735   3733   3734
  2862   1   3738   3736   3737
  2863   1   3741   3739   3740
  2864   1   3744   3742   3743
  2865   1   3747   3745   3746
  2866   1   3750   3748   3749
  2867   1   3753   3751   3752
  2868   1   3756   3754   3755
  2869   1   3759   3757   3758
  2870   1   3762   3760   3761
  2871   1   3765   3763   3764
  2872   1   3768   3766   3767
  2873   1   3771   3769   3770
  2874   1   3774   3772   3773
  2875   1   3777   3775   3776
  2876   1   3780   3778   3779
  2877   1   3783   3781   3782
  2878   1   3786   3784   3785
  2879   1   3789   3787   3788
  2880   1   3792   3790   3791
  2881   1   3795   3793   3794
  2882   1   3798   3796   3797
  2883   1   3801   3799   3800
  2884   1   3804   3802   3803
  2885   1   3807   3805   3806
  2886   1   3810   3808   3809
  2887   1   3813   3811   3812
  2888   1   3816   3814   3815
  2889   1   3819   3817   3818
  2890   1   3822   3820   3821
  2891   1   3825   3823   3824
  2892   1   3828   3826   3827
  2893   1   3831   3829   3830
  2894   1   3834   3832   3833
  2895   1   3837   3835   3836
  2896   1   3840   3838   3839
  2897   1   3843   3841   3842
  2898   1   3846   3844   3845
  2899   1   3849   3847   3848
  2900   1   3852   3850   3851
  2901   1   3855   3853   3854
  2902   1   3858   3856   3857
  2903   1   3861   3859   3860
  2904   1   3864   3862   3863
  2905   1   3867   3865   3866
  2906   1   3870   3868   3869
  2907   1   3873   3871   3872
  2908   1   3876   3874   3875
  2909   1   3879   3877   3878
  2910   1   3882   3880   3881
  2911   1   3885   3883   3884
  2912   1   3888   3886   3887
  2913   1   3891   3889   3890
  2914   1   3894   3892   3893
  2915   1   3897   3895   3896
  2916   1   3900   3898   3899
  2917   1   3903   3901   3902
  2918   1   3906   3904   3905
  2919   1   3909   3907   3908
  2920   1   3912   3910   3911
  2921   1   3915   3913   3914
  2922   1   3918   3916   3917
  2923   1   3921   3919   3920
  2924   1   3924   3922   3923
  2925   1   3927   3925   3926
  2926   1   3930   3928   3929
  2927   1   3933   3931   3932
  2928   1   3936   3934   3935
  2929   1   3939   3937   3938
  2930   1   3942   3940   3941
  2931   1   3945   3943   3944
  2932   1   3948   3946   3947
  2933   1   3951   3949   3950
  2934   1   3954   3952   3953
  2935   1   3957   3955   3956
  2936   1   3960   3958   3959
  2937   1   3963   3961   3962
  2938   1   3966   3964   3965
  2939   1   3969   3967   3968
  2940   1   3972   3970   3971
  2941   1   3975   3973   3974
  2942   1   3978   3976   3977
  2943   1   3981   3979   3980
  2944   1   3984   3982   3983
  2945   1   3987   3985   3986
  2946   1   3990   3988   3989
  2947   1   3993   3991   3992
  2948   1   3996   3994   3995
  2949   1   3999   3997   3998
  2950   1   4002   4000   4001
  2951   1   4005   4003   4004
  2952   1   4008   4006   4007
  2953   1   4011   4009   4010
  2954   1   4014   4012   4013
  2955   1   4017   4015   4016
  2956   1   4020   4018   4019
  2957   1   4023   4021   4022
  2958   1   4026   4024   4025
  2959   1   4029   4027   4028
  2960   1   4032   4030   4031
  2961   1   4035   4033   4034
  2962   1   4038   4036   4037
  2963   1   4041   4039   4040
  2964   1   4044   4042   4043
  2965   1   4047   4045   4046
  2966   1   4050   4048   4049
  2967   1   4053   4051   4052
  2968   1   4056   4054   4055
  2969   1   4059   4057   4058
  2970   1   4062   4060   4061
  2971   1   4065   4063   4064
  2972   1   4068   4066   4067
  2973   1   4071   4069   4070
  2974   1   4074   4072   4073
  2975   1   4077   4075   4076
  2976   1   4080   4078   4079
  2977   1   4083   4081   4082
  2978   1   4086   4084   4085
  2979   1   4089   4087   4088
  2980   1   4092   4090   4091
  2981   1   4095   4093   4094
  2982   1   4098   4096   4097
  2983   1   4101   4099   4100
  2984   1   4104   4102   4103
  2985   1   4107   4105   4106
  2986   1   4110   4108   4109
  2987   1   4113   4111   4112
  2988   1   4116   4114   4115
  2989   1   4119   4117   4118
  2990   1   4122   4120   4121
  2991   1   4125   4123   4124
  2992   1   4128   4126   4127
  2993   1   4131   4129   4130
  2994   1   4134   4132   4133
  2995   1   4137   4135   4136
  2996   1   4140   4138   4139
  2997   1   4143   4141   4142
  2998   1   4146   4144   4145
  2999   1   4149   4147   4148
  3000   1   4152   4150   4151
  3001   1   4155   4153   4154
  3002   1   4158   4156   4157
  3003   1   4161   4159   4160
  3004   1   4164   4162   4163
  3005   1   4167   4165   4166
  3006   1   4170   4168   4169
  3007   1   4173   4171   4172
  3008   1   4176   4174   4175
  3009   1   4179   4177   4178
  3010   1   4182   4180   4181
  3011   1   4185   4183   4184
  3012   1   4188   4186   4187
  3013   1   4191   4189   4190
  3014   1   4194   4192   4193
  3015   1   4197   4195   4196
  3016   1   4200   4198   4199
  3017   1   4203   4201   4202
  3018   1   4206   4204   4205
  3019   1   4209   4207   4208
  3020   1   4212   4210   4211
  3021   1   4215   4213   4214
  3022   1   4218   4216   4217
  3023   1   4221   4219   4220
  3024   1   4224   4222   4223
  3025   1   4227   4225   4226
  3026   1   4230   4228   4229
  3027   1   4233   4231   4232
  3028   1   4236   4234   4235
  3029   1   4239   4237   4238
  3030   1   4242   4240   4241
  3031   1   4245   4243   4244
  3032   1   4248   4246   4247
  3033   1   4251   4249   4250
  3034   1   4254   4252   4253
  3035   1   4257   4255   4256
  3036   1   4260   4258   4259
  3037   1   4263   4261   4262
  3038   1   4266   4264   4265
  3039   1   4269   4267   4268
  3040   1   4272   4270   4271
  3041   1   4275   4273   4274
  3042   1   4278   4276   4277
  3043   1   4281   4279   4280
  3044   1   4284   4282   4283
  3045   1   4287   4285   4286
  3046   1   4290   4288   4289
  3047   1   4293   4291   4292
  3048   1   4296   4294   4295
  3049   1   4299   4297   4298
  3050   1   4302   4300   4301
  3051   1   4305   4303   4304
  3052   1   4308   4306   4307
  3053   1   4311   4309   4310
  3054   1   4314   4312   4313
  3055   1   4317   4315   4316
  3056   1   4320   4318   4319
  3057   1   4323   4321   4322
  3058   1   4326   4324   4325
  3059   1   4329   4327   4328
  3060   1   4332   4330   4331
  3061   1   4335   4333   4334
  3062   1   4338   4336   4337
  3063   1   4341   4339   4340
  3064   1   4344   4342   4343
  3065   1   4347   4345   4346
  3066   1   4350   4348   4349
  3067   1   4353   4351   4352
  3068   1   4356   4354   4355
  3069   1   4359   4357   4358
  3070   1   4362   4360   4361
  3071   1   4365   4363   4364
  3072   1   4368   4366   4367
  3073   1   4371   4369   4370
  3074   1   4374   4372   4373
  3075   1   4377   4375   4376
  3076   1   4380   4378   4379
  3077   1   4383   4381   4382
  3078   1   4386   4384   4385
  3079   1   4389   4387   4388
  3080   1   4392   4390   4391
  3081   1   4395   4393   4394
  3082   1   4398   4396   4397
  3083   1   4401   4399   4400
  3084   1   4404   4402   4403
  3085   1   4407   4405   4406
  3086   1   4410   4408   4409
  3087   1   4413   4411   4412
  3088   1   4416   4414   4415
  3089   1   4419   4417   4418
  3090   1   4422   4420   4421
  3091   1   4425   4423   4424
  3092   1   4428   4426   4427
  3093   1   4431   4429   4430
  3094   1   4434   4432   4433
  3095   1   4437   4435   4436
  3096   1   4440   4438   4439
  3097   1   4443   4441   4442
  3098   1   4446   4444   4445
  3099   1   4449   4447   4448
  3100   1   4452   4450   4451
  3101   1   4455   4453   4454
  3102   1   4458   4456   4457
  3103   1   4461   4459   4460
  3104   1   4464   4462   4463
  3105   1   4467   4465   4466
  3106   1   4470   4468   4469
  3107   1   4473   4471   4472
  3108   1   4476   4474   4475
  3109   1   4479   4477   4478
  3110   1   4482   4480   4481
  3111   1   4485   4483   4484
  3112   1   4488   4486   4487
  3113   1   4491   4489   4490
  3114   1   4494   4492   4493
  3115   1   4497   4495   4496
  3116   1   4500   4498   4499
  3117   1   4503   4501   4502
  3118   1   4506   4504   4505
  3119   1   4509   4507   4508
  3120   1   4512   4510   4511
  3121   1   4515   4513   4514
  3122   1   4518   4516   4517
  3123   1   4521   4519   4520
  3124   1   4524   4522   4523
  3125   1   4527   4525   4526
  3126   1   4530   4528   4529
  3127   1   4533   4531   4532
  3128   1   4536   4534   4535
  3129   1   4539   4537   4538
  3130   1   4542   4540   4541
  3131   1   4545   4543   4544
  3132   1   4548   4546   4547
  3133   1   4551   4549   4550
  3134   1   4554   4552   4553
  3135   1   4557   4555   4556
  3136   1   4560   4558   4559
  3137   1   4563   4561   4562
  3138   1   4566   4564   4565
  3139   1   4569   4567   4568
  3140   1   4572   4570   4571
  3141   1   4575   4573   4574
  3142   1   4578   4576   4577
  3143   1   4581   4579   4580
  3144   1   4584   4582   4583
  3145   1   4587   4585   4586
  3146   1   4590   4588   4589
  3147   1   4593   4591   4592
  3148   1   4596   4594   4595
  3149   1   4599   4597   4598
  3150   1   4602   4600   4601
  3151   1   4605   4603   4604
  3152   1   4608   4606   4607
  3153   1   4611   4609   4610
  3154   1   4614   4612   4613
  3155   1   4617   4615   4616
  3156   1   4620   4618   4619
  3157   1   4623   4621   4622
  3158   1   4626   4624   4625
  3159   1   4629   4627   4628
  3160   1   4632   4630   4631
  3161   1   4635   4633   4634
  3162   1   4638   4636   4637
  3163   1   4641   4639   4640
  3164   1   4644   4642   4643
  3165   1   4647   4645   4646
  3166   1   4650   4648   4649
  3167   1   4653   4651   4652
  3168   1   4656   4654   4655
  3169   1   4659   4657   4658
  3170   1   4662   4660   4661
  3171   1   4665   4663   4664
  3172   1   4668   4666   4667
  3173   1   4671   4669   4670
  3174   1   4674   4672   4673
  3175   1   4677   4675   4676
  3176   1   4680   4678   4679
  3177   1   4683   4681   4682
  3178   1   4686   4684   4685
  3179   1   4689   4687   4688
  3180   1   4692   4690   4691
  3181   1   4695   4693   4694
  3182   1   4698   4696   4697
  3183   1   4701   4699   4700
  3184   1   4704   4702   4703
  3185   1   4707   4705   4706
  3186   1   4710   4708   4709
  3187   1   4713   4711   4712
  3188   1   4716   4714   4715
  3189   1   4719   4717   4718
  3190   1   4722   4720   4721
  3191   1   4725   4723   4724
  3192   1   4728   4726   4727
  3193   1   4731   4729   4730
  3194   1   4734   4732   4733
  3195   1   4737   4735   4736
  3196   1   4740   4738   4739
  3197   1   4743   4741   4742
  3198   1   4746   4744   4745
  3199   1   4749   4747   4748
  3200   1   4752   4750   4751
  3201   1   4755   4753   4754
  3202   1   4758   4756   4757
  3203   1   4761   4759   4760
  3204   1   4764   4762   4763
  3205   1   4767   4765   4766
  3206   1   4770   4768   4769
  3207   1   4773   4771   4772
  3208   1   4776   4774   4775
  3209   1   4779   4777   4778
  3210   1   4782   4780   4781
  3211   1   4785   4783   4784
  3212   1   4788   4786   4787
  3213   1   4791   4789   4790
  3214   1   4794   4792   4793
  3215   1   4797   4795   4796
  3216   1   4800   4798   4799
  3217   1   4803   4801   4802
  3218   1   4806   4804   4805
  3219   1   4809   4807   4808
  3220   1   4812   4810   4811
  3221   1   4815   4813   4814
  3222   1   4818   4816   4817
  3223   1   4821   4819   4820
  3224   1   4824   4822   4823
  3225   1   4827   4825   4826
  3226   1   4830   4828   4829
  3227   1   4833   4831   4832
  3228   1   4836   4834   4835
  3229   1   4839   4837   4838
  3230   1   4842   4840   4841
  3231   1   4845   4843   4844
  3232   1   4848   4846   4847
  3233   1   4851   4849   4850
  3234   1   4854   4852   4853
  3235   1   4857   4855   4856
  3236   1   4860   4858   4859
  3237   1   4863   4861   4862
  3238   1   4866   4864   4865
  3239   1   4869   4867   4868
  3240   1   4872   4870   4871
  3241   1   4875   4873   4874
  3242   1   4878   4876   4877
  3243   1   4881   4879   4880
  3244   1   4884   4882   4883
  3245   1   4887   4885   4886
  3246   1   4890   4888   4889
  3247   1   4893   4891   4892
  3248   1   4896   4894   4895

Dihedrals

     1   1     13      8     12     10
     2   1   2434      8     12     10
     3   2     57      8     12     10
     4   3     12      8     57     55
     5   4     13      8     57     55
     6   4   2434      8     57     55
     7   5      4      9     11    100
     8   6     14      9     11    100
     9   7     16      9     11    100
    10   8      4      9     14     20
    11   9     11      9     14     20
    12   9     16      9     14     20
    13   5      4      9     16     10
    14   7     11      9     16     10
    15   6     14      9     16     10
    16   2     16     10     12      8
    17   1     17     10     12      8
    18   1     18     10     12      8
    19   3     12     10     16      9
    20   4     17     10     16      9
    21   4     18     10     16      9
    22   3    104    100     11      9
    23   4    105    100     11      9
    24   4   2448    100     11      9
    25   1     36     31     35     33
    26   1   2435     31     35     33
    27   2     80     31     35     33
    28   3     35     31     80     78
    29   4     36     31     80     78
    30   4   2435     31     80     78
    31   5     27     32     34    120
    32   6     37     32     34    120
    33   7     39     32     34    120
    34   8     27     32     37     43
    35   9     34     32     37     43
    36   9     39     32     37     43
    37   5     27     32     39     33
    38   7     34     32     39     33
    39   6     37     32     39     33
    40   2     39     33     35     31
    41   1     40     33     35     31
    42   1     41     33     35     31
    43   3     35     33     39     32
    44   4     40     33     39     32
    45   4     41     33     39     32
    46   3    124    120     34     32
    47   4    125    120     34     32
    48   4   2449    120     34     32
    49   1     59     54     58     56
    50   1   2436     54     58     56
    51   2    103     54     58     56
    52   3     58     54    103    101
    53   4     59     54    103    101
    54   4   2436     54    103    101
    55   5     50     55     57      8
    56   6     60     55     57      8
    57   7     62     55     57      8
    58   8     50     55     60     66
    59   9     57     55     60     66
    60   9     62     55     60     66
    61   5     50     55     62     56
    62   7     57     55     62     56
    63   6     60     55     62     56
    64   2     62     56     58     54
    65   1     63     56     58     54
    66   1     64     56     58     54
    67   3     58     56     62     55
    68   4     63     56     62     55
    69   4     64     56     62     55
    70   1     82     77     81     79
    71   1   2437     77     81     79
    72   2    123     77     81     79
    73   3     81     77    123    121
    74   4     82     77    123    121
    75   4   2437     77    123    121
    76   5     73     78     80     31
    77   6     83     78     80     31
    78   7     85     78     80     31
    79   8     73     78     83     89
    80   9     80     78     83     89
    81   9     85     78     83     89
    82   5     73     78     85     79
    83   7     80     78     85     79
    84   6     83     78     85     79
    85   2     85     79     81     77
    86   1     86     79     81     77
    87   1     87     79     81     77
    88   3     81     79     85     78
    89   4     86     79     85     78
    90   4     87     79     85     78
    91   1    105    100    104    102
    92   2     11    100    104    102
    93   1   2448    100    104    102
    94   5     96    101    103     54
    95   6    106    101    103     54
    96   7    108    101    103     54
    97   8     96    101    106    111
    98   9    103    101    106    111
    99   9    108    101    106    111
   100   5     96    101    108    102
   101   7    103    101    108    102
   102   6    106    101    108    102
   103   2    108    102    104    100
   104   1    109    102    104    100
   105   1    110    102    104    100
   106   3    104    102    108    101
   107   4    109    102    108    101
   108   4    110    102    108    101
   109   1    125    120    124    122
   110   2     34    120    124    122
   111   1   2449    120    124    122
   112   5    116    121    123     77
   113   6    126    121    123     77
   114   7    128    121    123     77
   115   8    116    121    126    131
   116   9    123    121    126    131
   117   9    128    121    126    131
   118   5    116    121    128    122
   119   7    123    121    128    122
   120   6    126    121    128    122
   121   2    128    122    124    120
   122   1    129    122    124    120
   123   1    130    122    124    120
   124   3    124    122    128    121
   125   4    129    122    128    121
   126   4    130    122    128    121
   127   3    142    138    141    139
   128   4    143    138    141    139
   129   4    144    138    141    139
   130   2    141    138    142    140
   131   1    143    138    142    140
   132   1    144    138    142    140
   133   6    146    139    141    138
   134   7    148    139    141    138
   135   5    177    139    141    138
   136   9    141    139    146    207
   137   9    148    139    146    207
   138   8    177    139    146    207
   139   7    141    139    148    340
   140   6    146    139    148    340
   141   5    177    139    148    340
   142   1    149    140    142    138
   143   1   2418    140    142    138
   144   2    548    140    142    138
   145   3    142    140    548    539
   146   4    149    140    548    539
   147   4   2418    140    548    539
   148   3    342    340    148    139
   149   4    349    340    148    139
   150   4   2404    340    148    139
   151   3    160    156    159    157
   152   4    161    156    159    157
   153   4    162    156    159    157
   154   2    159    156    160    158
   155   1    161    156    160    158
   156   1    162    156    160    158
   157   6    164    157    159    156
   158   5    193    157    159    156
   159   7    366    157    159    156
   160   9    159    157    164    205
   161   8    193    157    164    205
   162   9    366    157    164    205
   163   7    159    157    366    358
   164   6    164    157    366    358
   165   5    193    157    366    358
   166   2    166    158    160    156
   167   1    167    158    160    156
   168   1   2438    158    160    156
   169   3    160    158    166   1158
   170   4    167    158    166   1158
   171   4   2438    158    166   1158
   172   6   1159   1158    166    158
   173   5   1165   1158    166    158
   174   7    558   1158    166    158
   175   1    176    171    175    173
   176   1   2439    171    175    173
   177   2    374    171    175    173
   178   3    175    171    374    372
   179   4    176    171    374    372
   180   4   2439    171    374    372
   181   5    145    172    174    567
   182   6    178    172    174    567
   183   7    180    172    174    567
   184   8    145    172    178    204
   185   9    174    172    178    204
   186   9    180    172    178    204
   187   5    145    172    180    173
   188   7    174    172    180    173
   189   6    178    172    180    173
   190   2    180    173    175    171
   191   1    181    173    175    171
   192   1    182    173    175    171
   193   3    175    173    180    172
   194   4    181    173    180    172
   195   4    182    173    180    172
   196   3    571    567    174    172
   197   4    572    567    174    172
   198   4   2450    567    174    172
   199   4    192    187    190    188
   200   4   2440    187    190    188
   201   3   1164    187    190    188
   202   2    190    187   1164    583
   203   1    192    187   1164    583
   204   1   2440    187   1164    583
   205   5    163    188    190    187
   206   6    194    188    190    187
   207   7    196    188    190    187
   208   8    163    188    194    206
   209   9    190    188    194    206
   210   9    196    188    194    206
   211   5    163    188    196    189
   212   7    190    188    196    189
   213   6    194    188    196    189
   214   2    196    189    191    387
   215   1    197    189    191    387
   216   1    198    189    191    387
   217   3    191    189    196    188
   218   4    197    189    196    188
   219   4    198    189    196    188
   220   2    390    387    191    189
   221   1    392    387    191    189
   222   1   2407    387    191    189
   223   3    242    238    241    239
   224   4    243    238    241    239
   225   4    244    238    241    239
   226   2    241    238    242    240
   227   1    243    238    242    240
   228   1    244    238    242    240
   229   6    246    239    241    238
   230   7    248    239    241    238
   231   5    277    239    241    238
   232   9    241    239    246    307
   233   9    248    239    246    307
   234   8    277    239    246    307
   235   7    241    239    248    440
   236   6    246    239    248    440
   237   5    277    239    248    440
   238   1    249    240    242    238
   239   1   2419    240    242    238
   240   2    635    240    242    238
   241   3    242    240    635    626
   242   4    249    240    635    626
   243   4   2419    240    635    626
   244   3    442    440    248    239
   245   4    449    440    248    239
   246   4   2408    440    248    239
   247   3    260    256    259    257
   248   4    261    256    259    257
   249   4    262    256    259    257
   250   2    259    256    260    258
   251   1    261    256    260    258
   252   1    262    256    260    258
   253   6    264    257    259    256
   254   5    293    257    259    256
   255   7    466    257    259    256
   256   9    259    257    264    305
   257   8    293    257    264    305
   258   9    466    257    264    305
   259   7    259    257    466    458
   260   6    264    257    466    458
   261   5    293    257    466    458
   262   2    266    258    260    256
   263   1    267    258    260    256
   264   1   2441    258    260    256
   265   3    260    258    266   1171
   266   4    267    258    266   1171
   267   4   2441    258    266   1171
   268   6   1172   1171    266    258
   269   5   1178   1171    266    258
   270   7    645   1171    266    258
   271   1    276    271    275    273
   272   1   2442    271    275    273
   273   2    474    271    275    273
   274   3    275    271    474    472
   275   4    276    271    474    472
   276   4   2442    271    474    472
   277   5    245    272    274    654
   278   6    278    272    274    654
   279   7    280    272    274    654
   280   8    245    272    278    304
   281   9    274    272    278    304
   282   9    280    272    278    304
   283   5    245    272    280    273
   284   7    274    272    280    273
   285   6    278    272    280    273
   286   2    280    273    275    271
   287   1    281    273    275    271
   288   1    282    273    275    271
   289   3    275    273    280    272
   290   4    281    273    280    272
   291   4    282    273    280    272
   292   3    658    654    274    272
   293   4    659    654    274    272
   294   4   2451    654    274    272
   295   4    292    287    290    288
   296   4   2443    287    290    288
   297   3   1177    287    290    288
   298   2    290    287   1177    670
   299   1    292    287   1177    670
   300   1   2443    287   1177    670
   301   5    263    288    290    287
   302   6    294    288    290    287
   303   7    296    288    290    287
   304   8    263    288    294    306
   305   9    290    288    294    306
   306   9    296    288    294    306
   307   5    263    288    296    289
   308   7    290    288    296    289
   309   6    294    288    296    289
   310   2    296    289    291    487
   311   1    297    289    291    487
   312   1    298    289    291    487
   313   3    291    289    296    288
   314   4    297    289    296    288
   315   4    298    289    296    288
   316   2    490    487    291    289
   317   1    492    487    291    289
   318   1   2411    487    291    289
   319   3    342    338    341    339
   320   4    343    338    341    339
   321   4    344    338    341    339
   322   2    341    338    342    340
   323   1    343    338    342    340
   324   1    344    338    342    340
   325   6    346    339    341    338
   326   7    348    339    341    338
   327   5    377    339    341    338
   328   9    341    339    346    407
   329   9    348    339    346    407
   330   8    377    339    346    407
   331   7    341    339    348    540
   332   6    346    339    348    540
   333   5    377    339    348    540
   334   2    148    340    342    338
   335   1    349    340    342    338
   336   1   2404    340    342    338
   337   3    542    540    348    339
   338   4    549    540    348    339
   339   4   2412    540    348    339
   340   3    360    356    359    357
   341   4    361    356    359    357
   342   4    362    356    359    357
   343   2    359    356    360    358
   344   1    361    356    360    358
   345   1    362    356    360    358
   346   6    364    357    359    356
   347   5    393    357    359    356
   348   7    564    357    359    356
   349   9    359    357    364    405
   350   8    393    357    364    405
   351   9    564    357    364    405
   352   7    359    357    564    557
   353   6    364    357    564    557
   354   5    393    357    564    557
   355   2    366    358    360    356
   356   1    367    358    360    356
   357   1   2405    358    360    356
   358   3    360    358    366    157
   359   4    367    358    366    157
   360   4   2405    358    366    157
   361   1    376    371    375    373
   362   1   2406    371    375    373
   363   2    570    371    375    373
   364   3    375    371    570    568
   365   4    376    371    570    568
   366   4   2406    371    570    568
   367   5    345    372    374    171
   368   6    378    372    374    171
   369   7    380    372    374    171
   370   8    345    372    378    404
   371   9    374    372    378    404
   372   9    380    372    378    404
   373   5    345    372    380    373
   374   7    374    372    380    373
   375   6    378    372    380    373
   376   2    380    373    375    371
   377   1    381    373    375    371
   378   1    382    373    375    371
   379   3    375    373    380    372
   380   4    381    373    380    372
   381   4    382    373    380    372
   382   3    191    387    390    388
   383   4    392    387    390    388
   384   4   2407    387    390    388
   385   5    363    388    390    387
   386   6    394    388    390    387
   387   7    396    388    390    387
   388   8    363    388    394    406
   389   9    390    388    394    406
   390   9    396    388    394    406
   391   5    363    388    396    389
   392   7    390    388    396    389
   393   6    394    388    396    389
   394   2    396    389    391    581
   395   1    397    389    391    581
   396   1    398    389    391    581
   397   3    391    389    396    388
   398   4    397    389    396    388
   399   4    398    389    396    388
   400   2    584    581    391    389
   401   1    585    581    391    389
   402   1   2414    581    391    389
   403   3    442    438    441    439
   404   4    443    438    441    439
   405   4    444    438    441    439
   406   2    441    438    442    440
   407   1    443    438    442    440
   408   1    444    438    442    440
   409   6    446    439    441    438
   410   7    448    439    441    438
   411   5    477    439    441    438
   412   9    441    439    446    507
   413   9    448    439    446    507
   414   8    477    439    446    507
   415   7    441    439    448    627
   416   6    446    439    448    627
   417   5    477    439    448    627
   418   2    248    440    442    438
   419   1    449    440    442    438
   420   1   2408    440    442    438
   421   3    629    627    448    439
   422   4    636    627    448    439
   423   4   2415    627    448    439
   424   3    460    456    459    457
   425   4    461    456    459    457
   426   4    462    456    459    457
   427   2    459    456    460    458
   428   1    461    456    460    458
   429   1    462    456    460    458
   430   6    464    457    459    456
   431   5    493    457    459    456
   432   7    651    457    459    456
   433   9    459    457    464    505
   434   8    493    457    464    505
   435   9    651    457    464    505
   436   7    459    457    651    644
   437   6    464    457    651    644
   438   5    493    457    651    644
   439   2    466    458    460    456
   440   1    467    458    460    456
   441   1   2409    458    460    456
   442   3    460    458    466    257
   443   4    467    458    466    257
   444   4   2409    458    466    257
   445   1    476    471    475    473
   446   1   2410    471    475    473
   447   2    657    471    475    473
   448   3    475    471    657    655
   449   4    476    471    657    655
   450   4   2410    471    657    655
   451   5    445    472    474    271
   452   6    478    472    474    271
   453   7    480    472    474    271
   454   8    445    472    478    504
   455   9    474    472    478    504
   456   9    480    472    478    504
   457   5    445    472    480    473
   458   7    474    472    480    473
   459   6    478    472    480    473
   460   2    480    473    475    471
   461   1    481    473    475    471
   462   1    482    473    475    471
   463   3    475    473    480    472
   464   4    481    473    480    472
   465   4    482    473    480    472
   466   3    291    487    490    488
   467   4    492    487    490    488
   468   4   2411    487    490    488
   469   5    463    488    490    487
   470   6    494    488    490    487
   471   7    496    488    490    487
   472   8    463    488    494    506
   473   9    490    488    494    506
   474   9    496    488    494    506
   475   5    463    488    496    489
   476   7    490    488    496    489
   477   6    494    488    496    489
   478   2    496    489    491    668
   479   1    497    489    491    668
   480   1    498    489    491    668
   481   3    491    489    496    488
   482   4    497    489    496    488
   483   4    498    489    496    488
   484   2    671    668    491    489
   485   1    672    668    491    489
   486   1   2417    668    491    489
   487   3    542    538    541    539
   488   4    543    538    541    539
   489   4    544    538    541    539
   490   2    541    538    542    540
   491   1    543    538    542    540
   492   1    544    538    542    540
   493   6    546    539    541    538
   494   7    548    539    541    538
   495   5    573    539    541    538
   496   9    541    539    546    598
   497   9    548    539    546    598
   498   8    573    539    546    598
   499   7    541    539    548    140
   500   6    546    539    548    140
   501   5    573    539    548    140
   502   2    348    540    542    538
   503   1    549    540    542    538
   504   1   2412    540    542    538
   505   3    559    556    558   1158
   506   4    560    556    558   1158
   507   4    561    556    558   1158
   508   2    558    556    559    557
   509   1    560    556    559    557
   510   1    561    556    559    557
   511   2    564    557    559    556
   512   1    565    557    559    556
   513   1   2413    557    559    556
   514   3    559    557    564    357
   515   4    565    557    564    357
   516   4   2413    557    564    357
   517   7    166   1158    558    556
   518   6   1159   1158    558    556
   519   5   1165   1158    558    556
   520   1    572    567    571    569
   521   2    174    567    571    569
   522   1   2450    567    571    569
   523   5    545    568    570    371
   524   6    574    568    570    371
   525   7    576    568    570    371
   526   8    545    568    574    596
   527   9    570    568    574    596
   528   9    576    568    574    596
   529   5    545    568    576    569
   530   7    570    568    576    569
   531   6    574    568    576    569
   532   2    576    569    571    567
   533   1    577    569    571    567
   534   1    578    569    571    567
   535   3    571    569    576    568
   536   4    577    569    576    568
   537   4    578    569    576    568
   538   3    391    581    584    582
   539   4    585    581    584    582
   540   4   2414    581    584    582
   541   5    562    582    584    581
   542   6    586    582    584    581
   543   7    588    582    584    581
   544   8    562    582    586    597
   545   9    584    582    586    597
   546   9    588    582    586    597
   547   5    562    582    588    583
   548   7    584    582    588    583
   549   6    586    582    588    583
   550   4    589    583    588    582
   551   4    590    583    588    582
   552   3   1164    583    588    582
   553   2    588    583   1164    187
   554   1    589    583   1164    187
   555   1    590    583   1164    187
   556   3    629    625    628    626
   557   4    630    625    628    626
   558   4    631    625    628    626
   559   2    628    625    629    627
   560   1    630    625    629    627
   561   1    631    625    629    627
   562   6    633    626    628    625
   563   7    635    626    628    625
   564   5    660    626    628    625
   565   9    628    626    633    685
   566   9    635    626    633    685
   567   8    660    626    633    685
   568   7    628    626    635    240
   569   6    633    626    635    240
   570   5    660    626    635    240
   571   2    448    627    629    625
   572   1    636    627    629    625
   573   1   2415    627    629    625
   574   3    646    643    645   1171
   575   4    647    643    645   1171
   576   4    648    643    645   1171
   577   2    645    643    646    644
   578   1    647    643    646    644
   579   1    648    643    646    644
   580   2    651    644    646    643
   581   1    652    644    646    643
   582   1   2416    644    646    643
   583   3    646    644    651    457
   584   4    652    644    651    457
   585   4   2416    644    651    457
   586   7    266   1171    645    643
   587   6   1172   1171    645    643
   588   5   1178   1171    645    643
   589   1    659    654    658    656
   590   2    274    654    658    656
   591   1   2451    654    658    656
   592   5    632    655    657    471
   593   6    661    655    657    471
   594   7    663    655    657    471
   595   8    632    655    661    683
   596   9    657    655    661    683
   597   9    663    655    661    683
   598   5    632    655    663    656
   599   7    657    655    663    656
   600   6    661    655    663    656
   601   2    663    656    658    654
   602   1    664    656    658    654
   603   1    665    656    658    654
   604   3    658    656    663    655
   605   4    664    656    663    655
   606   4    665    656    663    655
   607   3    491    668    671    669
   608   4    672    668    671    669
   609   4   2417    668    671    669
   610   5    649    669    671    668
   611   6    673    669    671    668
   612   7    675    669    671    668
   613   8    649    669    673    684
   614   9    671    669    673    684
   615   9    675    669    673    684
   616   5    649    669    675    670
   617   7    671    669    675    670
   618   6    673    669    675    670
   619   4    676    670    675    669
   620   4    677    670    675    669
   621   3   1177    670    675    669
   622   2    675    670   1177    287
   623   1    676    670   1177    287
   624   1    677    670   1177    287
   625   3    716    712    715    713
   626   4    717    712    715    713
   627   4    718    712    715    713
   628   2    715    712    716    714
   629   1    717    712    716    714
   630   1    718    712    716    714
   631   6    719    713    715    712
   632   7    721    713    715    712
   633   5    741    713    715    712
   634   9    715    713    719    764
   635   9    721    713    719    764
   636   8    741    713    719    764
   637   7    715    713    721    868
   638   6    719    713    721    868
   639   5    741    713    721    868
   640   1    722    714    716    712
   641   1   2432    714    716    712
   642   2   1029    714    716    712
   643   3    716    714   1029   1021
   644   4    722    714   1029   1021
   645   4   2432    714   1029   1021
   646   3    870    868    721    713
   647   4    876    868    721    713
   648   4   2420    868    721    713
   649   3    731    727    730    728
   650   4    732    727    730    728
   651   4    733    727    730    728
   652   2    730    727    731    729
   653   1    732    727    731    729
   654   1    733    727    731    729
   655   6    735    728    730    727
   656   5    751    728    730    727
   657   7    891    728    730    727
   658   9    730    728    735    762
   659   8    751    728    735    762
   660   9    891    728    735    762
   661   7    730    728    891    883
   662   6    735    728    891    883
   663   5    751    728    891    883
   664   2    737    729    731    727
   665   1    738    729    731    727
   666   1   2444    729    731    727
   667   3    731    729    737   1184
   668   4    738    729    737   1184
   669   4   2444    729    737   1184
   670   6   1185   1184    737    729
   671   5   1190   1184    737    729
   672   7   1037   1184    737    729
   673   4    750    745    748    746
   674   4   2445    745    748    746
   675   3   1189    745    748    746
   676   2    748    745   1189   1050
   677   1    750    745   1189   1050
   678   1   2445    745   1189   1050
   679   5    734    746    748    745
   680   6    752    746    748    745
   681   7    754    746    748    745
   682   8    734    746    752    763
   683   9    748    746    752    763
   684   9    754    746    752    763
   685   5    734    746    754    747
   686   7    748    746    754    747
   687   6    752    746    754    747
   688   2    754    747    749    899
   689   1    755    747    749    899
   690   1    756    747    749    899
   691   3    749    747    754    746
   692   4    755    747    754    746
   693   4    756    747    754    746
   694   2    902    899    749    747
   695   1    904    899    749    747
   696   1   2422    899    749    747
   697   3    793    789    792    790
   698   4    794    789    792    790
   699   4    795    789    792    790
   700   2    792    789    793    791
   701   1    794    789    793    791
   702   1    795    789    793    791
   703   6    796    790    792    789
   704   7    798    790    792    789
   705   5    818    790    792    789
   706   9    792    790    796    841
   707   9    798    790    796    841
   708   8    818    790    796    841
   709   7    792    790    798    945
   710   6    796    790    798    945
   711   5    818    790    798    945
   712   1    799    791    793    789
   713   1   2433    791    793    789
   714   2   1096    791    793    789
   715   3    793    791   1096   1088
   716   4    799    791   1096   1088
   717   4   2433    791   1096   1088
   718   3    947    945    798    790
   719   4    953    945    798    790
   720   4   2423    945    798    790
   721   3    808    804    807    805
   722   4    809    804    807    805
   723   4    810    804    807    805
   724   2    807    804    808    806
   725   1    809    804    808    806
   726   1    810    804    808    806
   727   6    812    805    807    804
   728   5    828    805    807    804
   729   7    968    805    807    804
   730   9    807    805    812    839
   731   8    828    805    812    839
   732   9    968    805    812    839
   733   7    807    805    968    960
   734   6    812    805    968    960
   735   5    828    805    968    960
   736   2    814    806    808    804
   737   1    815    806    808    804
   738   1   2446    806    808    804
   739   3    808    806    814   1194
   740   4    815    806    814   1194
   741   4   2446    806    814   1194
   742   6   1195   1194    814    806
   743   5   1200   1194    814    806
   744   7   1104   1194    814    806
   745   4    827    822    825    823
   746   4   2447    822    825    823
   747   3   1199    822    825    823
   748   2    825    822   1199   1117
   749   1    827    822   1199   1117
   750   1   2447    822   1199   1117
   751   5    811    823    825    822
   752   6    829    823    825    822
   753   7    831    823    825    822
   754   8    811    823    829    840
   755   9    825    823    829    840
   756   9    831    823    829    840
   757   5    811    823    831    824
   758   7    825    823    831    824
   759   6    829    823    831    824
   760   2    831    824    826    976
   761   1    832    824    826    976
   762   1    833    824    826    976
   763   3    826    824    831    823
   764   4    832    824    831    823
   765   4    833    824    831    823
   766   2    979    976    826    824
   767   1    981    976    826    824
   768   1   2425    976    826    824
   769   3    870    866    869    867
   770   4    871    866    869    867
   771   4    872    866    869    867
   772   2    869    866    870    868
   773   1    871    866    870    868
   774   1    872    866    870    868
   775   6    873    867    869    866
   776   7    875    867    869    866
   777   5    895    867    869    866
   778   9    869    867    873    918
   779   9    875    867    873    918
   780   8    895    867    873    918
   781   7    869    867    875   1022
   782   6    873    867    875   1022
   783   5    895    867    875   1022
   784   2    721    868    870    866
   785   1    876    868    870    866
   786   1   2420    868    870    866
   787   3   1024   1022    875    867
   788   4   1030   1022    875    867
   789   4   2426   1022    875    867
   790   3    885    881    884    882
   791   4    886    881    884    882
   792   4    887    881    884    882
   793   2    884    881    885    883
   794   1    886    881    885    883
   795   1    887    881    885    883
   796   6    889    882    884    881
   797   5    905    882    884    881
   798   7   1043    882    884    881
   799   9    884    882    889    916
   800   8    905    882    889    916
   801   9   1043    882    889    916
   802   7    884    882   1043   1036
   803   6    889    882   1043   1036
   804   5    905    882   1043   1036
   805   2    891    883    885    881
   806   1    892    883    885    881
   807   1   2421    883    885    881
   808   3    885    883    891    728
   809   4    892    883    891    728
   810   4   2421    883    891    728
   811   3    749    899    902    900
   812   4    904    899    902    900
   813   4   2422    899    902    900
   814   5    888    900    902    899
   815   6    906    900    902    899
   816   7    908    900    902    899
   817   8    888    900    906    917
   818   9    902    900    906    917
   819   9    908    900    906    917
   820   5    888    900    908    901
   821   7    902    900    908    901
   822   6    906    900    908    901
   823   2    908    901    903   1048
   824   1    909    901    903   1048
   825   1    910    901    903   1048
   826   3    903    901    908    900
   827   4    909    901    908    900
   828   4    910    901    908    900
   829   2   1051   1048    903    901
   830   1   1052   1048    903    901
   831   1   2428   1048    903    901
   832   3    947    943    946    944
   833   4    948    943    946    944
   834   4    949    943    946    944
   835   2    946    943    947    945
   836   1    948    943    947    945
   837   1    949    943    947    945
   838   6    950    944    946    943
   839   7    952    944    946    943
   840   5    972    944    946    943
   841   9    946    944    950    995
   842   9    952    944    950    995
   843   8    972    944    950    995
   844   7    946    944    952   1089
   845   6    950    944    952   1089
   846   5    972    944    952   1089
   847   2    798    945    947    943
   848   1    953    945    947    943
   849   1   2423    945    947    943
   850   3   1091   1089    952    944
   851   4   1097   1089    952    944
   852   4   2429   1089    952    944
   853   3    962    958    961    959
   854   4    963    958    961    959
   855   4    964    958    961    959
   856   2    961    958    962    960
   857   1    963    958    962    960
   858   1    964    958    962    960
   859   6    966    959    961    958
   860   5    982    959    961    958
   861   7   1110    959    961    958
   862   9    961    959    966    993
   863   8    982    959    966    993
   864   9   1110    959    966    993
   865   7    961    959   1110   1103
   866   6    966    959   1110   1103
   867   5    982    959   1110   1103
   868   2    968    960    962    958
   869   1    969    960    962    958
   870   1   2424    960    962    958
   871   3    962    960    968    805
   872   4    969    960    968    805
   873   4   2424    960    968    805
   874   3    826    976    979    977
   875   4    981    976    979    977
   876   4   2425    976    979    977
   877   5    965    977    979    976
   878   6    983    977    979    976
   879   7    985    977    979    976
   880   8    965    977    983    994
   881   9    979    977    983    994
   882   9    985    977    983    994
   883   5    965    977    985    978
   884   7    979    977    985    978
   885   6    983    977    985    978
   886   2    985    978    980   1115
   887   1    986    978    980   1115
   888   1    987    978    980   1115
   889   3    980    978    985    977
   890   4    986    978    985    977
   891   4    987    978    985    977
   892   2   1118   1115    980    978
   893   1   1119   1115    980    978
   894   1   2431   1115    980    978
   895   3   1024   1020   1023   1021
   896   4   1025   1020   1023   1021
   897   4   1026   1020   1023   1021
   898   2   1023   1020   1024   1022
   899   1   1025   1020   1024   1022
   900   1   1026   1020   1024   1022
   901   6   1027   1021   1023   1020
   902   7   1029   1021   1023   1020
   903   5   1045   1021   1023   1020
   904   9   1023   1021   1027   1064
   905   9   1029   1021   1027   1064
   906   8   1045   1021   1027   1064
   907   7   1023   1021   1029    714
   908   6   1027   1021   1029    714
   909   5   1045   1021   1029    714
   910   2    875   1022   1024   1020
   911   1   1030   1022   1024   1020
   912   1   2426   1022   1024   1020
   913   3   1038   1035   1037   1184
   914   4   1039   1035   1037   1184
   915   4   1040   1035   1037   1184
   916   2   1037   1035   1038   1036
   917   1   1039   1035   1038   1036
   918   1   1040   1035   1038   1036
   919   2   1043   1036   1038   1035
   920   1   1044   1036   1038   1035
   921   1   2427   1036   1038   1035
   922   3   1038   1036   1043    882
   923   4   1044   1036   1043    882
   924   4   2427   1036   1043    882
   925   7    737   1184   1037   1035
   926   6   1185   1184   1037   1035
   927   5   1190   1184   1037   1035
   928   3    903   1048   1051   1049
   929   4   1052   1048   1051   1049
   930   4   2428   1048   1051   1049
   931   5   1041   1049   1051   1048
   932   6   1053   1049   1051   1048
   933   7   1055   1049   1051   1048
   934   8   1041   1049   1053   1063
   935   9   1051   1049   1053   1063
   936   9   1055   1049   1053   1063
   937   5   1041   1049   1055   1050
   938   7   1051   1049   1055   1050
   939   6   1053   1049   1055   1050
   940   4   1056   1050   1055   1049
   941   4   1057   1050   1055   1049
   942   3   1189   1050   1055   1049
   943   2   1055   1050   1189    745
   944   1   1056   1050   1189    745
   945   1   1057   1050   1189    745
   946   3   1091   1087   1090   1088
   947   4   1092   1087   1090   1088
   948   4   1093   1087   1090   1088
   949   2   1090   1087   1091   1089
   950   1   1092   1087   1091   1089
   951   1   1093   1087   1091   1089
   952   6   1094   1088   1090   1087
   953   7   1096   1088   1090   1087
   954   5   1112   1088   1090   1087
   955   9   1090   1088   1094   1131
   956   9   1096   1088   1094   1131
   957   8   1112   1088   1094   1131
   958   7   1090   1088   1096    791
   959   6   1094   1088   1096    791
   960   5   1112   1088   1096    791
   961   2    952   1089   1091   1087
   962   1   1097   1089   1091   1087
   963   1   2429   1089   1091   1087
   964   3   1105   1102   1104   1194
   965   4   1106   1102   1104   1194
   966   4   1107   1102   1104   1194
   967   2   1104   1102   1105   1103
   968   1   1106   1102   1105   1103
   969   1   1107   1102   1105   1103
   970   2   1110   1103   1105   1102
   971   1   1111   1103   1105   1102
   972   1   2430   1103   1105   1102
   973   3   1105   1103   1110    959
   974   4   1111   1103   1110    959
   975   4   2430   1103   1110    959
   976   7    814   1194   1104   1102
   977   6   1195   1194   1104   1102
   978   5   1200   1194   1104   1102
   979   3    980   1115   1118   1116
   980   4   1119   1115   1118   1116
   981   4   2431   1115   1118   1116
   982   5   1108   1116   1118   1115
   983   6   1120   1116   1118   1115
   984   7   1122   1116   1118   1115
   985   8   1108   1116   1120   1130
   986   9   1118   1116   1120   1130
   987   9   1122   1116   1120   1130
   988   5   1108   1116   1122   1117
   989   7   1118   1116   1122   1117
   990   6   1120   1116   1122   1117
   991   4   1123   1117   1122   1116
   992   4   1124   1117   1122   1116
   993   3   1199   1117   1122   1116
   994   2   1122   1117   1199    822
   995   1   1123   1117   1199    822
   996   1   1124   1117   1199    822
   997   9    166   1158   1159   1166
   998   8   1165   1158   1159   1166
   999   9    558   1158   1159   1166
  1000   9    266   1171   1172   1179
  1001   8   1178   1171   1172   1179
  1002   9    645   1171   1172   1179
  1003   9    737   1184   1185   1191
  1004   8   1190   1184   1185   1191
  1005   9   1037   1184   1185   1191
  1006   9    814   1194   1195   1201
  1007   8   1200   1194   1195   1201
  1008   9   1104   1194   1195   1201
  1009   3   1212   1208   1211   1209
  1010   4   1213   1208   1211   1209
  1011   4   2494   1208   1211   1209
  1012   2   1211   1208   1212   1210
  1013   1   1213   1208   1212   1210
  1014   1   2494   1208   1212   1210
  1015   5   1204   1209   1211   1208
  1016   6   1214   1209   1211   1208
  1017   7   1216   1209   1211   1208
  1018   8   1204   1209   1214   1219
  1019   9   1211   1209   1214   1219
  1020   9   1216   1209   1214   1219
  1021   5   1204   1209   1216   1254
  1022   7   1211   1209   1216   1254
  1023   6   1214   1209   1216   1254
  1024   1   1217   1210   1212   1208
  1025   1   2384   1210   1212   1208
  1026   2   1306   1210   1212   1208
  1027   3   1212   1210   1306   1299
  1028   4   1217   1210   1306   1299
  1029   4   2384   1210   1306   1299
  1030   3   1256   1254   1216   1209
  1031   4   1261   1254   1216   1209
  1032   4   1262   1254   1216   1209
  1033   3   1234   1230   1233   1231
  1034   4   1235   1230   1233   1231
  1035   4   2495   1230   1233   1231
  1036   2   1233   1230   1234   1232
  1037   1   1235   1230   1234   1232
  1038   1   2495   1230   1234   1232
  1039   5   1226   1231   1233   1230
  1040   6   1236   1231   1233   1230
  1041   7   1238   1231   1233   1230
  1042   8   1226   1231   1236   1241
  1043   9   1233   1231   1236   1241
  1044   9   1238   1231   1236   1241
  1045   5   1226   1231   1238   1277
  1046   7   1233   1231   1238   1277
  1047   6   1236   1231   1238   1277
  1048   1   1239   1232   1234   1230
  1049   1   2385   1232   1234   1230
  1050   2   1329   1232   1234   1230
  1051   3   1234   1232   1329   1322
  1052   4   1239   1232   1329   1322
  1053   4   2385   1232   1329   1322
  1054   3   1279   1277   1238   1231
  1055   4   1284   1277   1238   1231
  1056   4   1285   1277   1238   1231
  1057   3   1256   1252   1255   1253
  1058   4   1257   1252   1255   1253
  1059   4   2496   1252   1255   1253
  1060   2   1255   1252   1256   1254
  1061   1   1257   1252   1256   1254
  1062   1   2496   1252   1256   1254
  1063   5   1248   1253   1255   1252
  1064   6   1258   1253   1255   1252
  1065   7   1260   1253   1255   1252
  1066   8   1248   1253   1258   1264
  1067   9   1255   1253   1258   1264
  1068   9   1260   1253   1258   1264
  1069   5   1248   1253   1260   1300
  1070   7   1255   1253   1260   1300
  1071   6   1258   1253   1260   1300
  1072   2   1216   1254   1256   1252
  1073   1   1261   1254   1256   1252
  1074   1   1262   1254   1256   1252
  1075   3   1302   1300   1260   1253
  1076   4   1307   1300   1260   1253
  1077   4   1308   1300   1260   1253
  1078   3   1279   1275   1278   1276
  1079   4   1280   1275   1278   1276
  1080   4   2497   1275   1278   1276
  1081   2   1278   1275   1279   1277
  1082   1   1280   1275   1279   1277
  1083   1   2497   1275   1279   1277
  1084   5   1271   1276   1278   1275
  1085   6   1281   1276   1278   1275
  1086   7   1283   1276   1278   1275
  1087   8   1271   1276   1281   1287
  1088   9   1278   1276   1281   1287
  1089   9   1283   1276   1281   1287
  1090   5   1271   1276   1283   1323
  1091   7   1278   1276   1283   1323
  1092   6   1281   1276   1283   1323
  1093   2   1238   1277   1279   1275
  1094   1   1284   1277   1279   1275
  1095   1   1285   1277   1279   1275
  1096   3   1325   1323   1283   1276
  1097   4   1330   1323   1283   1276
  1098   4   1331   1323   1283   1276
  1099   3   1302   1298   1301   1299
  1100   4   1303   1298   1301   1299
  1101   4   2498   1298   1301   1299
  1102   2   1301   1298   1302   1300
  1103   1   1303   1298   1302   1300
  1104   1   2498   1298   1302   1300
  1105   5   1294   1299   1301   1298
  1106   6   1304   1299   1301   1298
  1107   7   1306   1299   1301   1298
  1108   8   1294   1299   1304   1310
  1109   9   1301   1299   1304   1310
  1110   9   1306   1299   1304   1310
  1111   5   1294   1299   1306   1210
  1112   7   1301   1299   1306   1210
  1113   6   1304   1299   1306   1210
  1114   2   1260   1300   1302   1298
  1115   1   1307   1300   1302   1298
  1116   1   1308   1300   1302   1298
  1117   3   1325   1321   1324   1322
  1118   4   1326   1321   1324   1322
  1119   4   2499   1321   1324   1322
  1120   2   1324   1321   1325   1323
  1121   1   1326   1321   1325   1323
  1122   1   2499   1321   1325   1323
  1123   5   1317   1322   1324   1321
  1124   6   1327   1322   1324   1321
  1125   7   1329   1322   1324   1321
  1126   8   1317   1322   1327   1333
  1127   9   1324   1322   1327   1333
  1128   9   1329   1322   1327   1333
  1129   5   1317   1322   1329   1232
  1130   7   1324   1322   1329   1232
  1131   6   1327   1322   1329   1232
  1132   2   1283   1323   1325   1321
  1133   1   1330   1323   1325   1321
  1134   1   1331   1323   1325   1321
  1135   1   1347   1342   1346   1344
  1136   1   1348   1342   1346   1344
  1137   2   1535   1342   1346   1344
  1138   3   1346   1342   1535   1533
  1139   4   1347   1342   1535   1533
  1140   4   1348   1342   1535   1533
  1141   6   1350   1343   1345   1732
  1142   7   1352   1343   1345   1732
  1143   5   1381   1343   1345   1732
  1144   9   1345   1343   1350   1408
  1145   9   1352   1343   1350   1408
  1146   8   1381   1343   1350   1408
  1147   7   1345   1343   1352   1344
  1148   6   1350   1343   1352   1344
  1149   5   1381   1343   1352   1344
  1150   2   1352   1344   1346   1342
  1151   1   1353   1344   1346   1342
  1152   1   2452   1344   1346   1342
  1153   3   1346   1344   1352   1343
  1154   4   1353   1344   1352   1343
  1155   4   2452   1344   1352   1343
  1156   3   1736   1732   1345   1343
  1157   4   1737   1732   1345   1343
  1158   4   2376   1732   1345   1343
  1159   4   1365   1360   1363   1361
  1160   4   1366   1360   1363   1361
  1161   3   2377   1360   1363   1361
  1162   2   1363   1360   2377   1751
  1163   1   1365   1360   2377   1751
  1164   1   1366   1360   2377   1751
  1165   6   1368   1361   1363   1360
  1166   7   1370   1361   1363   1360
  1167   5   1396   1361   1363   1360
  1168   9   1363   1361   1368   1407
  1169   9   1370   1361   1368   1407
  1170   8   1396   1361   1368   1407
  1171   7   1363   1361   1370   1362
  1172   6   1368   1361   1370   1362
  1173   5   1396   1361   1370   1362
  1174   4   1371   1362   1370   1361
  1175   4   2453   1362   1370   1361
  1176   3   1364   1362   1370   1361
  1177   2   1370   1362   1364   1550
  1178   1   1371   1362   1364   1550
  1179   1   2453   1362   1364   1550
  1180   2   1553   1550   1364   1362
  1181   1   1555   1550   1364   1362
  1182   1   1556   1550   1364   1362
  1183   3   1379   1375   1378   1376
  1184   4   1380   1375   1378   1376
  1185   4   2454   1375   1378   1376
  1186   2   1378   1375   1379   1377
  1187   1   1380   1375   1379   1377
  1188   1   2454   1375   1379   1377
  1189   5   1349   1376   1378   1375
  1190   6   1382   1376   1378   1375
  1191   7   1384   1376   1378   1375
  1192   8   1349   1376   1382   1406
  1193   9   1378   1376   1382   1406
  1194   9   1384   1376   1382   1406
  1195   5   1349   1376   1384   1567
  1196   7   1378   1376   1384   1567
  1197   6   1382   1376   1384   1567
  1198   1   1385   1377   1379   1375
  1199   1   2386   1377   1379   1375
  1200   2   1772   1377   1379   1375
  1201   3   1379   1377   1772   1764
  1202   4   1385   1377   1772   1764
  1203   4   2386   1377   1772   1764
  1204   3   1569   1567   1384   1376
  1205   4   1575   1567   1384   1376
  1206   4   1576   1567   1384   1376
  1207   3   1394   1390   1393   1582
  1208   4   1395   1390   1393   1582
  1209   4   2455   1390   1393   1582
  1210   2   1393   1390   1394   1392
  1211   1   1395   1390   1394   1392
  1212   1   2455   1390   1394   1392
  1213   8   1367   1391   1397   2388
  1214   9   1399   1391   1397   2388
  1215   9   1782   1391   1397   2388
  1216   5   1367   1391   1399   1392
  1217   6   1397   1391   1399   1392
  1218   7   1782   1391   1399   1392
  1219   5   1367   1391   1782   1779
  1220   6   1397   1391   1782   1779
  1221   7   1399   1391   1782   1779
  1222   2   1399   1392   1394   1390
  1223   1   1400   1392   1394   1390
  1224   1   1401   1392   1394   1390
  1225   3   1394   1392   1399   1391
  1226   4   1400   1392   1399   1391
  1227   4   1401   1392   1399   1391
  1228   5   1557   1582   1393   1390
  1229   6   1588   1582   1393   1390
  1230   7   1590   1582   1393   1390
  1231   1   1442   1437   1441   1439
  1232   1   1443   1437   1441   1439
  1233   2   1635   1437   1441   1439
  1234   3   1441   1437   1635   1633
  1235   4   1442   1437   1635   1633
  1236   4   1443   1437   1635   1633
  1237   6   1445   1438   1440   1830
  1238   7   1447   1438   1440   1830
  1239   5   1476   1438   1440   1830
  1240   9   1440   1438   1445   1503
  1241   9   1447   1438   1445   1503
  1242   8   1476   1438   1445   1503
  1243   7   1440   1438   1447   1439
  1244   6   1445   1438   1447   1439
  1245   5   1476   1438   1447   1439
  1246   2   1447   1439   1441   1437
  1247   1   1448   1439   1441   1437
  1248   1   2456   1439   1441   1437
  1249   3   1441   1439   1447   1438
  1250   4   1448   1439   1447   1438
  1251   4   2456   1439   1447   1438
  1252   3   1834   1830   1440   1438
  1253   4   1835   1830   1440   1438
  1254   4   2378   1830   1440   1438
  1255   4   1460   1455   1458   1456
  1256   4   1461   1455   1458   1456
  1257   3   2379   1455   1458   1456
  1258   2   1458   1455   2379   1849
  1259   1   1460   1455   2379   1849
  1260   1   1461   1455   2379   1849
  1261   6   1463   1456   1458   1455
  1262   7   1465   1456   1458   1455
  1263   5   1491   1456   1458   1455
  1264   9   1458   1456   1463   1502
  1265   9   1465   1456   1463   1502
  1266   8   1491   1456   1463   1502
  1267   7   1458   1456   1465   1457
  1268   6   1463   1456   1465   1457
  1269   5   1491   1456   1465   1457
  1270   4   1466   1457   1465   1456
  1271   4   2457   1457   1465   1456
  1272   3   1459   1457   1465   1456
  1273   2   1465   1457   1459   1650
  1274   1   1466   1457   1459   1650
  1275   1   2457   1457   1459   1650
  1276   2   1653   1650   1459   1457
  1277   1   1655   1650   1459   1457
  1278   1   1656   1650   1459   1457
  1279   3   1474   1470   1473   1471
  1280   4   1475   1470   1473   1471
  1281   4   2458   1470   1473   1471
  1282   2   1473   1470   1474   1472
  1283   1   1475   1470   1474   1472
  1284   1   2458   1470   1474   1472
  1285   5   1444   1471   1473   1470
  1286   6   1477   1471   1473   1470
  1287   7   1479   1471   1473   1470
  1288   8   1444   1471   1477   1501
  1289   9   1473   1471   1477   1501
  1290   9   1479   1471   1477   1501
  1291   5   1444   1471   1479   1667
  1292   7   1473   1471   1479   1667
  1293   6   1477   1471   1479   1667
  1294   1   1480   1472   1474   1470
  1295   1   2391   1472   1474   1470
  1296   2   1870   1472   1474   1470
  1297   3   1474   1472   1870   1862
  1298   4   1480   1472   1870   1862
  1299   4   2391   1472   1870   1862
  1300   3   1669   1667   1479   1471
  1301   4   1675   1667   1479   1471
  1302   4   1676   1667   1479   1471
  1303   3   1489   1485   1488   1682
  1304   4   1490   1485   1488   1682
  1305   4   2459   1485   1488   1682
  1306   2   1488   1485   1489   1487
  1307   1   1490   1485   1489   1487
  1308   1   2459   1485   1489   1487
  1309   8   1462   1486   1492   2393
  1310   9   1494   1486   1492   2393
  1311   9   1880   1486   1492   2393
  1312   5   1462   1486   1494   1487
  1313   6   1492   1486   1494   1487
  1314   7   1880   1486   1494   1487
  1315   5   1462   1486   1880   1877
  1316   6   1492   1486   1880   1877
  1317   7   1494   1486   1880   1877
  1318   2   1494   1487   1489   1485
  1319   1   1495   1487   1489   1485
  1320   1   1496   1487   1489   1485
  1321   3   1489   1487   1494   1486
  1322   4   1495   1487   1494   1486
  1323   4   1496   1487   1494   1486
  1324   5   1657   1682   1488   1485
  1325   6   1688   1682   1488   1485
  1326   7   1690   1682   1488   1485
  1327   1   1537   1532   1536   1534
  1328   1   1538   1532   1536   1534
  1329   2   1735   1532   1536   1534
  1330   3   1536   1532   1735   1733
  1331   4   1537   1532   1735   1733
  1332   4   1538   1532   1735   1733
  1333   6   1540   1533   1535   1342
  1334   7   1542   1533   1535   1342
  1335   5   1571   1533   1535   1342
  1336   9   1535   1533   1540   1601
  1337   9   1542   1533   1540   1601
  1338   8   1571   1533   1540   1601
  1339   7   1535   1533   1542   1534
  1340   6   1540   1533   1542   1534
  1341   5   1571   1533   1542   1534
  1342   2   1542   1534   1536   1532
  1343   1   1543   1534   1536   1532
  1344   1   2460   1534   1536   1532
  1345   3   1536   1534   1542   1533
  1346   4   1543   1534   1542   1533
  1347   4   2460   1534   1542   1533
  1348   3   1364   1550   1553   1551
  1349   4   1555   1550   1553   1551
  1350   4   1556   1550   1553   1551
  1351   6   1558   1551   1553   1550
  1352   7   1560   1551   1553   1550
  1353   5   1587   1551   1553   1550
  1354   9   1553   1551   1558   1599
  1355   9   1560   1551   1558   1599
  1356   8   1587   1551   1558   1599
  1357   7   1553   1551   1560   1552
  1358   6   1558   1551   1560   1552
  1359   5   1587   1551   1560   1552
  1360   4   1561   1552   1560   1551
  1361   4   2461   1552   1560   1551
  1362   3   1554   1552   1560   1551
  1363   2   1560   1552   1554   1749
  1364   1   1561   1552   1554   1749
  1365   1   2461   1552   1554   1749
  1366   2   1752   1749   1554   1552
  1367   1   1753   1749   1554   1552
  1368   1   1754   1749   1554   1552
  1369   3   1569   1565   1568   1566
  1370   4   1570   1565   1568   1566
  1371   4   2462   1565   1568   1566
  1372   2   1568   1565   1569   1567
  1373   1   1570   1565   1569   1567
  1374   1   2462   1565   1569   1567
  1375   5   1539   1566   1568   1565
  1376   6   1572   1566   1568   1565
  1377   7   1574   1566   1568   1565
  1378   8   1539   1566   1572   1598
  1379   9   1568   1566   1572   1598
  1380   9   1574   1566   1572   1598
  1381   5   1539   1566   1574   1765
  1382   7   1568   1566   1574   1765
  1383   6   1572   1566   1574   1765
  1384   2   1384   1567   1569   1565
  1385   1   1575   1567   1569   1565
  1386   1   1576   1567   1569   1565
  1387   3   1767   1765   1574   1566
  1388   4   1773   1765   1574   1566
  1389   4   1774   1765   1574   1566
  1390   3   1585   1581   1584   1780
  1391   4   1586   1581   1584   1780
  1392   4   2463   1581   1584   1780
  1393   2   1584   1581   1585   1583
  1394   1   1586   1581   1585   1583
  1395   1   2463   1581   1585   1583
  1396   9   1393   1582   1588   1600
  1397   8   1557   1582   1588   1600
  1398   9   1590   1582   1588   1600
  1399   7   1393   1582   1590   1583
  1400   5   1557   1582   1590   1583
  1401   6   1588   1582   1590   1583
  1402   2   1590   1583   1585   1581
  1403   1   1591   1583   1585   1581
  1404   1   1592   1583   1585   1581
  1405   3   1585   1583   1590   1582
  1406   4   1591   1583   1590   1582
  1407   4   1592   1583   1590   1582
  1408   5   1755   1780   1584   1581
  1409   6   1786   1780   1584   1581
  1410   7   1788   1780   1584   1581
  1411   1   1637   1632   1636   1634
  1412   1   1638   1632   1636   1634
  1413   2   1833   1632   1636   1634
  1414   3   1636   1632   1833   1831
  1415   4   1637   1632   1833   1831
  1416   4   1638   1632   1833   1831
  1417   6   1640   1633   1635   1437
  1418   7   1642   1633   1635   1437
  1419   5   1671   1633   1635   1437
  1420   9   1635   1633   1640   1701
  1421   9   1642   1633   1640   1701
  1422   8   1671   1633   1640   1701
  1423   7   1635   1633   1642   1634
  1424   6   1640   1633   1642   1634
  1425   5   1671   1633   1642   1634
  1426   2   1642   1634   1636   1632
  1427   1   1643   1634   1636   1632
  1428   1   2464   1634   1636   1632
  1429   3   1636   1634   1642   1633
  1430   4   1643   1634   1642   1633
  1431   4   2464   1634   1642   1633
  1432   3   1459   1650   1653   1651
  1433   4   1655   1650   1653   1651
  1434   4   1656   1650   1653   1651
  1435   6   1658   1651   1653   1650
  1436   7   1660   1651   1653   1650
  1437   5   1687   1651   1653   1650
  1438   9   1653   1651   1658   1699
  1439   9   1660   1651   1658   1699
  1440   8   1687   1651   1658   1699
  1441   7   1653   1651   1660   1652
  1442   6   1658   1651   1660   1652
  1443   5   1687   1651   1660   1652
  1444   4   1661   1652   1660   1651
  1445   4   2465   1652   1660   1651
  1446   3   1654   1652   1660   1651
  1447   2   1660   1652   1654   1847
  1448   1   1661   1652   1654   1847
  1449   1   2465   1652   1654   1847
  1450   2   1850   1847   1654   1652
  1451   1   1851   1847   1654   1652
  1452   1   1852   1847   1654   1652
  1453   3   1669   1665   1668   1666
  1454   4   1670   1665   1668   1666
  1455   4   2466   1665   1668   1666
  1456   2   1668   1665   1669   1667
  1457   1   1670   1665   1669   1667
  1458   1   2466   1665   1669   1667
  1459   5   1639   1666   1668   1665
  1460   6   1672   1666   1668   1665
  1461   7   1674   1666   1668   1665
  1462   8   1639   1666   1672   1698
  1463   9   1668   1666   1672   1698
  1464   9   1674   1666   1672   1698
  1465   5   1639   1666   1674   1863
  1466   7   1668   1666   1674   1863
  1467   6   1672   1666   1674   1863
  1468   2   1479   1667   1669   1665
  1469   1   1675   1667   1669   1665
  1470   1   1676   1667   1669   1665
  1471   3   1865   1863   1674   1666
  1472   4   1871   1863   1674   1666
  1473   4   1872   1863   1674   1666
  1474   3   1685   1681   1684   1878
  1475   4   1686   1681   1684   1878
  1476   4   2467   1681   1684   1878
  1477   2   1684   1681   1685   1683
  1478   1   1686   1681   1685   1683
  1479   1   2467   1681   1685   1683
  1480   9   1488   1682   1688   1700
  1481   8   1657   1682   1688   1700
  1482   9   1690   1682   1688   1700
  1483   7   1488   1682   1690   1683
  1484   5   1657   1682   1690   1683
  1485   6   1688   1682   1690   1683
  1486   2   1690   1683   1685   1681
  1487   1   1691   1683   1685   1681
  1488   1   1692   1683   1685   1681
  1489   3   1685   1683   1690   1682
  1490   4   1691   1683   1690   1682
  1491   4   1692   1683   1690   1682
  1492   5   1853   1878   1684   1681
  1493   6   1884   1878   1684   1681
  1494   7   1886   1878   1684   1681
  1495   1   1737   1732   1736   1734
  1496   2   1345   1732   1736   1734
  1497   1   2376   1732   1736   1734
  1498   6   1739   1733   1735   1532
  1499   7   1741   1733   1735   1532
  1500   5   1769   1733   1735   1532
  1501   9   1735   1733   1739   1799
  1502   9   1741   1733   1739   1799
  1503   8   1769   1733   1739   1799
  1504   7   1735   1733   1741   1734
  1505   6   1739   1733   1741   1734
  1506   5   1769   1733   1741   1734
  1507   2   1741   1734   1736   1732
  1508   1   1742   1734   1736   1732
  1509   1   2468   1734   1736   1732
  1510   3   1736   1734   1741   1733
  1511   4   1742   1734   1741   1733
  1512   4   2468   1734   1741   1733
  1513   3   1554   1749   1752   1750
  1514   4   1753   1749   1752   1750
  1515   4   1754   1749   1752   1750
  1516   6   1756   1750   1752   1749
  1517   7   1758   1750   1752   1749
  1518   5   1785   1750   1752   1749
  1519   9   1752   1750   1756   1797
  1520   9   1758   1750   1756   1797
  1521   8   1785   1750   1756   1797
  1522   7   1752   1750   1758   1751
  1523   6   1756   1750   1758   1751
  1524   5   1785   1750   1758   1751
  1525   4   1759   1751   1758   1750
  1526   4   2469   1751   1758   1750
  1527   3   2377   1751   1758   1750
  1528   2   1758   1751   2377   1360
  1529   1   1759   1751   2377   1360
  1530   1   2469   1751   2377   1360
  1531   3   1767   1763   1766   1764
  1532   4   1768   1763   1766   1764
  1533   4   2470   1763   1766   1764
  1534   2   1766   1763   1767   1765
  1535   1   1768   1763   1767   1765
  1536   1   2470   1763   1767   1765
  1537   5   1738   1764   1766   1763
  1538   6   1770   1764   1766   1763
  1539   7   1772   1764   1766   1763
  1540   8   1738   1764   1770   1796
  1541   9   1766   1764   1770   1796
  1542   9   1772   1764   1770   1796
  1543   5   1738   1764   1772   1377
  1544   7   1766   1764   1772   1377
  1545   6   1770   1764   1772   1377
  1546   2   1574   1765   1767   1763
  1547   1   1773   1765   1767   1763
  1548   1   1774   1765   1767   1763
  1549   3   1783   1779   1782   1391
  1550   4   1784   1779   1782   1391
  1551   4   2471   1779   1782   1391
  1552   2   1782   1779   1783   1781
  1553   1   1784   1779   1783   1781
  1554   1   2471   1779   1783   1781
  1555   9   1584   1780   1786   1798
  1556   8   1755   1780   1786   1798
  1557   9   1788   1780   1786   1798
  1558   7   1584   1780   1788   1781
  1559   5   1755   1780   1788   1781
  1560   6   1786   1780   1788   1781
  1561   2   1788   1781   1783   1779
  1562   1   1789   1781   1783   1779
  1563   1   1790   1781   1783   1779
  1564   3   1783   1781   1788   1780
  1565   4   1789   1781   1788   1780
  1566   4   1790   1781   1788   1780
  1567   1   1835   1830   1834   1832
  1568   2   1440   1830   1834   1832
  1569   1   2378   1830   1834   1832
  1570   6   1837   1831   1833   1632
  1571   7   1839   1831   1833   1632
  1572   5   1867   1831   1833   1632
  1573   9   1833   1831   1837   1897
  1574   9   1839   1831   1837   1897
  1575   8   1867   1831   1837   1897
  1576   7   1833   1831   1839   1832
  1577   6   1837   1831   1839   1832
  1578   5   1867   1831   1839   1832
  1579   2   1839   1832   1834   1830
  1580   1   1840   1832   1834   1830
  1581   1   2472   1832   1834   1830
  1582   3   1834   1832   1839   1831
  1583   4   1840   1832   1839   1831
  1584   4   2472   1832   1839   1831
  1585   3   1654   1847   1850   1848
  1586   4   1851   1847   1850   1848
  1587   4   1852   1847   1850   1848
  1588   6   1854   1848   1850   1847
  1589   7   1856   1848   1850   1847
  1590   5   1883   1848   1850   1847
  1591   9   1850   1848   1854   1895
  1592   9   1856   1848   1854   1895
  1593   8   1883   1848   1854   1895
  1594   7   1850   1848   1856   1849
  1595   6   1854   1848   1856   1849
  1596   5   1883   1848   1856   1849
  1597   4   1857   1849   1856   1848
  1598   4   2473   1849   1856   1848
  1599   3   2379   1849   1856   1848
  1600   2   1856   1849   2379   1455
  1601   1   1857   1849   2379   1455
  1602   1   2473   1849   2379   1455
  1603   3   1865   1861   1864   1862
  1604   4   1866   1861   1864   1862
  1605   4   2474   1861   1864   1862
  1606   2   1864   1861   1865   1863
  1607   1   1866   1861   1865   1863
  1608   1   2474   1861   1865   1863
  1609   5   1836   1862   1864   1861
  1610   6   1868   1862   1864   1861
  1611   7   1870   1862   1864   1861
  1612   8   1836   1862   1868   1894
  1613   9   1864   1862   1868   1894
  1614   9   1870   1862   1868   1894
  1615   5   1836   1862   1870   1472
  1616   7   1864   1862   1870   1472
  1617   6   1868   1862   1870   1472
  1618   2   1674   1863   1865   1861
  1619   1   1871   1863   1865   1861
  1620   1   1872   1863   1865   1861
  1621   3   1881   1877   1880   1486
  1622   4   1882   1877   1880   1486
  1623   4   2475   1877   1880   1486
  1624   2   1880   1877   1881   1879
  1625   1   1882   1877   1881   1879
  1626   1   2475   1877   1881   1879
  1627   9   1684   1878   1884   1896
  1628   8   1853   1878   1884   1896
  1629   9   1886   1878   1884   1896
  1630   7   1684   1878   1886   1879
  1631   5   1853   1878   1886   1879
  1632   6   1884   1878   1886   1879
  1633   2   1886   1879   1881   1877
  1634   1   1887   1879   1881   1877
  1635   1   1888   1879   1881   1877
  1636   3   1881   1879   1886   1878
  1637   4   1887   1879   1886   1878
  1638   4   1888   1879   1886   1878
  1639   1   1933   1928   1932   1930
  1640   1   1934   1928   1932   1930
  1641   2   2077   1928   1932   1930
  1642   3   1932   1928   2077   2075
  1643   4   1933   1928   2077   2075
  1644   4   1934   1928   2077   2075
  1645   6   1935   1929   1931   2228
  1646   7   1937   1929   1931   2228
  1647   5   1957   1929   1931   2228
  1648   9   1931   1929   1935   1978
  1649   9   1937   1929   1935   1978
  1650   8   1957   1929   1935   1978
  1651   7   1931   1929   1937   1930
  1652   6   1935   1929   1937   1930
  1653   5   1957   1929   1937   1930
  1654   2   1937   1930   1932   1928
  1655   1   1938   1930   1932   1928
  1656   1   2476   1930   1932   1928
  1657   3   1932   1930   1937   1929
  1658   4   1938   1930   1937   1929
  1659   4   2476   1930   1937   1929
  1660   3   2232   2228   1931   1929
  1661   4   2233   2228   1931   1929
  1662   4   2380   2228   1931   1929
  1663   4   1948   1943   1946   1944
  1664   4   1949   1943   1946   1944
  1665   3   2381   1943   1946   1944
  1666   2   1946   1943   2381   2244
  1667   1   1948   1943   2381   2244
  1668   1   1949   1943   2381   2244
  1669   6   1951   1944   1946   1943
  1670   7   1953   1944   1946   1943
  1671   5   1967   1944   1946   1943
  1672   9   1946   1944   1951   1977
  1673   9   1953   1944   1951   1977
  1674   8   1967   1944   1951   1977
  1675   7   1946   1944   1953   1945
  1676   6   1951   1944   1953   1945
  1677   5   1967   1944   1953   1945
  1678   4   1954   1945   1953   1944
  1679   4   2477   1945   1953   1944
  1680   3   1947   1945   1953   1944
  1681   2   1953   1945   1947   2089
  1682   1   1954   1945   1947   2089
  1683   1   2477   1945   1947   2089
  1684   2   2092   2089   1947   1945
  1685   1   2094   2089   1947   1945
  1686   1   2095   2089   1947   1945
  1687   3   1965   1961   1964   2108
  1688   4   1966   1961   1964   2108
  1689   4   2478   1961   1964   2108
  1690   2   1964   1961   1965   1963
  1691   1   1966   1961   1965   1963
  1692   1   2478   1961   1965   1963
  1693   8   1950   1962   1968   2397
  1694   9   1970   1962   1968   2397
  1695   9   2262   1962   1968   2397
  1696   5   1950   1962   1970   1963
  1697   6   1968   1962   1970   1963
  1698   7   2262   1962   1970   1963
  1699   5   1950   1962   2262   2259
  1700   6   1968   1962   2262   2259
  1701   7   1970   1962   2262   2259
  1702   2   1970   1963   1965   1961
  1703   1   1971   1963   1965   1961
  1704   1   1972   1963   1965   1961
  1705   3   1965   1963   1970   1962
  1706   4   1971   1963   1970   1962
  1707   4   1972   1963   1970   1962
  1708   5   2096   2108   1964   1961
  1709   6   2114   2108   1964   1961
  1710   7   2116   2108   1964   1961
  1711   1   2006   2001   2005   2003
  1712   1   2007   2001   2005   2003
  1713   2   2154   2001   2005   2003
  1714   3   2005   2001   2154   2152
  1715   4   2006   2001   2154   2152
  1716   4   2007   2001   2154   2152
  1717   6   2008   2002   2004   2303
  1718   7   2010   2002   2004   2303
  1719   5   2030   2002   2004   2303
  1720   9   2004   2002   2008   2051
  1721   9   2010   2002   2008   2051
  1722   8   2030   2002   2008   2051
  1723   7   2004   2002   2010   2003
  1724   6   2008   2002   2010   2003
  1725   5   2030   2002   2010   2003
  1726   2   2010   2003   2005   2001
  1727   1   2011   2003   2005   2001
  1728   1   2479   2003   2005   2001
  1729   3   2005   2003   2010   2002
  1730   4   2011   2003   2010   2002
  1731   4   2479   2003   2010   2002
  1732   3   2307   2303   2004   2002
  1733   4   2308   2303   2004   2002
  1734   4   2382   2303   2004   2002
  1735   4   2021   2016   2019   2017
  1736   4   2022   2016   2019   2017
  1737   3   2383   2016   2019   2017
  1738   2   2019   2016   2383   2319
  1739   1   2021   2016   2383   2319
  1740   1   2022   2016   2383   2319
  1741   6   2024   2017   2019   2016
  1742   7   2026   2017   2019   2016
  1743   5   2040   2017   2019   2016
  1744   9   2019   2017   2024   2050
  1745   9   2026   2017   2024   2050
  1746   8   2040   2017   2024   2050
  1747   7   2019   2017   2026   2018
  1748   6   2024   2017   2026   2018
  1749   5   2040   2017   2026   2018
  1750   4   2027   2018   2026   2017
  1751   4   2480   2018   2026   2017
  1752   3   2020   2018   2026   2017
  1753   2   2026   2018   2020   2166
  1754   1   2027   2018   2020   2166
  1755   1   2480   2018   2020   2166
  1756   2   2169   2166   2020   2018
  1757   1   2171   2166   2020   2018
  1758   1   2172   2166   2020   2018
  1759   3   2038   2034   2037   2185
  1760   4   2039   2034   2037   2185
  1761   4   2481   2034   2037   2185
  1762   2   2037   2034   2038   2036
  1763   1   2039   2034   2038   2036
  1764   1   2481   2034   2038   2036
  1765   8   2023   2035   2041   2401
  1766   9   2043   2035   2041   2401
  1767   9   2337   2035   2041   2401
  1768   5   2023   2035   2043   2036
  1769   6   2041   2035   2043   2036
  1770   7   2337   2035   2043   2036
  1771   5   2023   2035   2337   2334
  1772   6   2041   2035   2337   2334
  1773   7   2043   2035   2337   2334
  1774   2   2043   2036   2038   2034
  1775   1   2044   2036   2038   2034
  1776   1   2045   2036   2038   2034
  1777   3   2038   2036   2043   2035
  1778   4   2044   2036   2043   2035
  1779   4   2045   2036   2043   2035
  1780   5   2173   2185   2037   2034
  1781   6   2191   2185   2037   2034
  1782   7   2193   2185   2037   2034
  1783   1   2079   2074   2078   2076
  1784   1   2080   2074   2078   2076
  1785   2   2231   2074   2078   2076
  1786   3   2078   2074   2231   2229
  1787   4   2079   2074   2231   2229
  1788   4   2080   2074   2231   2229
  1789   6   2081   2075   2077   1928
  1790   7   2083   2075   2077   1928
  1791   5   2103   2075   2077   1928
  1792   9   2077   2075   2081   2126
  1793   9   2083   2075   2081   2126
  1794   8   2103   2075   2081   2126
  1795   7   2077   2075   2083   2076
  1796   6   2081   2075   2083   2076
  1797   5   2103   2075   2083   2076
  1798   2   2083   2076   2078   2074
  1799   1   2084   2076   2078   2074
  1800   1   2482   2076   2078   2074
  1801   3   2078   2076   2083   2075
  1802   4   2084   2076   2083   2075
  1803   4   2482   2076   2083   2075
  1804   3   1947   2089   2092   2090
  1805   4   2094   2089   2092   2090
  1806   4   2095   2089   2092   2090
  1807   6   2097   2090   2092   2089
  1808   7   2099   2090   2092   2089
  1809   5   2113   2090   2092   2089
  1810   9   2092   2090   2097   2124
  1811   9   2099   2090   2097   2124
  1812   8   2113   2090   2097   2124
  1813   7   2092   2090   2099   2091
  1814   6   2097   2090   2099   2091
  1815   5   2113   2090   2099   2091
  1816   4   2100   2091   2099   2090
  1817   4   2483   2091   2099   2090
  1818   3   2093   2091   2099   2090
  1819   2   2099   2091   2093   2242
  1820   1   2100   2091   2093   2242
  1821   1   2483   2091   2093   2242
  1822   2   2245   2242   2093   2091
  1823   1   2246   2242   2093   2091
  1824   1   2247   2242   2093   2091
  1825   3   2111   2107   2110   2260
  1826   4   2112   2107   2110   2260
  1827   4   2484   2107   2110   2260
  1828   2   2110   2107   2111   2109
  1829   1   2112   2107   2111   2109
  1830   1   2484   2107   2111   2109
  1831   9   1964   2108   2114   2125
  1832   8   2096   2108   2114   2125
  1833   9   2116   2108   2114   2125
  1834   7   1964   2108   2116   2109
  1835   5   2096   2108   2116   2109
  1836   6   2114   2108   2116   2109
  1837   2   2116   2109   2111   2107
  1838   1   2117   2109   2111   2107
  1839   1   2118   2109   2111   2107
  1840   3   2111   2109   2116   2108
  1841   4   2117   2109   2116   2108
  1842   4   2118   2109   2116   2108
  1843   5   2248   2260   2110   2107
  1844   6   2266   2260   2110   2107
  1845   7   2268   2260   2110   2107
  1846   1   2156   2151   2155   2153
  1847   1   2157   2151   2155   2153
  1848   2   2306   2151   2155   2153
  1849   3   2155   2151   2306   2304
  1850   4   2156   2151   2306   2304
  1851   4   2157   2151   2306   2304
  1852   6   2158   2152   2154   2001
  1853   7   2160   2152   2154   2001
  1854   5   2180   2152   2154   2001
  1855   9   2154   2152   2158   2203
  1856   9   2160   2152   2158   2203
  1857   8   2180   2152   2158   2203
  1858   7   2154   2152   2160   2153
  1859   6   2158   2152   2160   2153
  1860   5   2180   2152   2160   2153
  1861   2   2160   2153   2155   2151
  1862   1   2161   2153   2155   2151
  1863   1   2485   2153   2155   2151
  1864   3   2155   2153   2160   2152
  1865   4   2161   2153   2160   2152
  1866   4   2485   2153   2160   2152
  1867   3   2020   2166   2169   2167
  1868   4   2171   2166   2169   2167
  1869   4   2172   2166   2169   2167
  1870   6   2174   2167   2169   2166
  1871   7   2176   2167   2169   2166
  1872   5   2190   2167   2169   2166
  1873   9   2169   2167   2174   2201
  1874   9   2176   2167   2174   2201
  1875   8   2190   2167   2174   2201
  1876   7   2169   2167   2176   2168
  1877   6   2174   2167   2176   2168
  1878   5   2190   2167   2176   2168
  1879   4   2177   2168   2176   2167
  1880   4   2486   2168   2176   2167
  1881   3   2170   2168   2176   2167
  1882   2   2176   2168   2170   2317
  1883   1   2177   2168   2170   2317
  1884   1   2486   2168   2170   2317
  1885   2   2320   2317   2170   2168
  1886   1   2321   2317   2170   2168
  1887   1   2322   2317   2170   2168
  1888   3   2188   2184   2187   2335
  1889   4   2189   2184   2187   2335
  1890   4   2487   2184   2187   2335
  1891   2   2187   2184   2188   2186
  1892   1   2189   2184   2188   2186
  1893   1   2487   2184   2188   2186
  1894   9   2037   2185   2191   2202
  1895   8   2173   2185   2191   2202
  1896   9   2193   2185   2191   2202
  1897   7   2037   2185   2193   2186
  1898   5   2173   2185   2193   2186
  1899   6   2191   2185   2193   2186
  1900   2   2193   2186   2188   2184
  1901   1   2194   2186   2188   2184
  1902   1   2195   2186   2188   2184
  1903   3   2188   2186   2193   2185
  1904   4   2194   2186   2193   2185
  1905   4   2195   2186   2193   2185
  1906   5   2323   2335   2187   2184
  1907   6   2341   2335   2187   2184
  1908   7   2343   2335   2187   2184
  1909   1   2233   2228   2232   2230
  1910   2   1931   2228   2232   2230
  1911   1   2380   2228   2232   2230
  1912   6   2234   2229   2231   2074
  1913   7   2236   2229   2231   2074
  1914   5   2255   2229   2231   2074
  1915   9   2231   2229   2234   2278
  1916   9   2236   2229   2234   2278
  1917   8   2255   2229   2234   2278
  1918   7   2231   2229   2236   2230
  1919   6   2234   2229   2236   2230
  1920   5   2255   2229   2236   2230
  1921   2   2236   2230   2232   2228
  1922   1   2237   2230   2232   2228
  1923   1   2488   2230   2232   2228
  1924   3   2232   2230   2236   2229
  1925   4   2237   2230   2236   2229
  1926   4   2488   2230   2236   2229
  1927   3   2093   2242   2245   2243
  1928   4   2246   2242   2245   2243
  1929   4   2247   2242   2245   2243
  1930   6   2249   2243   2245   2242
  1931   7   2251   2243   2245   2242
  1932   5   2265   2243   2245   2242
  1933   9   2245   2243   2249   2276
  1934   9   2251   2243   2249   2276
  1935   8   2265   2243   2249   2276
  1936   7   2245   2243   2251   2244
  1937   6   2249   2243   2251   2244
  1938   5   2265   2243   2251   2244
  1939   4   2252   2244   2251   2243
  1940   4   2489   2244   2251   2243
  1941   3   2381   2244   2251   2243
  1942   2   2251   2244   2381   1943
  1943   1   2252   2244   2381   1943
  1944   1   2489   2244   2381   1943
  1945   3   2263   2259   2262   1962
  1946   4   2264   2259   2262   1962
  1947   4   2490   2259   2262   1962
  1948   2   2262   2259   2263   2261
  1949   1   2264   2259   2263   2261
  1950   1   2490   2259   2263   2261
  1951   9   2110   2260   2266   2277
  1952   8   2248   2260   2266   2277
  1953   9   2268   2260   2266   2277
  1954   7   2110   2260   2268   2261
  1955   5   2248   2260   2268   2261
  1956   6   2266   2260   2268   2261
  1957   2   2268   2261   2263   2259
  1958   1   2269   2261   2263   2259
  1959   1   2270   2261   2263   2259
  1960   3   2263   2261   2268   2260
  1961   4   2269   2261   2268   2260
  1962   4   2270   2261   2268   2260
  1963   1   2308   2303   2307   2305
  1964   2   2004   2303   2307   2305
  1965   1   2382   2303   2307   2305
  1966   6   2309   2304   2306   2151
  1967   7   2311   2304   2306   2151
  1968   5   2330   2304   2306   2151
  1969   9   2306   2304   2309   2353
  1970   9   2311   2304   2309   2353
  1971   8   2330   2304   2309   2353
  1972   7   2306   2304   2311   2305
  1973   6   2309   2304   2311   2305
  1974   5   2330   2304   2311   2305
  1975   2   2311   2305   2307   2303
  1976   1   2312   2305   2307   2303
  1977   1   2491   2305   2307   2303
  1978   3   2307   2305   2311   2304
  1979   4   2312   2305   2311   2304
  1980   4   2491   2305   2311   2304
  1981   3   2170   2317   2320   2318
  1982   4   2321   2317   2320   2318
  1983   4   2322   2317   2320   2318
  1984   6   2324   2318   2320   2317
  1985   7   2326   2318   2320   2317
  1986   5   2340   2318   2320   2317
  1987   9   2320   2318   2324   2351
  1988   9   2326   2318   2324   2351
  1989   8   2340   2318   2324   2351
  1990   7   2320   2318   2326   2319
  1991   6   2324   2318   2326   2319
  1992   5   2340   2318   2326   2319
  1993   4   2327   2319   2326   2318
  1994   4   2492   2319   2326   2318
  1995   3   2383   2319   2326   2318
  1996   2   2326   2319   2383   2016
  1997   1   2327   2319   2383   2016
  1998   1   2492   2319   2383   2016
  1999   3   2338   2334   2337   2035
  2000   4   2339   2334   2337   2035
  2001   4   2493   2334   2337   2035
  2002   2   2337   2334   2338   2336
  2003   1   2339   2334   2338   2336
  2004   1   2493   2334   2338   2336
  2005   9   2187   2335   2341   2352
  2006   8   2323   2335   2341   2352
  2007   9   2343   2335   2341   2352
  2008   7   2187   2335   2343   2336
  2009   5   2323   2335   2343   2336
  2010   6   2341   2335   2343   2336
  2011   2   2343   2336   2338   2334
  2012   1   2344   2336   2338   2334
  2013   1   2345   2336   2338   2334
  2014   3   2338   2336   2343   2335
  2015   4   2344   2336   2343   2335
  2016   4   2345   2336   2343   2335

