LAMMPS data file. msi2lmp v3.9.11 / 6 Sep 2024 / CGCMM for <generated-by-msi2lmp>/Tob14_car_mdf/tob14_221

    416 atoms
    320 bonds
    408 angles
    336 dihedrals
    192 impropers

  11 atom types
   7 bond types
  11 angle types
   9 dihedral types
   5 improper types

    -3.692171640     9.777828360 xlo xhi
     0.388767702    12.807617116 ylo yhi
    -0.530924459    27.456075541 zlo zhi
    -8.142154458     0.000000000     0.000000000 xy xz yz

Masses

   1  40.080000 # ca+t
   2  28.086000 # sc2
   3  28.086000 # sc3
   4  15.999400 # oc12
   5  15.999400 # oc13
   6  15.999400 # oc22
   7  15.999400 # oc14
   8  15.999400 # o*
   9  40.080000 # casl
  10   1.008000 # hoy
  11   1.007970 # h*

Pair Coeffs # lj/class2/coul/long

   1   0.2400000000   3.6500000000 # ca+t
   2   0.2200000000   4.5000000000 # sc2
   3   0.2200000000   4.5000000000 # sc3
   4   0.0600000000   3.4500000000 # oc12
   5   0.0600000000   3.4500000000 # oc13
   6   0.0600000000   3.4500000000 # oc22
   7   0.1200000000   3.6000000000 # oc14
   8   0.2600000000   3.6100000000 # o*
   9   0.2400000000   3.4500000000 # casl
  10   0.0130000000   1.0980000000 # hoy
  11   0.0130000000   1.0980000000 # h*

Bond Coeffs # class2

   1     1.7000   350.0000     0.0000     0.0000 # sc2-oc12
   2     1.6200   350.0000     0.0000     0.0000 # sc2-oc13
   3     1.7000   350.0000     0.0000     0.0000 # sc3-oc12
   4     1.6800   350.0000     0.0000     0.0000 # sc3-oc14
   5     1.5900   350.0000     0.0000     0.0000 # sc3-oc22
   6     0.9450   495.0000     0.0000     0.0000 # oc14-hoy
   7     0.9700   563.2800 -1428.2200  1902.1200 # o*-h*

Angle Coeffs # class2

   1   100.2000   100.0000     0.0000     0.0000 # oc12-sc2-oc12
   2   111.5000   100.0000     0.0000     0.0000 # oc12-sc2-oc13
   3   112.5000   100.0000     0.0000     0.0000 # oc13-sc2-oc13
   4   111.0000   100.0000     0.0000     0.0000 # oc12-sc3-oc14
   5   107.0000   100.0000     0.0000     0.0000 # oc12-sc3-oc12
   6   107.0000   100.0000     0.0000     0.0000 # oc12-sc3-oc22
   7   111.0000   100.0000     0.0000     0.0000 # oc22-sc3-oc14
   8   139.0000   100.0000     0.0000     0.0000 # sc2-oc12-sc3
   9   144.0000   100.0000     0.0000     0.0000 # sc2-oc12-sc2
  10   115.0000    50.0000     0.0000     0.0000 # sc3-oc14-hoy
  11   103.7000    49.8400   -11.6000    -8.0000 # h*-o*-h*

Dihedral Coeffs # class2

   1     0.0000     0.0000     0.0000     0.0000     0.0000     0.0000 # oc12-sc2-oc12-sc3
   2     0.0000     0.0000     0.0000     0.0000     0.0000     0.0000 # oc13-sc2-oc12-sc3
   3     0.0000     0.0000     0.0000     0.0000     0.0000     0.0000 # oc12-sc2-oc12-sc2
   4     0.0000     0.0000     0.0000     0.0000     0.0000     0.0000 # oc13-sc2-oc12-sc2
   5     0.0000     0.0000     0.0000     0.0000     0.0000     0.0000 # oc14-sc3-oc12-sc2
   6     0.0000     0.0000     0.0000     0.0000     0.0000     0.0000 # oc12-sc3-oc12-sc2
   7     0.0000     0.0000     0.0000     0.0000     0.0000     0.0000 # oc22-sc3-oc12-sc2
   8     0.0000     0.0000     0.0000     0.0000     0.0000     0.0000 # oc12-sc3-oc14-hoy
   9     0.0000     0.0000     0.0000     0.0000     0.0000     0.0000 # oc22-sc3-oc14-hoy

Improper Coeffs # class2

  1     0.0000     0.0000 
  2     0.0000     0.0000 
  3     0.0000     0.0000 
  4     0.0000     0.0000 
  5     0.0000     0.0000 

BondBond Coeffs

  1     0.0000     1.7000     1.7000 
  2     0.0000     1.7000     1.6200 
  3     0.0000     1.6200     1.6200 
  4     0.0000     1.7000     1.6800 
  5     0.0000     1.7000     1.7000 
  6     0.0000     1.7000     1.5900 
  7     0.0000     1.5900     1.6800 
  8     0.0000     1.7000     1.7000 
  9     0.0000     1.7000     1.7000 
 10     0.0000     1.6800     0.9450 
 11    -9.5000     0.9700     0.9700 

BondAngle Coeffs

  1     0.0000     0.0000     1.7000     1.7000 
  2     0.0000     0.0000     1.7000     1.6200 
  3     0.0000     0.0000     1.6200     1.6200 
  4     0.0000     0.0000     1.7000     1.6800 
  5     0.0000     0.0000     1.7000     1.7000 
  6     0.0000     0.0000     1.7000     1.5900 
  7     0.0000     0.0000     1.5900     1.6800 
  8     0.0000     0.0000     1.7000     1.7000 
  9     0.0000     0.0000     1.7000     1.7000 
 10     0.0000     0.0000     1.6800     0.9450 
 11    22.3500    22.3500     0.9700     0.9700 

AngleAngle Coeffs

  1     0.0000     0.0000     0.0000   100.2000   111.5000   111.5000 
  2     0.0000     0.0000     0.0000   111.5000   112.5000   111.5000 
  3     0.0000     0.0000     0.0000   107.0000   111.0000   111.0000 
  4     0.0000     0.0000     0.0000   107.0000   111.0000   111.0000 
  5     0.0000     0.0000     0.0000   107.0000   107.0000   107.0000 

AngleAngleTorsion Coeffs

  1     0.0000   100.2000   139.0000 
  2     0.0000   111.5000   139.0000 
  3     0.0000   100.2000   144.0000 
  4     0.0000   111.5000   144.0000 
  5     0.0000   111.0000   139.0000 
  6     0.0000   107.0000   139.0000 
  7     0.0000   107.0000   139.0000 
  8     0.0000   111.0000   115.0000 
  9     0.0000   111.0000   115.0000 

EndBondTorsion Coeffs

1     0.0000     0.0000     0.0000     0.0000     0.0000     0.0000     1.7000     1.7000 
2     0.0000     0.0000     0.0000     0.0000     0.0000     0.0000     1.6200     1.7000 
3     0.0000     0.0000     0.0000     0.0000     0.0000     0.0000     1.7000     1.7000 
4     0.0000     0.0000     0.0000     0.0000     0.0000     0.0000     1.6200     1.7000 
5     0.0000     0.0000     0.0000     0.0000     0.0000     0.0000     1.6800     1.7000 
6     0.0000     0.0000     0.0000     0.0000     0.0000     0.0000     1.7000     1.7000 
7     0.0000     0.0000     0.0000     0.0000     0.0000     0.0000     1.5900     1.7000 
8     0.0000     0.0000     0.0000     0.0000     0.0000     0.0000     1.7000     0.9450 
9     0.0000     0.0000     0.0000     0.0000     0.0000     0.0000     1.5900     0.9450 

MiddleBondTorsion Coeffs

  1     0.0000     0.0000     0.0000     1.7000 
  2     0.0000     0.0000     0.0000     1.7000 
  3     0.0000     0.0000     0.0000     1.7000 
  4     0.0000     0.0000     0.0000     1.7000 
  5     0.0000     0.0000     0.0000     1.7000 
  6     0.0000     0.0000     0.0000     1.7000 
  7     0.0000     0.0000     0.0000     1.7000 
  8     0.0000     0.0000     0.0000     1.6800 
  9     0.0000     0.0000     0.0000     1.6800 

BondBond13 Coeffs

  1     0.0000     1.7000     1.7000 
  2     0.0000     1.6200     1.7000 
  3     0.0000     1.7000     1.7000 
  4     0.0000     1.6200     1.7000 
  5     0.0000     1.6800     1.7000 
  6     0.0000     1.7000     1.7000 
  7     0.0000     1.5900     1.7000 
  8     0.0000     1.7000     0.9450 
  9     0.0000     1.5900     0.9450 

AngleTorsion Coeffs

  1     0.0000     0.0000     0.0000     0.0000     0.0000     0.0000   100.2000   139.0000 
  2     0.0000     0.0000     0.0000     0.0000     0.0000     0.0000   111.5000   139.0000 
  3     0.0000     0.0000     0.0000     0.0000     0.0000     0.0000   100.2000   144.0000 
  4     0.0000     0.0000     0.0000     0.0000     0.0000     0.0000   111.5000   144.0000 
  5     0.0000     0.0000     0.0000     0.0000     0.0000     0.0000   111.0000   139.0000 
  6     0.0000     0.0000     0.0000     0.0000     0.0000     0.0000   107.0000   139.0000 
  7     0.0000     0.0000     0.0000     0.0000     0.0000     0.0000   107.0000   139.0000 
  8     0.0000     0.0000     0.0000     0.0000     0.0000     0.0000   111.0000   115.0000 
  9     0.0000     0.0000     0.0000     0.0000     0.0000     0.0000   111.0000   115.0000 

Atoms # full

      1      1   1  1.500000     3.233487052     2.639005575     7.981892395   0   0   0 # ca+t
      2      1   1  1.500000    -0.051936153     2.657633794     6.008808858   0   0   0 # ca+t
      3      1   2  1.000000     3.479814159     2.396837983     4.903322411   0   0   0 # sc2
      4      1   3  1.000000     2.974516950     4.657068530     2.913446599   0   0   0 # sc3
      5      1   2  1.000000     1.091799484     5.967257301     4.900523664   0   0   0 # sc2
      6      1   4 -0.620000     2.980328186     3.179225601     3.492777505   0   0   0 # oc12
      7      1   4 -0.620000     4.349166357     1.173581242     4.315595471   0   0   0 # oc12
      8      1   5 -0.930000     4.291043153     3.440021412     5.793309063   0   0   0 # oc13
      9      1   5 -0.930000     2.263335803     1.869036831     5.779315327   0   0   0 # oc13
     10      1   6 -1.000000     4.956198627     1.552360884    26.638026598   0   0   0 # oc22
     11      1   7 -0.690000     4.345661317     5.513980295     3.288472492   0   0   0 # oc14
     12      1   8 -0.820000     0.154990633     2.763193950     3.627115294   0   0   0 # o*
     13      1   4 -0.620000     1.610738547     5.340105337     3.503972495   0   0   0 # oc12
     14      1   5 -0.930000     0.019667273     5.116565965     5.784912821   0   0   0 # oc13
     15      1   5 -0.930000     2.408347178     6.414335721     5.790510316   0   0   0 # oc13
     16      1   8 -0.820000     3.267591631     4.775047561    26.419727952   0   0   0 # o*
     17      1   8 -0.820000     1.137226577     1.316398022     0.083961001   0   0   0 # o*
     18      1   9  1.700000     1.873414217     6.172168268     0.053175301   0   0   0 # casl
     19      1   8 -0.820000     3.190262777     2.663843139     0.000000000   0   0   0 # o*
     20      1   1  1.500000    -0.134012948     2.639005575    21.975392395   0   0   0 # ca+t
     21      1   1  1.500000     3.315563847     2.657633794    20.002308858   0   0   0 # ca+t
     22      1   2  1.000000     0.112314159     2.396837983    18.896822411   0   0   0 # sc2
     23      1   3  1.000000    -0.392983050     4.657068530    16.906946599   0   0   0 # sc3
     24      1   2  1.000000    -2.275700516     5.967257301    18.894023664   0   0   0 # sc2
     25      1   4 -0.620000    -0.387171814     3.179225601    17.486277505   0   0   0 # oc12
     26      1   4 -0.620000     0.981666357     1.173581242    18.309095471   0   0   0 # oc12
     27      1   5 -0.930000     0.923543153     3.440021412    19.786809063   0   0   0 # oc13
     28      1   5 -0.930000    -1.104164197     1.869036831    19.772815327   0   0   0 # oc13
     29      1   6 -1.000000     1.588698627     1.552360884    12.644526598   0   0   0 # oc22
     30      1   7 -0.690000     0.978161317     5.513980295    17.281972492   0   0   0 # oc14
     31      1   8 -0.820000     3.522490633     2.763193950    17.620615294   0   0   0 # o*
     32      1   4 -0.620000    -1.756761453     5.340105337    17.497472495   0   0   0 # oc12
     33      1   5 -0.930000    -3.347832727     5.116565965    19.778412821   0   0   0 # oc13
     34      1   5 -0.930000    -0.959152822     6.414335721    19.784010316   0   0   0 # oc13
     35      1   8 -0.820000    -0.099908369     4.775047561    12.426227952   0   0   0 # o*
     36      1   1  1.500000     1.197948437     5.743717928    20.005107605   0   0   0 # ca+t
     37      1   1  1.500000    -2.087474768     5.762346147    21.978191142   0   0   0 # ca+t
     38      1   2  1.000000     1.444275545     5.501550336    23.083677589   0   0   0 # sc2
     39      1   3  1.000000     5.010055564     1.552356177    25.073553401   0   0   0 # sc3
     40      1   2  1.000000     3.127338099     2.862544947    23.086476336   0   0   0 # sc2
     41      1   4 -0.620000    -3.126287657    12.493362661    24.494222495   0  -1   0 # oc12
     42      1   4 -0.620000     2.313627743     4.278293596    23.671404529   0   0   0 # oc12
     43      1   5 -0.930000     2.255481767     6.544709059    22.193690937   0   0   0 # oc13
     44      1   5 -0.930000     0.227797188     4.973749185    22.207684673   0   0   0 # oc13
     45      1   6 -1.000000     2.920637242     4.657068530     1.348973402   0   0   0 # oc22
     46      1   7 -0.690000     6.381199931     2.409267941    24.698527508   0   0   0 # oc14
     47      1   8 -0.820000    -1.880547981     5.867906304    24.359884706   0   0   0 # o*
     48      1   4 -0.620000     3.646277162     2.235392983    24.483027505   0   0   0 # oc12
     49      1   5 -0.930000     2.055205887     2.011853611    22.202087179   0   0   0 # oc13
     50      1   5 -0.930000     4.443908563     3.309628075    22.196489684   0   0   0 # oc13
     51      1   8 -0.820000     5.303130246     1.670335208     1.567272048   0   0   0 # o*
     52      1   8 -0.820000    -0.898312038     4.421110376    -0.083961001   0   0   1 # o*
     53      1   1  1.500000    -2.169551563     5.743717928     6.011607605   0   0   0 # ca+t
     54      1   1  1.500000     1.280025232     5.762346147     7.984691142   0   0   0 # ca+t
     55      1   2  1.000000    -1.923224455     5.501550336     9.090177589   0   0   0 # sc2
     56      1   3  1.000000     1.642555564     1.552356177    11.080053401   0   0   0 # sc3
     57      1   2  1.000000    -0.240161901     2.862544947     9.092976336   0   0   0 # sc2
     58      1   4 -0.620000    -6.493787657    12.493362661    10.500722495   0  -1   0 # oc12
     59      1   4 -0.620000    -1.053872257     4.278293596     9.677904529   0   0   0 # oc12
     60      1   5 -0.930000    -1.112018233     6.544709059     8.200190937   0   0   0 # oc13
     61      1   5 -0.930000    -3.139702812     4.973749185     8.214184673   0   0   0 # oc13
     62      1   6 -1.000000    -0.446862758     4.657068530    15.342473402   0   0   0 # oc22
     63      1   7 -0.690000     3.013699931     2.409267941    10.705027508   0   0   0 # oc14
     64      1   8 -0.820000     1.486952019     5.867906304    10.366384706   0   0   0 # o*
     65      1   4 -0.620000     0.278777162     2.235392983    10.489527505   0   0   0 # oc12
     66      1   5 -0.930000    -1.312294113     2.011853611     8.208587179   0   0   0 # oc13
     67      1   5 -0.930000     1.076408563     3.309628075     8.202989684   0   0   0 # oc13
     68      1   8 -0.820000     1.935630246     1.670335208    15.560772048   0   0   0 # o*
     69      1   8 -0.820000     5.303913032     1.782100187    14.077461001   0   0   0 # o*
     70      1   8 -0.820000     2.469187962     4.421110376    13.909538999   0   0   0 # o*
     71      1   9  1.700000     0.541452832     3.067455915    13.940324699   0   0   0 # casl
     72      1   8 -0.820000    -2.212775838     5.768555492    13.993500000   0   0   0 # o*
     73      1  10  0.420000     6.843423414     2.791026938    25.423346563   0   0   0 # hoy
     74      1  10  0.420000     1.430525643     5.904306616    16.556567616   0   0   0 # hoy
     75      1  10  0.420000     3.708867862     2.395688885    11.336226581   0   0   0 # hoy
     76      1  10  0.420000     4.832797315     5.838106161     2.550392443   0   0   0 # hoy
     77      1  11  0.410000     5.633734561     1.725693551     2.498299190   0   0   0 # h*
     78      1  11  0.410000     4.415089614     2.070426667     1.712690205   0   0   0 # h*
     79      1  11  0.410000     0.008252917     3.636783065     3.197921326   0   0   0 # h*
     80      1  11  0.410000     1.104902920     2.630613652     3.386507348   0   0   0 # h*
     81      1  11  0.410000     1.162266619     2.165800931     0.576324689   0   0   0 # h*
     82      1  11  0.410000     2.065062472     1.387643098    -0.248548595   0   0   0 # h*
     83      1  11  0.410000     4.050916407     2.387323001    -0.412339625   0   0   0 # h*
     84      1  11  0.410000     3.374956980     3.497716686     0.507734712   0   0   0 # h*
     85      1  11  0.410000     1.111816101     5.629565999    11.240697981   0   0   0 # h*
     86      1  11  0.410000     2.396056689     6.146588746    10.628428401   0   0   0 # h*
     87      1  11  0.410000    -0.922999932     5.245847360    12.704850912   0   0   0 # h*
     88      1  11  0.410000    -0.388250759     4.517718454    11.510968959   0   0   0 # h*
     89      1  11  0.410000     2.846418908     4.684891624    13.042448887   0   0   0 # h*
     90      1  11  0.410000     3.194873805     4.828636100    14.441054179   0   0   0 # h*
     91      1  11  0.410000     5.190633325     0.816023550    13.947312897   0   0   0 # h*
     92      1  11  0.410000     4.388458636     2.030670687    14.334808815   0   0   0 # h*
     93      1  11  0.410000     1.826378664     0.698217974    15.649539152   0   0   0 # h*
     94      1  11  0.410000     2.118707184     1.882665435    16.507602957   0   0   0 # h*
     95      1  11  0.410000    -1.385155150     5.579857540    14.515919081   0   0   0 # h*
     96      1  11  0.410000    -2.091466083     6.677009171    13.603581679   0   0   0 # h*
     97      1  11  0.410000     3.430063302     3.657098547    17.219969855   0   0   0 # h*
     98      1  11  0.410000     4.458053774     2.578700569    17.360758008   0   0   0 # h*
     99      1  11  0.410000    -2.028047378     6.722494509    24.823259273   0   0   0 # h*
    100      1  11  0.410000    -0.954140885     5.693698441    24.654904704   0   0   0 # h*
    101      1  11  0.410000    -1.022468524     3.464821043    -0.258153482   0   0   1 # h*
    102      1  11  0.410000    -1.789048763     4.762334560    -0.320048786   0   0   1 # h*
    103      1  11  0.410000     3.145948272     3.797287460    26.448947827   0   0   0 # h*
    104      1  11  0.410000     3.405903734     4.880643320    25.446882538   0   0   0 # h*
    105      2   1  1.500000    -3.501512948     2.639005575     7.981892395   1   0   0 # ca+t
    106      2   1  1.500000     6.683063847     2.657633794     6.008808858   0   0   0 # ca+t
    107      2   2  1.000000    -3.255185841     2.396837983     4.903322411   1   0   0 # sc2
    108      2   3  1.000000    -3.760483050     4.657068530     2.913446599   1   0   0 # sc3
    109      2   2  1.000000    -5.643200516     5.967257301     4.900523664   1   0   0 # sc2
    110      2   4 -0.620000    -3.754671814     3.179225601     3.492777505   1   0   0 # oc12
    111      2   4 -0.620000    -2.385833643     1.173581242     4.315595471   1   0   0 # oc12
    112      2   5 -0.930000    -2.443956847     3.440021412     5.793309063   1   0   0 # oc13
    113      2   5 -0.930000    -4.471664197     1.869036831     5.779315327   1   0   0 # oc13
    114      2   6 -1.000000    -1.778801373     1.552360884    26.638026598   1   0   0 # oc22
    115      2   7 -0.690000    -2.389338683     5.513980295     3.288472492   1   0   0 # oc14
    116      2   8 -0.820000     6.889990633     2.763193950     3.627115294   0   0   0 # o*
    117      2   4 -0.620000    -5.124261453     5.340105337     3.503972495   1   0   0 # oc12
    118      2   5 -0.930000    -6.715332727     5.116565965     5.784912821   1   0   0 # oc13
    119      2   5 -0.930000    -4.326652822     6.414335721     5.790510316   1   0   0 # oc13
    120      2   8 -0.820000    -3.467408369     4.775047561    26.419727952   1   0   0 # o*
    121      2   8 -0.820000     7.872226577     1.316398022     0.083961001   0   0   0 # o*
    122      2   9  1.700000    -4.861585783     6.172168268     0.053175301   1   0   0 # casl
    123      2   8 -0.820000    -3.544737223     2.663843139     0.000000000   1   0   0 # o*
    124      2   1  1.500000     6.600987052     2.639005575    21.975392395   0   0   0 # ca+t
    125      2   1  1.500000    -3.419436153     2.657633794    20.002308858   1   0   0 # ca+t
    126      2   2  1.000000     6.847314159     2.396837983    18.896822411   0   0   0 # sc2
    127      2   3  1.000000     6.342016950     4.657068530    16.906946599   0   0   0 # sc3
    128      2   2  1.000000     4.459299484     5.967257301    18.894023664   0   0   0 # sc2
    129      2   4 -0.620000     6.347828186     3.179225601    17.486277505   0   0   0 # oc12
    130      2   4 -0.620000     7.716666357     1.173581242    18.309095471   0   0   0 # oc12
    131      2   5 -0.930000     7.658543153     3.440021412    19.786809063   0   0   0 # oc13
    132      2   5 -0.930000     5.630835803     1.869036831    19.772815327   0   0   0 # oc13
    133      2   6 -1.000000     8.323698627     1.552360884    12.644526598   0   0   0 # oc22
    134      2   7 -0.690000    -5.756838683     5.513980295    17.281972492   1   0   0 # oc14
    135      2   8 -0.820000    -3.212509367     2.763193950    17.620615294   1   0   0 # o*
    136      2   4 -0.620000     4.978238547     5.340105337    17.497472495   0   0   0 # oc12
    137      2   5 -0.930000     3.387167273     5.116565965    19.778412821   0   0   0 # oc13
    138      2   5 -0.930000     5.775847178     6.414335721    19.784010316   0   0   0 # oc13
    139      2   8 -0.820000     6.635091631     4.775047561    12.426227952   0   0   0 # o*
    140      2   1  1.500000    -5.537051563     5.743717928    20.005107605   1   0   0 # ca+t
    141      2   1  1.500000     4.647525232     5.762346147    21.978191142   0   0   0 # ca+t
    142      2   2  1.000000    -5.290724455     5.501550336    23.083677589   1   0   0 # sc2
    143      2   3  1.000000    -1.724944436     1.552356177    25.073553401   1   0   0 # sc3
    144      2   2  1.000000    -3.607661901     2.862544947    23.086476336   1   0   0 # sc2
    145      2   4 -0.620000    -9.861287657    12.493362661    24.494222495   1  -1   0 # oc12
    146      2   4 -0.620000    -4.421372257     4.278293596    23.671404529   1   0   0 # oc12
    147      2   5 -0.930000    -4.479518233     6.544709059    22.193690937   1   0   0 # oc13
    148      2   5 -0.930000    -6.507202812     4.973749185    22.207684673   1   0   0 # oc13
    149      2   6 -1.000000    -3.814362758     4.657068530     1.348973402   1   0   0 # oc22
    150      2   7 -0.690000    -0.353800069     2.409267941    24.698527508   1   0   0 # oc14
    151      2   8 -0.820000     4.854452019     5.867906304    24.359884706   0   0   0 # o*
    152      2   4 -0.620000    -3.088722838     2.235392983    24.483027505   1   0   0 # oc12
    153      2   5 -0.930000    -4.679794113     2.011853611    22.202087179   1   0   0 # oc13
    154      2   5 -0.930000    -2.291091437     3.309628075    22.196489684   1   0   0 # oc13
    155      2   8 -0.820000    -1.431869754     1.670335208     1.567272048   1   0   0 # o*
    156      2   8 -0.820000     5.836687962     4.421110376    -0.083961001   0   0   1 # o*
    157      2   1  1.500000     4.565448437     5.743717928     6.011607605   0   0   0 # ca+t
    158      2   1  1.500000    -5.454974768     5.762346147     7.984691142   1   0   0 # ca+t
    159      2   2  1.000000     4.811775545     5.501550336     9.090177589   0   0   0 # sc2
    160      2   3  1.000000     8.377555564     1.552356177    11.080053401   0   0   0 # sc3
    161      2   2  1.000000     6.494838099     2.862544947     9.092976336   0   0   0 # sc2
    162      2   4 -0.620000     0.241212343    12.493362661    10.500722495   0  -1   0 # oc12
    163      2   4 -0.620000     5.681127743     4.278293596     9.677904529   0   0   0 # oc12
    164      2   5 -0.930000     5.622981767     6.544709059     8.200190937   0   0   0 # oc13
    165      2   5 -0.930000     3.595297188     4.973749185     8.214184673   0   0   0 # oc13
    166      2   6 -1.000000     6.288137242     4.657068530    15.342473402   0   0   0 # oc22
    167      2   7 -0.690000    -3.721300069     2.409267941    10.705027508   1   0   0 # oc14
    168      2   8 -0.820000    -5.248047981     5.867906304    10.366384706   1   0   0 # o*
    169      2   4 -0.620000     7.013777162     2.235392983    10.489527505   0   0   0 # oc12
    170      2   5 -0.930000     5.422705887     2.011853611     8.208587179   0   0   0 # oc13
    171      2   5 -0.930000     7.811408563     3.309628075     8.202989684   0   0   0 # oc13
    172      2   8 -0.820000     8.670630246     1.670335208    15.560772048   0   0   0 # o*
    173      2   8 -0.820000    -1.431086968     1.782100187    14.077461001   1   0   0 # o*
    174      2   8 -0.820000    -4.265812038     4.421110376    13.909538999   1   0   0 # o*
    175      2   9  1.700000     7.276452832     3.067455915    13.940324699   0   0   0 # casl
    176      2   8 -0.820000     4.522224162     5.768555492    13.993500000   0   0   0 # o*
    177      2  10  0.420000     0.108423414     2.791026938    25.423346563   1   0   0 # hoy
    178      2  10  0.420000    -5.304474357     5.904306616    16.556567616   1   0   0 # hoy
    179      2  10  0.420000    -3.026132138     2.395688885    11.336226581   1   0   0 # hoy
    180      2  10  0.420000    -1.902202685     5.838106161     2.550392443   1   0   0 # hoy
    181      2  11  0.410000    -1.101265439     1.725693551     2.498299190   1   0   0 # h*
    182      2  11  0.410000    -2.319910386     2.070426667     1.712690205   1   0   0 # h*
    183      2  11  0.410000     6.743252917     3.636783065     3.197921326   0   0   0 # h*
    184      2  11  0.410000     7.839902920     2.630613652     3.386507348   0   0   0 # h*
    185      2  11  0.410000     7.897266619     2.165800931     0.576324689   0   0   0 # h*
    186      2  11  0.410000     8.800062472     1.387643098    -0.248548595   0   0   0 # h*
    187      2  11  0.410000    -2.684083593     2.387323001    -0.412339625   1   0   0 # h*
    188      2  11  0.410000    -3.360043020     3.497716686     0.507734712   1   0   0 # h*
    189      2  11  0.410000    -5.623183899     5.629565999    11.240697981   1   0   0 # h*
    190      2  11  0.410000    -4.338943311     6.146588746    10.628428401   1   0   0 # h*
    191      2  11  0.410000     5.812000068     5.245847360    12.704850912   0   0   0 # h*
    192      2  11  0.410000     6.346749241     4.517718454    11.510968959   0   0   0 # h*
    193      2  11  0.410000    -3.888581092     4.684891624    13.042448887   1   0   0 # h*
    194      2  11  0.410000    -3.540126195     4.828636100    14.441054179   1   0   0 # h*
    195      2  11  0.410000    -1.544366675     0.816023550    13.947312897   1   0   0 # h*
    196      2  11  0.410000    -2.346541364     2.030670687    14.334808815   1   0   0 # h*
    197      2  11  0.410000     8.561378664     0.698217974    15.649539152   0   0   0 # h*
    198      2  11  0.410000    -4.616292816     1.882665435    16.507602957   1   0   0 # h*
    199      2  11  0.410000     5.349844850     5.579857540    14.515919081   0   0   0 # h*
    200      2  11  0.410000     4.643533917     6.677009171    13.603581679   0   0   0 # h*
    201      2  11  0.410000    -3.304936698     3.657098547    17.219969855   1   0   0 # h*
    202      2  11  0.410000    -2.276946226     2.578700569    17.360758008   1   0   0 # h*
    203      2  11  0.410000     4.706952622     6.722494509    24.823259273   0   0   0 # h*
    204      2  11  0.410000     5.780859115     5.693698441    24.654904704   0   0   0 # h*
    205      2  11  0.410000     5.712531476     3.464821043    -0.258153482   0   0   1 # h*
    206      2  11  0.410000     4.945951237     4.762334560    -0.320048786   0   0   1 # h*
    207      2  11  0.410000    -3.589051728     3.797287460    26.448947827   1   0   0 # h*
    208      2  11  0.410000    -3.329096266     4.880643320    25.446882538   1   0   0 # h*
    209      3   1  1.500000    -0.837590177     8.848430282     7.981892395   0   0   0 # ca+t
    210      3   1  1.500000    -4.123013382     8.867058501     6.008808858   0   0   0 # ca+t
    211      3   2  1.000000    -0.591263070     8.606262690     4.903322411   0   0   0 # sc2
    212      3   3  1.000000    -1.096560279    10.866493237     2.913446599   0   0   0 # sc3
    213      3   2  1.000000    -2.979277745    12.176682008     4.900523664   0   0   0 # sc2
    214      3   4 -0.620000    -1.090749043     9.388650308     3.492777505   0   0   0 # oc12
    215      3   4 -0.620000     0.278089128     7.383005949     4.315595471   0   0   0 # oc12
    216      3   5 -0.930000     0.219965924     9.649446119     5.793309063   0   0   0 # oc13
    217      3   5 -0.930000    -1.807741426     8.078461538     5.779315327   0   0   0 # oc13
    218      3   6 -1.000000     0.885121398     7.761785591    26.638026598   0   0   0 # oc22
    219      3   7 -0.690000     0.274584088    11.723405002     3.288472492   0   0   0 # oc14
    220      3   8 -0.820000    -3.916086596     8.972618657     3.627115294   0   0   0 # o*
    221      3   4 -0.620000    -2.460338682    11.549530044     3.503972495   0   0   0 # oc12
    222      3   5 -0.930000    -4.051409956    11.325990672     5.784912821   0   0   0 # oc13
    223      3   8 -0.820000    -0.803485598    10.984472268    26.419727952   0   0   0 # o*
    224      3   8 -0.820000    -2.933850652     7.525822729     0.083961001   0   0   0 # o*
    225      3   9  1.700000    -2.197663012    12.381592975     0.053175301   0   0   0 # casl
    226      3   8 -0.820000    -0.880814452     8.873267846     0.000000000   0   0   0 # o*
    227      3   1  1.500000    -4.205090177     8.848430282    21.975392395   0   0   0 # ca+t
    228      3   1  1.500000    -0.755513382     8.867058501    20.002308858   0   0   0 # ca+t
    229      3   2  1.000000    -3.958763070     8.606262690    18.896822411   0   0   0 # sc2
    230      3   3  1.000000    -4.464060279    10.866493237    16.906946599   0   0   0 # sc3
    231      3   2  1.000000    -6.346777745    12.176682008    18.894023664   0   0   0 # sc2
    232      3   4 -0.620000    -4.458249043     9.388650308    17.486277505   0   0   0 # oc12
    233      3   4 -0.620000    -3.089410872     7.383005949    18.309095471   0   0   0 # oc12
    234      3   5 -0.930000    -3.147534076     9.649446119    19.786809063   0   0   0 # oc13
    235      3   5 -0.930000    -5.175241426     8.078461538    19.772815327   0   0   0 # oc13
    236      3   6 -1.000000    -2.482378602     7.761785591    12.644526598   0   0   0 # oc22
    237      3   7 -0.690000    -3.092915912    11.723405002    17.281972492   0   0   0 # oc14
    238      3   8 -0.820000    -0.548586596     8.972618657    17.620615294   0   0   0 # o*
    239      3   4 -0.620000    -5.827838682    11.549530044    17.497472495   0   0   0 # oc12
    240      3   5 -0.930000    -7.418909956    11.325990672    19.778412821   0   0   0 # oc13
    241      3   8 -0.820000    -4.170985598    10.984472268    12.426227952   0   0   0 # o*
    242      3   1  1.500000    -2.873128792    11.953142635    20.005107605   0   0   0 # ca+t
    243      3   1  1.500000    -6.158551997    11.971770854    21.978191142   0   0   0 # ca+t
    244      3   2  1.000000    -2.626801684    11.710975043    23.083677589   0   0   0 # sc2
    245      3   3  1.000000     0.938978335     7.761780884    25.073553401   0   0   0 # sc3
    246      3   2  1.000000    -0.943739130     9.071969654    23.086476336   0   0   0 # sc2
    247      3   4 -0.620000     0.944789572     6.283937954    24.494222495   0   0   0 # oc12
    248      3   4 -0.620000    -1.757449486    10.487718303    23.671404529   0   0   0 # oc12
    249      3   5 -0.930000    -3.843280041    11.183173892    22.207684673   0   0   0 # oc13
    250      3   6 -1.000000    -1.150439987    10.866493237     1.348973402   0   0   0 # oc22
    251      3   7 -0.690000     2.310122702     8.618692648    24.698527508   0   0   0 # oc14
    252      3   8 -0.820000    -5.951625210    12.077331011    24.359884706   0   0   0 # o*
    253      3   4 -0.620000    -0.424800067     8.444817690    24.483027505   0   0   0 # oc12
    254      3   5 -0.930000    -2.015871342     8.221278318    22.202087179   0   0   0 # oc13
    255      3   5 -0.930000     0.372831334     9.519052782    22.196489684   0   0   0 # oc13
    256      3   8 -0.820000     1.232053017     7.879759915     1.567272048   0   0   0 # o*
    257      3   8 -0.820000    -4.969389267    10.630535083    -0.083961001   0   0   1 # o*
    258      3   1  1.500000    -6.240628792    11.953142635     6.011607605   0   0   0 # ca+t
    259      3   1  1.500000    -2.791051997    11.971770854     7.984691142   0   0   0 # ca+t
    260      3   2  1.000000    -5.994301684    11.710975043     9.090177589   0   0   0 # sc2
    261      3   3  1.000000    -2.428521665     7.761780884    11.080053401   0   0   0 # sc3
    262      3   2  1.000000    -4.311239130     9.071969654     9.092976336   0   0   0 # sc2
    263      3   4 -0.620000    -2.422710428     6.283937954    10.500722495   0   0   0 # oc12
    264      3   4 -0.620000    -5.124949486    10.487718303     9.677904529   0   0   0 # oc12
    265      3   5 -0.930000    -7.210780041    11.183173892     8.214184673   0   0   0 # oc13
    266      3   6 -1.000000    -4.517939987    10.866493237    15.342473402   0   0   0 # oc22
    267      3   7 -0.690000    -1.057377298     8.618692648    10.705027508   0   0   0 # oc14
    268      3   8 -0.820000    -2.584125210    12.077331011    10.366384706   0   0   0 # o*
    269      3   4 -0.620000    -3.792300067     8.444817690    10.489527505   0   0   0 # oc12
    270      3   5 -0.930000    -5.383371342     8.221278318     8.208587179   0   0   0 # oc13
    271      3   5 -0.930000    -2.994668666     9.519052782     8.202989684   0   0   0 # oc13
    272      3   8 -0.820000    -2.135446983     7.879759915    15.560772048   0   0   0 # o*
    273      3   8 -0.820000     1.232835803     7.991524894    14.077461001   0   0   0 # o*
    274      3   8 -0.820000    -1.601889267    10.630535083    13.909538999   0   0   0 # o*
    275      3   9  1.700000    -3.529624397     9.276880622    13.940324699   0   0   0 # casl
    276      3   8 -0.820000    -6.283853067    11.977980199    13.993500000   0   0   0 # o*
    277      3  10  0.420000     2.772346185     9.000451645    25.423346563   0   0   0 # hoy
    278      3  10  0.420000    -2.640551586    12.113731323    16.556567616   0   0   0 # hoy
    279      3  10  0.420000    -0.362209367     8.605113592    11.336226581   0   0   0 # hoy
    280      3  10  0.420000     0.761720086    12.047530868     2.550392443   0   0   0 # hoy
    281      3  11  0.410000     1.562657332     7.935118258     2.498299190   0   0   0 # h*
    282      3  11  0.410000     0.344012385     8.279851374     1.712690205   0   0   0 # h*
    283      3  11  0.410000    -4.062824312     9.846207772     3.197921326   0   0   0 # h*
    284      3  11  0.410000    -2.966174309     8.840038359     3.386507348   0   0   0 # h*
    285      3  11  0.410000    -2.908810610     8.375225638     0.576324689   0   0   0 # h*
    286      3  11  0.410000    -2.006014757     7.597067805    -0.248548595   0   0   0 # h*
    287      3  11  0.410000    -0.020160822     8.596747708    -0.412339625   0   0   0 # h*
    288      3  11  0.410000    -0.696120249     9.707141393     0.507734712   0   0   0 # h*
    289      3  11  0.410000    -2.959261128    11.838990706    11.240697981   0   0   0 # h*
    290      3  11  0.410000    -1.675020540    12.356013453    10.628428401   0   0   0 # h*
    291      3  11  0.410000    -4.994077161    11.455272067    12.704850912   0   0   0 # h*
    292      3  11  0.410000    -4.459327988    10.727143161    11.510968959   0   0   0 # h*
    293      3  11  0.410000    -1.224658321    10.894316331    13.042448887   0   0   0 # h*
    294      3  11  0.410000    -0.876203424    11.038060807    14.441054179   0   0   0 # h*
    295      3  11  0.410000     1.119556096     7.025448257    13.947312897   0   0   0 # h*
    296      3  11  0.410000     0.317381407     8.240095394    14.334808815   0   0   0 # h*
    297      3  11  0.410000    -2.244698565     6.907642681    15.649539152   0   0   0 # h*
    298      3  11  0.410000    -1.952370045     8.092090142    16.507602957   0   0   0 # h*
    299      3  11  0.410000    -5.456232379    11.789282247    14.515919081   0   0   0 # h*
    300      3  11  0.410000     1.979611146     0.467584464    13.603581679   0   1   0 # h*
    301      3  11  0.410000    -0.641013927     9.866523254    17.219969855   0   0   0 # h*
    302      3  11  0.410000     0.386976545     8.788125276    17.360758008   0   0   0 # h*
    303      3  11  0.410000     2.043029851     0.513069802    24.823259273   0   1   0 # h*
    304      3  11  0.410000    -5.025218114    11.903123148    24.654904704   0   0   0 # h*
    305      3  11  0.410000    -5.093545753     9.674245750    -0.258153482   0   0   1 # h*
    306      3  11  0.410000    -5.860125992    10.971759267    -0.320048786   0   0   1 # h*
    307      3  11  0.410000    -0.925128957    10.006712167    26.448947827   0   0   0 # h*
    308      3  11  0.410000    -0.665173495    11.090068027    25.446882538   0   0   0 # h*
    309      4   1  1.500000    -7.572590177     8.848430282     7.981892395   1   0   0 # ca+t
    310      4   1  1.500000     2.611986618     8.867058501     6.008808858   0   0   0 # ca+t
    311      4   2  1.000000    -7.326263070     8.606262690     4.903322411   1   0   0 # sc2
    312      4   3  1.000000    -7.831560279    10.866493237     2.913446599   1   0   0 # sc3
    313      4   2  1.000000    -9.714277745    12.176682008     4.900523664   1   0   0 # sc2
    314      4   4 -0.620000    -7.825749043     9.388650308     3.492777505   1   0   0 # oc12
    315      4   4 -0.620000    -6.456910872     7.383005949     4.315595471   1   0   0 # oc12
    316      4   5 -0.930000    -6.515034076     9.649446119     5.793309063   1   0   0 # oc13
    317      4   5 -0.930000    -8.542741426     8.078461538     5.779315327   1   0   0 # oc13
    318      4   6 -1.000000    -5.849878602     7.761785591    26.638026598   1   0   0 # oc22
    319      4   7 -0.690000    -6.460415912    11.723405002     3.288472492   1   0   0 # oc14
    320      4   8 -0.820000     2.818913404     8.972618657     3.627115294   0   0   0 # o*
    321      4   4 -0.620000    -9.195338682    11.549530044     3.503972495   1   0   0 # oc12
    322      4   5 -0.930000   -10.786409956    11.325990672     5.784912821   1   0   0 # oc13
    323      4   8 -0.820000    -7.538485598    10.984472268    26.419727952   1   0   0 # o*
    324      4   8 -0.820000     3.801149348     7.525822729     0.083961001   0   0   0 # o*
    325      4   9  1.700000    -8.932663012    12.381592975     0.053175301   1   0   0 # casl
    326      4   8 -0.820000    -7.615814452     8.873267846     0.000000000   1   0   0 # o*
    327      4   1  1.500000     2.529909823     8.848430282    21.975392395   0   0   0 # ca+t
    328      4   1  1.500000    -7.490513382     8.867058501    20.002308858   1   0   0 # ca+t
    329      4   2  1.000000     2.776236930     8.606262690    18.896822411   0   0   0 # sc2
    330      4   3  1.000000     2.270939721    10.866493237    16.906946599   0   0   0 # sc3
    331      4   2  1.000000     0.388222255    12.176682008    18.894023664   0   0   0 # sc2
    332      4   4 -0.620000     2.276750957     9.388650308    17.486277505   0   0   0 # oc12
    333      4   4 -0.620000     3.645589128     7.383005949    18.309095471   0   0   0 # oc12
    334      4   5 -0.930000     3.587465924     9.649446119    19.786809063   0   0   0 # oc13
    335      4   5 -0.930000     1.559758574     8.078461538    19.772815327   0   0   0 # oc13
    336      4   6 -1.000000     4.252621398     7.761785591    12.644526598   0   0   0 # oc22
    337      4   7 -0.690000    -9.827915912    11.723405002    17.281972492   1   0   0 # oc14
    338      4   8 -0.820000    -7.283586596     8.972618657    17.620615294   1   0   0 # o*
    339      4   4 -0.620000     0.907161318    11.549530044    17.497472495   0   0   0 # oc12
    340      4   5 -0.930000    -0.683909956    11.325990672    19.778412821   0   0   0 # oc13
    341      4   8 -0.820000     2.564014402    10.984472268    12.426227952   0   0   0 # o*
    342      4   1  1.500000    -9.608128792    11.953142635    20.005107605   1   0   0 # ca+t
    343      4   1  1.500000     0.576448003    11.971770854    21.978191142   0   0   0 # ca+t
    344      4   2  1.000000    -9.361801684    11.710975043    23.083677589   1   0   0 # sc2
    345      4   3  1.000000    -5.796021665     7.761780884    25.073553401   1   0   0 # sc3
    346      4   2  1.000000    -7.678739130     9.071969654    23.086476336   1   0   0 # sc2
    347      4   4 -0.620000    -5.790210428     6.283937954    24.494222495   1   0   0 # oc12
    348      4   4 -0.620000    -8.492449486    10.487718303    23.671404529   1   0   0 # oc12
    349      4   5 -0.930000   -10.578280041    11.183173892    22.207684673   1   0   0 # oc13
    350      4   6 -1.000000    -7.885439987    10.866493237     1.348973402   1   0   0 # oc22
    351      4   7 -0.690000    -4.424877298     8.618692648    24.698527508   1   0   0 # oc14
    352      4   8 -0.820000     0.783374790    12.077331011    24.359884706   0   0   0 # o*
    353      4   4 -0.620000    -7.159800067     8.444817690    24.483027505   1   0   0 # oc12
    354      4   5 -0.930000    -8.750871342     8.221278318    22.202087179   1   0   0 # oc13
    355      4   5 -0.930000    -6.362168666     9.519052782    22.196489684   1   0   0 # oc13
    356      4   8 -0.820000    -5.502946983     7.879759915     1.567272048   1   0   0 # o*
    357      4   8 -0.820000     1.765610733    10.630535083    -0.083961001   0   0   1 # o*
    358      4   1  1.500000     0.494371208    11.953142635     6.011607605   0   0   0 # ca+t
    359      4   1  1.500000    -9.526051997    11.971770854     7.984691142   1   0   0 # ca+t
    360      4   2  1.000000     0.740698316    11.710975043     9.090177589   0   0   0 # sc2
    361      4   3  1.000000     4.306478335     7.761780884    11.080053401   0   0   0 # sc3
    362      4   2  1.000000     2.423760870     9.071969654     9.092976336   0   0   0 # sc2
    363      4   4 -0.620000     4.312289572     6.283937954    10.500722495   0   0   0 # oc12
    364      4   4 -0.620000     1.610050514    10.487718303     9.677904529   0   0   0 # oc12
    365      4   5 -0.930000    -0.475780041    11.183173892     8.214184673   0   0   0 # oc13
    366      4   6 -1.000000     2.217060013    10.866493237    15.342473402   0   0   0 # oc22
    367      4   7 -0.690000    -7.792377298     8.618692648    10.705027508   1   0   0 # oc14
    368      4   8 -0.820000    -9.319125210    12.077331011    10.366384706   1   0   0 # o*
    369      4   4 -0.620000     2.942699933     8.444817690    10.489527505   0   0   0 # oc12
    370      4   5 -0.930000     1.351628658     8.221278318     8.208587179   0   0   0 # oc13
    371      4   5 -0.930000     3.740331334     9.519052782     8.202989684   0   0   0 # oc13
    372      4   8 -0.820000     4.599553017     7.879759915    15.560772048   0   0   0 # o*
    373      4   8 -0.820000    -5.502164197     7.991524894    14.077461001   1   0   0 # o*
    374      4   8 -0.820000    -8.336889267    10.630535083    13.909538999   1   0   0 # o*
    375      4   9  1.700000     3.205375603     9.276880622    13.940324699   0   0   0 # casl
    376      4   8 -0.820000     0.451146933    11.977980199    13.993500000   0   0   0 # o*
    377      4  10  0.420000    -3.962653815     9.000451645    25.423346563   1   0   0 # hoy
    378      4  10  0.420000    -9.375551586    12.113731323    16.556567616   1   0   0 # hoy
    379      4  10  0.420000    -7.097209367     8.605113592    11.336226581   1   0   0 # hoy
    380      4  10  0.420000    -5.973279914    12.047530868     2.550392443   1   0   0 # hoy
    381      4  11  0.410000    -5.172342668     7.935118258     2.498299190   1   0   0 # h*
    382      4  11  0.410000    -6.390987615     8.279851374     1.712690205   1   0   0 # h*
    383      4  11  0.410000     2.672175688     9.846207772     3.197921326   0   0   0 # h*
    384      4  11  0.410000     3.768825691     8.840038359     3.386507348   0   0   0 # h*
    385      4  11  0.410000     3.826189390     8.375225638     0.576324689   0   0   0 # h*
    386      4  11  0.410000     4.728985243     7.597067805    -0.248548595   0   0   0 # h*
    387      4  11  0.410000    -6.755160822     8.596747708    -0.412339625   1   0   0 # h*
    388      4  11  0.410000    -7.431120249     9.707141393     0.507734712   1   0   0 # h*
    389      4  11  0.410000    -9.694261128    11.838990706    11.240697981   1   0   0 # h*
    390      4  11  0.410000    -8.410020540    12.356013453    10.628428401   1   0   0 # h*
    391      4  11  0.410000     1.740922839    11.455272067    12.704850912   0   0   0 # h*
    392      4  11  0.410000     2.275672012    10.727143161    11.510968959   0   0   0 # h*
    393      4  11  0.410000    -7.959658321    10.894316331    13.042448887   1   0   0 # h*
    394      4  11  0.410000    -7.611203424    11.038060807    14.441054179   1   0   0 # h*
    395      4  11  0.410000    -5.615443904     7.025448257    13.947312897   1   0   0 # h*
    396      4  11  0.410000    -6.417618593     8.240095394    14.334808815   1   0   0 # h*
    397      4  11  0.410000     4.490301435     6.907642681    15.649539152   0   0   0 # h*
    398      4  11  0.410000    -8.687370045     8.092090142    16.507602957   1   0   0 # h*
    399      4  11  0.410000     1.278767621    11.789282247    14.515919081   0   0   0 # h*
    400      4  11  0.410000     8.714611146     0.467584464    13.603581679   0   1   0 # h*
    401      4  11  0.410000    -7.376013927     9.866523254    17.219969855   1   0   0 # h*
    402      4  11  0.410000    -6.348023455     8.788125276    17.360758008   1   0   0 # h*
    403      4  11  0.410000     8.778029851     0.513069802    24.823259273   0   1   0 # h*
    404      4  11  0.410000     1.709781886    11.903123148    24.654904704   0   0   0 # h*
    405      4  11  0.410000     1.641454247     9.674245750    -0.258153482   0   0   1 # h*
    406      4  11  0.410000     0.874874008    10.971759267    -0.320048786   0   0   1 # h*
    407      4  11  0.410000    -7.660128957    10.006712167    26.448947827   1   0   0 # h*
    408      4  11  0.410000    -7.400173495    11.090068027    25.446882538   1   0   0 # h*
    409      5   5 -0.930000    -1.662730051    12.623760428     5.790510316   0  -1   0 # oc13
    410      5   5 -0.930000    -5.030230051    12.623760428    19.784010316   0  -1   0 # oc13
    411      5   5 -0.930000    -1.815595462    12.754133766    22.193690937   0  -1   0 # oc13
    412      5   5 -0.930000    -5.183095462    12.754133766     8.200190937   0  -1   0 # oc13
    413      6   5 -0.930000    -8.397730051    12.623760428     5.790510316   1  -1   0 # oc13
    414      6   5 -0.930000     1.704769949    12.623760428    19.784010316   0  -1   0 # oc13
    415      6   5 -0.930000    -8.550595462    12.754133766    22.193690937   1  -1   0 # oc13
    416      6   5 -0.930000     1.551904538    12.754133766     8.200190937   0  -1   0 # oc13

Bonds

     1   1      3      6
     2   1      3      7
     3   2      3      8
     4   2      3      9
     5   3      4      6
     6   4      4     11
     7   3      4     13
     8   5      4     45
     9   1      5     13
    10   2      5     14
    11   2      5     15
    12   1      5    215
    13   1    213      7
    14   5     39     10
    15   6     11     76
    16   7     12     79
    17   7     12     80
    18   7     16    103
    19   7     16    104
    20   7     17     81
    21   7     17     82
    22   7     19     83
    23   7     19     84
    24   1     22     25
    25   1     22     26
    26   2     22     27
    27   2     22     28
    28   3     23     25
    29   4     23     30
    30   3     23     32
    31   5     23     62
    32   1     24     32
    33   2     24     33
    34   2     24     34
    35   1     24    233
    36   1    231     26
    37   5     56     29
    38   6     30     74
    39   7     31     97
    40   7     31     98
    41   7     35     87
    42   7     35     88
    43   1     38     42
    44   2     38     44
    45   2     38     43
    46   1     38    247
    47   3     39     41
    48   4     39     46
    49   3     39     48
    50   1     40     42
    51   1     40     48
    52   2     40     49
    53   2     40     50
    54   1    244     41
    55   6     46     73
    56   7     47     99
    57   7     47    100
    58   7     51     77
    59   7     51     78
    60   7     52    101
    61   7     52    102
    62   1     55     59
    63   2     55     61
    64   2     55     60
    65   1     55    263
    66   3     56     58
    67   4     56     63
    68   3     56     65
    69   1     57     59
    70   1     57     65
    71   2     57     66
    72   2     57     67
    73   1    260     58
    74   6     63     75
    75   7     64     85
    76   7     64     86
    77   7     68     93
    78   7     68     94
    79   7     69     91
    80   7     69     92
    81   7     70     89
    82   7     70     90
    83   7     72     95
    84   7     72     96
    85   1    107    110
    86   1    107    111
    87   2    107    112
    88   2    107    113
    89   3    108    110
    90   4    108    115
    91   3    108    117
    92   5    108    149
    93   1    109    117
    94   2    109    118
    95   2    109    119
    96   1    109    315
    97   1    313    111
    98   5    143    114
    99   6    115    180
   100   7    116    183
   101   7    116    184
   102   7    120    207
   103   7    120    208
   104   7    121    185
   105   7    121    186
   106   7    123    187
   107   7    123    188
   108   1    126    129
   109   1    126    130
   110   2    126    131
   111   2    126    132
   112   3    127    129
   113   4    127    134
   114   3    127    136
   115   5    127    166
   116   1    128    136
   117   2    128    137
   118   2    128    138
   119   1    128    333
   120   1    331    130
   121   5    160    133
   122   6    134    178
   123   7    135    201
   124   7    135    202
   125   7    139    191
   126   7    139    192
   127   1    142    146
   128   2    142    148
   129   2    142    147
   130   1    142    347
   131   3    143    145
   132   4    143    150
   133   3    143    152
   134   1    144    146
   135   1    144    152
   136   2    144    153
   137   2    144    154
   138   1    344    145
   139   6    150    177
   140   7    151    203
   141   7    151    204
   142   7    155    181
   143   7    155    182
   144   7    156    205
   145   7    156    206
   146   1    159    163
   147   2    159    165
   148   2    159    164
   149   1    159    363
   150   3    160    162
   151   4    160    167
   152   3    160    169
   153   1    161    163
   154   1    161    169
   155   2    161    170
   156   2    161    171
   157   1    360    162
   158   6    167    179
   159   7    168    189
   160   7    168    190
   161   7    172    197
   162   7    172    198
   163   7    173    195
   164   7    173    196
   165   7    174    193
   166   7    174    194
   167   7    176    199
   168   7    176    200
   169   1    211    214
   170   1    211    215
   171   2    211    216
   172   2    211    217
   173   3    212    214
   174   4    212    219
   175   3    212    221
   176   5    212    250
   177   1    213    221
   178   2    213    222
   179   2    213    409
   180   5    245    218
   181   6    219    280
   182   7    220    283
   183   7    220    284
   184   7    223    307
   185   7    223    308
   186   7    224    285
   187   7    224    286
   188   7    226    287
   189   7    226    288
   190   1    229    232
   191   1    229    233
   192   2    229    234
   193   2    229    235
   194   3    230    232
   195   4    230    237
   196   3    230    239
   197   5    230    266
   198   1    231    239
   199   2    231    240
   200   2    231    410
   201   5    261    236
   202   6    237    278
   203   7    238    301
   204   7    238    302
   205   7    241    291
   206   7    241    292
   207   1    244    248
   208   2    244    249
   209   2    244    411
   210   3    245    247
   211   4    245    251
   212   3    245    253
   213   1    246    248
   214   1    246    253
   215   2    246    254
   216   2    246    255
   217   6    251    277
   218   7    252    303
   219   7    252    304
   220   7    256    281
   221   7    256    282
   222   7    257    305
   223   7    257    306
   224   1    260    264
   225   2    260    265
   226   2    260    412
   227   3    261    263
   228   4    261    267
   229   3    261    269
   230   1    262    264
   231   1    262    269
   232   2    262    270
   233   2    262    271
   234   6    267    279
   235   7    268    289
   236   7    268    290
   237   7    272    297
   238   7    272    298
   239   7    273    295
   240   7    273    296
   241   7    274    293
   242   7    274    294
   243   7    276    299
   244   7    276    300
   245   1    311    314
   246   1    311    315
   247   2    311    316
   248   2    311    317
   249   3    312    314
   250   4    312    319
   251   3    312    321
   252   5    312    350
   253   1    313    321
   254   2    313    322
   255   2    313    413
   256   5    345    318
   257   6    319    380
   258   7    320    383
   259   7    320    384
   260   7    323    407
   261   7    323    408
   262   7    324    385
   263   7    324    386
   264   7    326    387
   265   7    326    388
   266   1    329    332
   267   1    329    333
   268   2    329    334
   269   2    329    335
   270   3    330    332
   271   4    330    337
   272   3    330    339
   273   5    330    366
   274   1    331    339
   275   2    331    340
   276   2    331    414
   277   5    361    336
   278   6    337    378
   279   7    338    401
   280   7    338    402
   281   7    341    391
   282   7    341    392
   283   1    344    348
   284   2    344    349
   285   2    344    415
   286   3    345    347
   287   4    345    351
   288   3    345    353
   289   1    346    348
   290   1    346    353
   291   2    346    354
   292   2    346    355
   293   6    351    377
   294   7    352    403
   295   7    352    404
   296   7    356    381
   297   7    356    382
   298   7    357    405
   299   7    357    406
   300   1    360    364
   301   2    360    365
   302   2    360    416
   303   3    361    363
   304   4    361    367
   305   3    361    369
   306   1    362    364
   307   1    362    369
   308   2    362    370
   309   2    362    371
   310   6    367    379
   311   7    368    389
   312   7    368    390
   313   7    372    397
   314   7    372    398
   315   7    373    395
   316   7    373    396
   317   7    374    393
   318   7    374    394
   319   7    376    399
   320   7    376    400

Angles

     1   1      6      3      7
     2   2      6      3      8
     3   2      6      3      9
     4   2      7      3      8
     5   2      7      3      9
     6   3      8      3      9
     7   4      6      4     11
     8   5      6      4     13
     9   6      6      4     45
    10   4     13      4     11
    11   7     45      4     11
    12   6     13      4     45
    13   2     13      5     14
    14   2     13      5     15
    15   1     13      5    215
    16   3     14      5     15
    17   2    215      5     14
    18   2    215      5     15
    19   8      3      6      4
    20   9      3      7    213
    21  10      4     11     76
    22  11     79     12     80
    23   8      5     13      4
    24  11    103     16    104
    25  11     81     17     82
    26  11     83     19     84
    27   1     25     22     26
    28   2     25     22     27
    29   2     25     22     28
    30   2     26     22     27
    31   2     26     22     28
    32   3     27     22     28
    33   4     25     23     30
    34   5     25     23     32
    35   6     25     23     62
    36   4     32     23     30
    37   7     62     23     30
    38   6     32     23     62
    39   2     32     24     33
    40   2     32     24     34
    41   1     32     24    233
    42   3     33     24     34
    43   2    233     24     33
    44   2    233     24     34
    45   8     22     25     23
    46   9     22     26    231
    47  10     23     30     74
    48  11     97     31     98
    49   8     24     32     23
    50  11     87     35     88
    51   2     42     38     44
    52   2     42     38     43
    53   1     42     38    247
    54   3     44     38     43
    55   2    247     38     44
    56   2    247     38     43
    57   6     41     39     10
    58   7     10     39     46
    59   6     48     39     10
    60   4     41     39     46
    61   5     41     39     48
    62   4     48     39     46
    63   1     42     40     48
    64   2     42     40     49
    65   2     42     40     50
    66   2     48     40     49
    67   2     48     40     50
    68   3     49     40     50
    69   8    244     41     39
    70   9     38     42     40
    71  10     39     46     73
    72  11     99     47    100
    73   8     40     48     39
    74  11     77     51     78
    75  11    101     52    102
    76   2     59     55     61
    77   2     59     55     60
    78   1     59     55    263
    79   3     61     55     60
    80   2    263     55     61
    81   2    263     55     60
    82   6     58     56     29
    83   7     29     56     63
    84   6     65     56     29
    85   4     58     56     63
    86   5     58     56     65
    87   4     65     56     63
    88   1     59     57     65
    89   2     59     57     66
    90   2     59     57     67
    91   2     65     57     66
    92   2     65     57     67
    93   3     66     57     67
    94   8    260     58     56
    95   9     55     59     57
    96  10     56     63     75
    97  11     85     64     86
    98   8     57     65     56
    99  11     93     68     94
   100  11     91     69     92
   101  11     89     70     90
   102  11     95     72     96
   103   1    110    107    111
   104   2    110    107    112
   105   2    110    107    113
   106   2    111    107    112
   107   2    111    107    113
   108   3    112    107    113
   109   4    110    108    115
   110   5    110    108    117
   111   6    110    108    149
   112   4    117    108    115
   113   7    149    108    115
   114   6    117    108    149
   115   2    117    109    118
   116   2    117    109    119
   117   1    117    109    315
   118   3    118    109    119
   119   2    315    109    118
   120   2    315    109    119
   121   8    107    110    108
   122   9    107    111    313
   123  10    108    115    180
   124  11    183    116    184
   125   8    109    117    108
   126  11    207    120    208
   127  11    185    121    186
   128  11    187    123    188
   129   1    129    126    130
   130   2    129    126    131
   131   2    129    126    132
   132   2    130    126    131
   133   2    130    126    132
   134   3    131    126    132
   135   4    129    127    134
   136   5    129    127    136
   137   6    129    127    166
   138   4    136    127    134
   139   7    166    127    134
   140   6    136    127    166
   141   2    136    128    137
   142   2    136    128    138
   143   1    136    128    333
   144   3    137    128    138
   145   2    333    128    137
   146   2    333    128    138
   147   8    126    129    127
   148   9    126    130    331
   149  10    127    134    178
   150  11    201    135    202
   151   8    128    136    127
   152  11    191    139    192
   153   2    146    142    148
   154   2    146    142    147
   155   1    146    142    347
   156   3    148    142    147
   157   2    347    142    148
   158   2    347    142    147
   159   6    145    143    114
   160   7    114    143    150
   161   6    152    143    114
   162   4    145    143    150
   163   5    145    143    152
   164   4    152    143    150
   165   1    146    144    152
   166   2    146    144    153
   167   2    146    144    154
   168   2    152    144    153
   169   2    152    144    154
   170   3    153    144    154
   171   8    344    145    143
   172   9    142    146    144
   173  10    143    150    177
   174  11    203    151    204
   175   8    144    152    143
   176  11    181    155    182
   177  11    205    156    206
   178   2    163    159    165
   179   2    163    159    164
   180   1    163    159    363
   181   3    165    159    164
   182   2    363    159    165
   183   2    363    159    164
   184   6    162    160    133
   185   7    133    160    167
   186   6    169    160    133
   187   4    162    160    167
   188   5    162    160    169
   189   4    169    160    167
   190   1    163    161    169
   191   2    163    161    170
   192   2    163    161    171
   193   2    169    161    170
   194   2    169    161    171
   195   3    170    161    171
   196   8    360    162    160
   197   9    159    163    161
   198  10    160    167    179
   199  11    189    168    190
   200   8    161    169    160
   201  11    197    172    198
   202  11    195    173    196
   203  11    193    174    194
   204  11    199    176    200
   205   1    214    211    215
   206   2    214    211    216
   207   2    214    211    217
   208   2    215    211    216
   209   2    215    211    217
   210   3    216    211    217
   211   4    214    212    219
   212   5    214    212    221
   213   6    214    212    250
   214   4    221    212    219
   215   7    250    212    219
   216   6    221    212    250
   217   2    221    213    222
   218   2    221    213    409
   219   1    221    213      7
   220   3    222    213    409
   221   2      7    213    222
   222   2      7    213    409
   223   8    211    214    212
   224   9    211    215      5
   225  10    212    219    280
   226  11    283    220    284
   227   8    213    221    212
   228  11    307    223    308
   229  11    285    224    286
   230  11    287    226    288
   231   1    232    229    233
   232   2    232    229    234
   233   2    232    229    235
   234   2    233    229    234
   235   2    233    229    235
   236   3    234    229    235
   237   4    232    230    237
   238   5    232    230    239
   239   6    232    230    266
   240   4    239    230    237
   241   7    266    230    237
   242   6    239    230    266
   243   2    239    231    240
   244   2    239    231    410
   245   1    239    231     26
   246   3    240    231    410
   247   2     26    231    240
   248   2     26    231    410
   249   8    229    232    230
   250   9    229    233     24
   251  10    230    237    278
   252  11    301    238    302
   253   8    231    239    230
   254  11    291    241    292
   255   2    248    244    249
   256   2    248    244    411
   257   1    248    244     41
   258   3    249    244    411
   259   2     41    244    249
   260   2     41    244    411
   261   6    247    245    218
   262   7    218    245    251
   263   6    253    245    218
   264   4    247    245    251
   265   5    247    245    253
   266   4    253    245    251
   267   1    248    246    253
   268   2    248    246    254
   269   2    248    246    255
   270   2    253    246    254
   271   2    253    246    255
   272   3    254    246    255
   273   8     38    247    245
   274   9    244    248    246
   275  10    245    251    277
   276  11    303    252    304
   277   8    246    253    245
   278  11    281    256    282
   279  11    305    257    306
   280   2    264    260    265
   281   2    264    260    412
   282   1    264    260     58
   283   3    265    260    412
   284   2     58    260    265
   285   2     58    260    412
   286   6    263    261    236
   287   7    236    261    267
   288   6    269    261    236
   289   4    263    261    267
   290   5    263    261    269
   291   4    269    261    267
   292   1    264    262    269
   293   2    264    262    270
   294   2    264    262    271
   295   2    269    262    270
   296   2    269    262    271
   297   3    270    262    271
   298   8     55    263    261
   299   9    260    264    262
   300  10    261    267    279
   301  11    289    268    290
   302   8    262    269    261
   303  11    297    272    298
   304  11    295    273    296
   305  11    293    274    294
   306  11    299    276    300
   307   1    314    311    315
   308   2    314    311    316
   309   2    314    311    317
   310   2    315    311    316
   311   2    315    311    317
   312   3    316    311    317
   313   4    314    312    319
   314   5    314    312    321
   315   6    314    312    350
   316   4    321    312    319
   317   7    350    312    319
   318   6    321    312    350
   319   2    321    313    322
   320   2    321    313    413
   321   1    321    313    111
   322   3    322    313    413
   323   2    111    313    322
   324   2    111    313    413
   325   8    311    314    312
   326   9    311    315    109
   327  10    312    319    380
   328  11    383    320    384
   329   8    313    321    312
   330  11    407    323    408
   331  11    385    324    386
   332  11    387    326    388
   333   1    332    329    333
   334   2    332    329    334
   335   2    332    329    335
   336   2    333    329    334
   337   2    333    329    335
   338   3    334    329    335
   339   4    332    330    337
   340   5    332    330    339
   341   6    332    330    366
   342   4    339    330    337
   343   7    366    330    337
   344   6    339    330    366
   345   2    339    331    340
   346   2    339    331    414
   347   1    339    331    130
   348   3    340    331    414
   349   2    130    331    340
   350   2    130    331    414
   351   8    329    332    330
   352   9    329    333    128
   353  10    330    337    378
   354  11    401    338    402
   355   8    331    339    330
   356  11    391    341    392
   357   2    348    344    349
   358   2    348    344    415
   359   1    348    344    145
   360   3    349    344    415
   361   2    145    344    349
   362   2    145    344    415
   363   6    347    345    318
   364   7    318    345    351
   365   6    353    345    318
   366   4    347    345    351
   367   5    347    345    353
   368   4    353    345    351
   369   1    348    346    353
   370   2    348    346    354
   371   2    348    346    355
   372   2    353    346    354
   373   2    353    346    355
   374   3    354    346    355
   375   8    142    347    345
   376   9    344    348    346
   377  10    345    351    377
   378  11    403    352    404
   379   8    346    353    345
   380  11    381    356    382
   381  11    405    357    406
   382   2    364    360    365
   383   2    364    360    416
   384   1    364    360    162
   385   3    365    360    416
   386   2    162    360    365
   387   2    162    360    416
   388   6    363    361    336
   389   7    336    361    367
   390   6    369    361    336
   391   4    363    361    367
   392   5    363    361    369
   393   4    369    361    367
   394   1    364    362    369
   395   2    364    362    370
   396   2    364    362    371
   397   2    369    362    370
   398   2    369    362    371
   399   3    370    362    371
   400   8    159    363    361
   401   9    360    364    362
   402  10    361    367    379
   403  11    389    368    390
   404   8    362    369    361
   405  11    397    372    398
   406  11    395    373    396
   407  11    393    374    394
   408  11    399    376    400

Dihedrals

     1   1      7      3      6      4
     2   2      8      3      6      4
     3   2      9      3      6      4
     4   3      6      3      7    213
     5   4      8      3      7    213
     6   4      9      3      7    213
     7   5     11      4      6      3
     8   6     13      4      6      3
     9   7     45      4      6      3
    10   8      6      4     11     76
    11   8     13      4     11     76
    12   9     45      4     11     76
    13   6      6      4     13      5
    14   5     11      4     13      5
    15   7     45      4     13      5
    16   2     14      5     13      4
    17   2     15      5     13      4
    18   1    215      5     13      4
    19   3     13      5    215    211
    20   4     14      5    215    211
    21   4     15      5    215    211
    22   3    221    213      7      3
    23   4    222    213      7      3
    24   4    409    213      7      3
    25   1     26     22     25     23
    26   2     27     22     25     23
    27   2     28     22     25     23
    28   3     25     22     26    231
    29   4     27     22     26    231
    30   4     28     22     26    231
    31   5     30     23     25     22
    32   6     32     23     25     22
    33   7     62     23     25     22
    34   8     25     23     30     74
    35   8     32     23     30     74
    36   9     62     23     30     74
    37   6     25     23     32     24
    38   5     30     23     32     24
    39   7     62     23     32     24
    40   2     33     24     32     23
    41   2     34     24     32     23
    42   1    233     24     32     23
    43   3     32     24    233    229
    44   4     33     24    233    229
    45   4     34     24    233    229
    46   3    239    231     26     22
    47   4    240    231     26     22
    48   4    410    231     26     22
    49   4     44     38     42     40
    50   4     43     38     42     40
    51   3    247     38     42     40
    52   1     42     38    247    245
    53   2     44     38    247    245
    54   2     43     38    247    245
    55   7     10     39     41    244
    56   5     46     39     41    244
    57   6     48     39     41    244
    58   9     10     39     46     73
    59   8     41     39     46     73
    60   8     48     39     46     73
    61   7     10     39     48     40
    62   6     41     39     48     40
    63   5     46     39     48     40
    64   3     48     40     42     38
    65   4     49     40     42     38
    66   4     50     40     42     38
    67   1     42     40     48     39
    68   2     49     40     48     39
    69   2     50     40     48     39
    70   1    248    244     41     39
    71   2    249    244     41     39
    72   2    411    244     41     39
    73   4     61     55     59     57
    74   4     60     55     59     57
    75   3    263     55     59     57
    76   1     59     55    263    261
    77   2     61     55    263    261
    78   2     60     55    263    261
    79   7     29     56     58    260
    80   5     63     56     58    260
    81   6     65     56     58    260
    82   9     29     56     63     75
    83   8     58     56     63     75
    84   8     65     56     63     75
    85   7     29     56     65     57
    86   6     58     56     65     57
    87   5     63     56     65     57
    88   3     65     57     59     55
    89   4     66     57     59     55
    90   4     67     57     59     55
    91   1     59     57     65     56
    92   2     66     57     65     56
    93   2     67     57     65     56
    94   1    264    260     58     56
    95   2    265    260     58     56
    96   2    412    260     58     56
    97   1    111    107    110    108
    98   2    112    107    110    108
    99   2    113    107    110    108
   100   3    110    107    111    313
   101   4    112    107    111    313
   102   4    113    107    111    313
   103   5    115    108    110    107
   104   6    117    108    110    107
   105   7    149    108    110    107
   106   8    110    108    115    180
   107   8    117    108    115    180
   108   9    149    108    115    180
   109   6    110    108    117    109
   110   5    115    108    117    109
   111   7    149    108    117    109
   112   2    118    109    117    108
   113   2    119    109    117    108
   114   1    315    109    117    108
   115   3    117    109    315    311
   116   4    118    109    315    311
   117   4    119    109    315    311
   118   3    321    313    111    107
   119   4    322    313    111    107
   120   4    413    313    111    107
   121   1    130    126    129    127
   122   2    131    126    129    127
   123   2    132    126    129    127
   124   3    129    126    130    331
   125   4    131    126    130    331
   126   4    132    126    130    331
   127   5    134    127    129    126
   128   6    136    127    129    126
   129   7    166    127    129    126
   130   8    129    127    134    178
   131   8    136    127    134    178
   132   9    166    127    134    178
   133   6    129    127    136    128
   134   5    134    127    136    128
   135   7    166    127    136    128
   136   2    137    128    136    127
   137   2    138    128    136    127
   138   1    333    128    136    127
   139   3    136    128    333    329
   140   4    137    128    333    329
   141   4    138    128    333    329
   142   3    339    331    130    126
   143   4    340    331    130    126
   144   4    414    331    130    126
   145   4    148    142    146    144
   146   4    147    142    146    144
   147   3    347    142    146    144
   148   1    146    142    347    345
   149   2    148    142    347    345
   150   2    147    142    347    345
   151   7    114    143    145    344
   152   5    150    143    145    344
   153   6    152    143    145    344
   154   9    114    143    150    177
   155   8    145    143    150    177
   156   8    152    143    150    177
   157   7    114    143    152    144
   158   6    145    143    152    144
   159   5    150    143    152    144
   160   3    152    144    146    142
   161   4    153    144    146    142
   162   4    154    144    146    142
   163   1    146    144    152    143
   164   2    153    144    152    143
   165   2    154    144    152    143
   166   1    348    344    145    143
   167   2    349    344    145    143
   168   2    415    344    145    143
   169   4    165    159    163    161
   170   4    164    159    163    161
   171   3    363    159    163    161
   172   1    163    159    363    361
   173   2    165    159    363    361
   174   2    164    159    363    361
   175   7    133    160    162    360
   176   5    167    160    162    360
   177   6    169    160    162    360
   178   9    133    160    167    179
   179   8    162    160    167    179
   180   8    169    160    167    179
   181   7    133    160    169    161
   182   6    162    160    169    161
   183   5    167    160    169    161
   184   3    169    161    163    159
   185   4    170    161    163    159
   186   4    171    161    163    159
   187   1    163    161    169    160
   188   2    170    161    169    160
   189   2    171    161    169    160
   190   1    364    360    162    160
   191   2    365    360    162    160
   192   2    416    360    162    160
   193   1    215    211    214    212
   194   2    216    211    214    212
   195   2    217    211    214    212
   196   3    214    211    215      5
   197   4    216    211    215      5
   198   4    217    211    215      5
   199   5    219    212    214    211
   200   6    221    212    214    211
   201   7    250    212    214    211
   202   8    214    212    219    280
   203   8    221    212    219    280
   204   9    250    212    219    280
   205   6    214    212    221    213
   206   5    219    212    221    213
   207   7    250    212    221    213
   208   2    222    213    221    212
   209   2    409    213    221    212
   210   1      7    213    221    212
   211   1    233    229    232    230
   212   2    234    229    232    230
   213   2    235    229    232    230
   214   3    232    229    233     24
   215   4    234    229    233     24
   216   4    235    229    233     24
   217   5    237    230    232    229
   218   6    239    230    232    229
   219   7    266    230    232    229
   220   8    232    230    237    278
   221   8    239    230    237    278
   222   9    266    230    237    278
   223   6    232    230    239    231
   224   5    237    230    239    231
   225   7    266    230    239    231
   226   2    240    231    239    230
   227   2    410    231    239    230
   228   1     26    231    239    230
   229   4    249    244    248    246
   230   4    411    244    248    246
   231   3     41    244    248    246
   232   7    218    245    247     38
   233   5    251    245    247     38
   234   6    253    245    247     38
   235   9    218    245    251    277
   236   8    247    245    251    277
   237   8    253    245    251    277
   238   7    218    245    253    246
   239   6    247    245    253    246
   240   5    251    245    253    246
   241   3    253    246    248    244
   242   4    254    246    248    244
   243   4    255    246    248    244
   244   1    248    246    253    245
   245   2    254    246    253    245
   246   2    255    246    253    245
   247   4    265    260    264    262
   248   4    412    260    264    262
   249   3     58    260    264    262
   250   7    236    261    263     55
   251   5    267    261    263     55
   252   6    269    261    263     55
   253   9    236    261    267    279
   254   8    263    261    267    279
   255   8    269    261    267    279
   256   7    236    261    269    262
   257   6    263    261    269    262
   258   5    267    261    269    262
   259   3    269    262    264    260
   260   4    270    262    264    260
   261   4    271    262    264    260
   262   1    264    262    269    261
   263   2    270    262    269    261
   264   2    271    262    269    261
   265   1    315    311    314    312
   266   2    316    311    314    312
   267   2    317    311    314    312
   268   3    314    311    315    109
   269   4    316    311    315    109
   270   4    317    311    315    109
   271   5    319    312    314    311
   272   6    321    312    314    311
   273   7    350    312    314    311
   274   8    314    312    319    380
   275   8    321    312    319    380
   276   9    350    312    319    380
   277   6    314    312    321    313
   278   5    319    312    321    313
   279   7    350    312    321    313
   280   2    322    313    321    312
   281   2    413    313    321    312
   282   1    111    313    321    312
   283   1    333    329    332    330
   284   2    334    329    332    330
   285   2    335    329    332    330
   286   3    332    329    333    128
   287   4    334    329    333    128
   288   4    335    329    333    128
   289   5    337    330    332    329
   290   6    339    330    332    329
   291   7    366    330    332    329
   292   8    332    330    337    378
   293   8    339    330    337    378
   294   9    366    330    337    378
   295   6    332    330    339    331
   296   5    337    330    339    331
   297   7    366    330    339    331
   298   2    340    331    339    330
   299   2    414    331    339    330
   300   1    130    331    339    330
   301   4    349    344    348    346
   302   4    415    344    348    346
   303   3    145    344    348    346
   304   7    318    345    347    142
   305   5    351    345    347    142
   306   6    353    345    347    142
   307   9    318    345    351    377
   308   8    347    345    351    377
   309   8    353    345    351    377
   310   7    318    345    353    346
   311   6    347    345    353    346
   312   5    351    345    353    346
   313   3    353    346    348    344
   314   4    354    346    348    344
   315   4    355    346    348    344
   316   1    348    346    353    345
   317   2    354    346    353    345
   318   2    355    346    353    345
   319   4    365    360    364    362
   320   4    416    360    364    362
   321   3    162    360    364    362
   322   7    336    361    363    159
   323   5    367    361    363    159
   324   6    369    361    363    159
   325   9    336    361    367    379
   326   8    363    361    367    379
   327   8    369    361    367    379
   328   7    336    361    369    362
   329   6    363    361    369    362
   330   5    367    361    369    362
   331   3    369    362    364    360
   332   4    370    362    364    360
   333   4    371    362    364    360
   334   1    364    362    369    361
   335   2    370    362    369    361
   336   2    371    362    369    361

Impropers

     1   1      6      3      7      8 
     2   1      6      3      7      9 
     3   2      6      3      8      9 
     4   2      7      3      8      9 
     5   3      6      4     13     11 
     6   4      6      4     45     11 
     7   5      6      4     13     45 
     8   4     13      4     45     11 
     9   2     13      5     14     15 
    10   1     13      5    215     14 
    11   1     13      5    215     15 
    12   2    215      5     15     14 
    13   1     25     22     26     27 
    14   1     25     22     26     28 
    15   2     25     22     27     28 
    16   2     26     22     27     28 
    17   3     25     23     32     30 
    18   4     25     23     62     30 
    19   5     25     23     32     62 
    20   4     32     23     62     30 
    21   2     32     24     33     34 
    22   1     32     24    233     33 
    23   1     32     24    233     34 
    24   2    233     24     34     33 
    25   2     42     38     44     43 
    26   1     42     38    247     44 
    27   1     42     38    247     43 
    28   2    247     38     43     44 
    29   4     41     39     10     46 
    30   5     41     39     48     10 
    31   4     48     39     10     46 
    32   3     41     39     48     46 
    33   1     42     40     48     49 
    34   1     42     40     48     50 
    35   2     42     40     49     50 
    36   2     48     40     49     50 
    37   2     59     55     61     60 
    38   1     59     55    263     61 
    39   1     59     55    263     60 
    40   2    263     55     60     61 
    41   4     58     56     29     63 
    42   5     58     56     65     29 
    43   4     65     56     29     63 
    44   3     58     56     65     63 
    45   1     59     57     65     66 
    46   1     59     57     65     67 
    47   2     59     57     66     67 
    48   2     65     57     66     67 
    49   1    110    107    111    112 
    50   1    110    107    111    113 
    51   2    110    107    112    113 
    52   2    111    107    112    113 
    53   3    110    108    117    115 
    54   4    110    108    149    115 
    55   5    110    108    117    149 
    56   4    117    108    149    115 
    57   2    117    109    118    119 
    58   1    117    109    315    118 
    59   1    117    109    315    119 
    60   2    315    109    119    118 
    61   1    129    126    130    131 
    62   1    129    126    130    132 
    63   2    129    126    131    132 
    64   2    130    126    131    132 
    65   3    129    127    136    134 
    66   4    129    127    166    134 
    67   5    129    127    136    166 
    68   4    136    127    166    134 
    69   2    136    128    137    138 
    70   1    136    128    333    137 
    71   1    136    128    333    138 
    72   2    333    128    138    137 
    73   2    146    142    148    147 
    74   1    146    142    347    148 
    75   1    146    142    347    147 
    76   2    347    142    147    148 
    77   4    145    143    114    150 
    78   5    145    143    152    114 
    79   4    152    143    114    150 
    80   3    145    143    152    150 
    81   1    146    144    152    153 
    82   1    146    144    152    154 
    83   2    146    144    153    154 
    84   2    152    144    153    154 
    85   2    163    159    165    164 
    86   1    163    159    363    165 
    87   1    163    159    363    164 
    88   2    363    159    164    165 
    89   4    162    160    133    167 
    90   5    162    160    169    133 
    91   4    169    160    133    167 
    92   3    162    160    169    167 
    93   1    163    161    169    170 
    94   1    163    161    169    171 
    95   2    163    161    170    171 
    96   2    169    161    170    171 
    97   1    214    211    215    216 
    98   1    214    211    215    217 
    99   2    214    211    216    217 
   100   2    215    211    216    217 
   101   3    214    212    221    219 
   102   4    214    212    250    219 
   103   5    214    212    221    250 
   104   4    221    212    250    219 
   105   2    221    213    222    409 
   106   1    221    213      7    222 
   107   1    221    213      7    409 
   108   2      7    213    409    222 
   109   1    232    229    233    234 
   110   1    232    229    233    235 
   111   2    232    229    234    235 
   112   2    233    229    234    235 
   113   3    232    230    239    237 
   114   4    232    230    266    237 
   115   5    232    230    239    266 
   116   4    239    230    266    237 
   117   2    239    231    240    410 
   118   1    239    231     26    240 
   119   1    239    231     26    410 
   120   2     26    231    410    240 
   121   2    248    244    249    411 
   122   1    248    244     41    249 
   123   1    248    244     41    411 
   124   2     41    244    411    249 
   125   4    247    245    218    251 
   126   5    247    245    253    218 
   127   4    253    245    218    251 
   128   3    247    245    253    251 
   129   1    248    246    253    254 
   130   1    248    246    253    255 
   131   2    248    246    254    255 
   132   2    253    246    254    255 
   133   2    264    260    265    412 
   134   1    264    260     58    265 
   135   1    264    260     58    412 
   136   2     58    260    412    265 
   137   4    263    261    236    267 
   138   5    263    261    269    236 
   139   4    269    261    236    267 
   140   3    263    261    269    267 
   141   1    264    262    269    270 
   142   1    264    262    269    271 
   143   2    264    262    270    271 
   144   2    269    262    270    271 
   145   1    314    311    315    316 
   146   1    314    311    315    317 
   147   2    314    311    316    317 
   148   2    315    311    316    317 
   149   3    314    312    321    319 
   150   4    314    312    350    319 
   151   5    314    312    321    350 
   152   4    321    312    350    319 
   153   2    321    313    322    413 
   154   1    321    313    111    322 
   155   1    321    313    111    413 
   156   2    111    313    413    322 
   157   1    332    329    333    334 
   158   1    332    329    333    335 
   159   2    332    329    334    335 
   160   2    333    329    334    335 
   161   3    332    330    339    337 
   162   4    332    330    366    337 
   163   5    332    330    339    366 
   164   4    339    330    366    337 
   165   2    339    331    340    414 
   166   1    339    331    130    340 
   167   1    339    331    130    414 
   168   2    130    331    414    340 
   169   2    348    344    349    415 
   170   1    348    344    145    349 
   171   1    348    344    145    415 
   172   2    145    344    415    349 
   173   4    347    345    318    351 
   174   5    347    345    353    318 
   175   4    353    345    318    351 
   176   3    347    345    353    351 
   177   1    348    346    353    354 
   178   1    348    346    353    355 
   179   2    348    346    354    355 
   180   2    353    346    354    355 
   181   2    364    360    365    416 
   182   1    364    360    162    365 
   183   1    364    360    162    416 
   184   2    162    360    416    365 
   185   4    363    361    336    367 
   186   5    363    361    369    336 
   187   4    369    361    336    367 
   188   3    363    361    369    367 
   189   1    364    362    369    370 
   190   1    364    362    369    371 
   191   2    364    362    370    371 
   192   2    369    362    370    371 

