!BIOSYM archive 3
PBC=ON
Materials Studio Generated CAR File
!DATE Mon Mar 16 16:37:36 2020
PBC   13.3800   14.7800   22.7700   90.0000   90.0000  123.4900 (P1)
O1       1.782207279    2.200236703    9.353911892 XXXX 1      oc13    O  -0.930
Ca1      3.998065321    1.540782005    0.000000000 XXXX 1      ca+t    Ca  1.500
O2      -4.405224891    4.838055495    2.573008870 XXXX 1      oc14    O  -0.690
O3      -0.458300204    0.844348539    0.430352811 XXXX 1      oc13    O  -0.930
O4      -3.251744492    5.602283369    4.804467890 XXXX 1      oc22    O  -1.000
O5       1.672500000   -0.000000000    7.923956520 XXXX 1      oc12    O  -0.600
O6       1.721041198    2.292683623    0.430352811 XXXX 1      oc13    O  -0.930
Ca2      1.835599288    2.341988647    4.508458020 XXXX 1      casl    Ca  1.700
O7      -2.345138750    1.774980869    6.967616940 XXXX 1      oc14    O  -0.690
Ca4      3.998065321    1.540782005    9.404005870 XXXX 1      ca+t    Ca  1.500
O8      -1.064038954    2.619329408    4.850007870 XXXX 1      oc14    O  -0.690
O9      -1.712023133    5.115396255    2.732398800 XXXX 1      oc12    O  -0.600
O10     -0.397134123    0.751901618    9.353911892 XXXX 1      oc13    O  -0.930
O11      0.979284418    1.047731763    2.732398800 XXXX 1      oc12    O  -0.600
O12     -0.957641471    3.975217572    7.058696900 XXXX 1      oc12    O  -0.600
O13     -0.252584340    5.275637584    0.430352811 XXXX 1      oc13    O  -0.930
Si1      0.502188989    1.768817741    1.275119440 XXXX 1      sc2     Si  1.000
Ca5      1.959195964    4.622346014    0.000000000 XXXX 1      ca+t    Ca  1.500
Si2     -1.138457044    2.570024384    6.421137180 XXXX 1      sc3     Si  1.000
Si3      0.828408086    1.275767500    8.470436280 XXXX 1      sc2     Si  1.000
O14      0.306457531    2.064647886    7.058696900 XXXX 1      oc12    O  -0.600
O15     -0.317828159    5.374247632    9.353911892 XXXX 1      oc13    O  -0.930
O16     -0.366369357    3.081564009    1.753289230 XXXX 1      oc12    O  -0.600
O17     -2.501247300    3.932075676    9.353911892 XXXX 1      oc13    O  -0.930
O18     -2.436003481    3.833465628    0.430352811 XXXX 1      oc13    O  -0.930
O19      1.959195964    4.622346014    6.899306970 XXXX 1      o*      O  -0.820
Si4     -1.210461271    4.357331509    1.275119440 XXXX 1      sc2     Si  1.000
Si5     -3.251744492    5.602283369    3.210568590 XXXX 1      sc3     Si  1.000
Si6     -1.536680369    4.850381751    8.493206270 XXXX 1      sc2     Si  1.000
O20      3.998065321    1.540782005    2.504698900 XXXX 1      o*      O  -0.820
Ca6      1.959195964    4.622346014    9.404005870 XXXX 1      ca+t    Ca  1.500
H1       3.281166523    1.953766247    3.244699001 XXXX 1      h*      H   0.410
H2       4.923785505    2.153270504    2.504698900 XXXX 1      h*      H   0.410
H3      -2.801922814    2.330454837    7.813132766 XXXX 1      hoy     H   0.420
H4      -0.209274809    3.255958844    4.539876868 XXXX 1      hoy     H   0.420
H5      -5.344258348    5.060052810    3.121673960 XXXX 1      hoy     H   0.420
H6       1.242297165    5.035330257    7.639307071 XXXX 1      h*      H   0.410
H7       2.884916148    5.234834514    6.899306970 XXXX 1      h*      H   0.410
O1       0.830054006    3.962891316   20.738911892 XXXX 2      oc13    O  -0.930
Ca1     -1.385804036    4.622346014   11.385000000 XXXX 2      ca+t    Ca  1.500
O2       7.017486176    1.325072524   13.958008870 XXXX 2      oc14    O  -0.690
O3       3.070561489    5.318779480   11.815352811 XXXX 2      oc13    O  -0.930
O4       5.864005777    0.560844650   16.189467890 XXXX 2      oc22    O  -1.000
O5       0.939761285    6.163128019   19.308956520 XXXX 2      oc12    O  -0.600
O6       0.891220087    3.870444396   11.815352811 XXXX 2      oc13    O  -0.930
O7       4.957400035    4.388147150   18.352616940 XXXX 2      oc14    O  -0.690
Ca4     -1.385804036    4.622346014   20.789005870 XXXX 2      ca+t    Ca  1.500
O8       3.676300239    3.543798611   16.235007870 XXXX 2      oc14    O  -0.690
O9       4.324284418    1.047731764   14.117398800 XXXX 2      oc12    O  -0.600
O10      3.009395408    5.411226401   20.738911892 XXXX 2      oc13    O  -0.930
O11      1.632976867    5.115396256   14.117398800 XXXX 2      oc12    O  -0.600
O12      3.569902756    2.187910447   18.443696900 XXXX 2      oc12    O  -0.600
O13      2.864845625    0.887490435   11.815352811 XXXX 2      oc13    O  -0.930
Si1      2.110072296    4.394310278   12.660119440 XXXX 2      sc2     Si  1.000
Ca5      0.653065321    1.540782005   11.385000000 XXXX 2      ca+t    Ca  1.500
Si2      3.750718329    3.593103635   17.806137180 XXXX 2      sc3     Si  1.000
Si3      1.783853199    4.887360519   19.855436280 XXXX 2      sc2     Si  1.000
O14      2.305803754    4.098480133   18.443696900 XXXX 2      oc12    O  -0.600
O15      2.930089444    0.788880387   20.738911892 XXXX 2      oc13    O  -0.930
O16      2.978630642    3.081564010   13.138289230 XXXX 2      oc12    O  -0.600
O17      5.113508585    2.231052343   20.738911892 XXXX 2      oc13    O  -0.930
O18      5.048264766    2.329662391   11.815352811 XXXX 2      oc13    O  -0.930
O19      0.653065321    1.540782005   18.284306970 XXXX 2      o*      O  -0.820
Si4      3.822722556    1.805796510   12.660119440 XXXX 2      sc2     Si  1.000
Si5      5.864005777    0.560844650   14.595568590 XXXX 2      sc3     Si  1.000
Si6      4.148941654    1.312746268   19.878206270 XXXX 2      sc2     Si  1.000
O20     -1.385804036    4.622346014   13.889698900 XXXX 2      o*      O  -0.820
Ca6      0.653065321    1.540782005   20.789005870 XXXX 2      ca+t    Ca  1.500
H1      -0.668905238    4.209361772   14.629699001 XXXX 2      h*      H   0.410
H2      -2.311524220    4.009857515   13.889698900 XXXX 2      h*      H   0.410
H3       5.414184099    3.832673182   19.198132766 XXXX 2      hoy     H   0.420
H4       2.821536094    2.907169175   15.924876868 XXXX 2      hoy     H   0.420
H5       7.956519633    1.103075209   14.506673960 XXXX 2      hoy     H   0.420
H6       1.369964120    1.127797762   19.024307071 XXXX 2      h*      H   0.410
H7      -0.272654863    0.928293505   18.284306970 XXXX 2      h*      H   0.410
O1       8.472207279    2.200236703    9.353911892 XXXX 3      oc13    O  -0.930
Ca1     10.688065321    1.540782005    0.000000000 XXXX 3      ca+t    Ca  1.500
O2       2.284775109    4.838055495    2.573008870 XXXX 3      oc14    O  -0.690
O3       6.231699796    0.844348539    0.430352811 XXXX 3      oc13    O  -0.930
O4       3.438255508    5.602283369    4.804467890 XXXX 3      oc22    O  -1.000
O5       8.362500000   -0.000000000    7.923956520 XXXX 3      oc12    O  -0.600
O6       8.411041198    2.292683623    0.430352811 XXXX 3      oc13    O  -0.930
O7       4.344861250    1.774980869    6.967616940 XXXX 3      oc14    O  -0.690
Ca4     10.688065321    1.540782005    9.404005870 XXXX 3      ca+t    Ca  1.500
O8       5.625961046    2.619329408    4.850007870 XXXX 3      oc14    O  -0.690
O9       4.977976867    5.115396255    2.732398800 XXXX 3      oc12    O  -0.600
O10      6.292865877    0.751901618    9.353911892 XXXX 3      oc13    O  -0.930
O11      7.669284418    1.047731763    2.732398800 XXXX 3      oc12    O  -0.600
O12      5.732358529    3.975217572    7.058696900 XXXX 3      oc12    O  -0.600
O13      6.437415660    5.275637584    0.430352811 XXXX 3      oc13    O  -0.930
Si1      7.192188989    1.768817741    1.275119440 XXXX 3      sc2     Si  1.000
Ca5      8.649195964    4.622346014    0.000000000 XXXX 3      ca+t    Ca  1.500
Si2      5.551542956    2.570024384    6.421137180 XXXX 3      sc3     Si  1.000
Si3      7.518408086    1.275767500    8.470436280 XXXX 3      sc2     Si  1.000
O14      6.996457531    2.064647886    7.058696900 XXXX 3      oc12    O  -0.600
O15      6.372171841    5.374247632    9.353911892 XXXX 3      oc13    O  -0.930
O16      6.323630643    3.081564009    1.753289230 XXXX 3      oc12    O  -0.600
O17      4.188752700    3.932075676    9.353911892 XXXX 3      oc13    O  -0.930
O18      4.253996519    3.833465628    0.430352811 XXXX 3      oc13    O  -0.930
O19      8.649195964    4.622346014    6.899306970 XXXX 3      o*      O  -0.820
Si4      5.479538729    4.357331509    1.275119440 XXXX 3      sc2     Si  1.000
Si5      3.438255508    5.602283369    3.210568590 XXXX 3      sc3     Si  1.000
Si6      5.153319631    4.850381751    8.493206270 XXXX 3      sc2     Si  1.000
O20     10.688065321    1.540782005    2.504698900 XXXX 3      o*      O  -0.820
Ca6      8.649195964    4.622346014    9.404005870 XXXX 3      ca+t    Ca  1.500
H1       9.971166523    1.953766247    3.244699001 XXXX 3      h*      H   0.410
H2      11.613785505    2.153270504    2.504698900 XXXX 3      h*      H   0.410
H3       3.888077186    2.330454837    7.813132766 XXXX 3      hoy     H   0.420
H4       6.480725191    3.255958844    4.539876868 XXXX 3      hoy     H   0.420
H5       1.345741652    5.060052810    3.121673960 XXXX 3      hoy     H   0.420
H6       7.932297165    5.035330257    7.639307071 XXXX 3      h*      H   0.410
H7       9.574916148    5.234834514    6.899306970 XXXX 3      h*      H   0.410
O1       7.520054006    3.962891316   20.738911892 XXXX 4      oc13    O  -0.930
Ca1      5.304195964    4.622346014   11.385000000 XXXX 4      ca+t    Ca  1.500
O2      13.707486176    1.325072524   13.958008870 XXXX 4      oc14    O  -0.690
O3       9.760561489    5.318779480   11.815352811 XXXX 4      oc13    O  -0.930
O4      12.554005777    0.560844650   16.189467890 XXXX 4      oc22    O  -1.000
O5       7.629761285    6.163128019   19.308956520 XXXX 4      oc12    O  -0.600
O6       7.581220087    3.870444396   11.815352811 XXXX 4      oc13    O  -0.930
Ca2      7.466661997    3.821139372   15.893458020 XXXX 4      casl    Ca  1.700
O7      11.647400035    4.388147150   18.352616940 XXXX 4      oc14    O  -0.690
Ca4      5.304195964    4.622346014   20.789005870 XXXX 4      ca+t    Ca  1.500
O8      10.366300239    3.543798611   16.235007870 XXXX 4      oc14    O  -0.690
O9      11.014284418    1.047731764   14.117398800 XXXX 4      oc12    O  -0.600
O10      9.699395408    5.411226401   20.738911892 XXXX 4      oc13    O  -0.930
O11      8.322976867    5.115396256   14.117398800 XXXX 4      oc12    O  -0.600
O12     10.259902756    2.187910447   18.443696900 XXXX 4      oc12    O  -0.600
O13      9.554845625    0.887490435   11.815352811 XXXX 4      oc13    O  -0.930
Si1      8.800072296    4.394310278   12.660119440 XXXX 4      sc2     Si  1.000
Ca5      7.343065321    1.540782005   11.385000000 XXXX 4      ca+t    Ca  1.500
Si2     10.440718329    3.593103635   17.806137180 XXXX 4      sc3     Si  1.000
Si3      8.473853199    4.887360519   19.855436280 XXXX 4      sc2     Si  1.000
O14      8.995803754    4.098480133   18.443696900 XXXX 4      oc12    O  -0.600
O15      9.620089444    0.788880387   20.738911892 XXXX 4      oc13    O  -0.930
O16      9.668630642    3.081564010   13.138289230 XXXX 4      oc12    O  -0.600
O17     11.803508585    2.231052343   20.738911892 XXXX 4      oc13    O  -0.930
O18     11.738264766    2.329662391   11.815352811 XXXX 4      oc13    O  -0.930
O19      7.343065321    1.540782005   18.284306970 XXXX 4      o*      O  -0.820
Si4     10.512722556    1.805796510   12.660119440 XXXX 4      sc2     Si  1.000
Si5     12.554005777    0.560844650   14.595568590 XXXX 4      sc3     Si  1.000
Si6     10.838941654    1.312746268   19.878206270 XXXX 4      sc2     Si  1.000
O20      5.304195964    4.622346014   13.889698900 XXXX 4      o*      O  -0.820
Ca6      7.343065321    1.540782005   20.789005870 XXXX 4      ca+t    Ca  1.500
H1       6.021094762    4.209361772   14.629699001 XXXX 4      h*      H   0.410
H2       4.378475780    4.009857515   13.889698900 XXXX 4      h*      H   0.410
H3      12.104184099    3.832673182   19.198132766 XXXX 4      hoy     H   0.420
H4       9.511536094    2.907169175   15.924876868 XXXX 4      hoy     H   0.420
H5      14.646519633    1.103075209   14.506673960 XXXX 4      hoy     H   0.420
H6       8.059964120    1.127797762   19.024307071 XXXX 4      h*      H   0.410
H7       6.417345137    0.928293505   18.284306970 XXXX 4      h*      H   0.410
O1      -2.295531436    8.363364722    9.353911892 XXXX 5      oc13    O  -0.930
Ca1     -0.079673394    7.703910024    0.000000000 XXXX 5      ca+t    Ca  1.500
O2      -8.482963606   11.001183514    2.573008870 XXXX 5      oc14    O  -0.690
O3      -4.536038919    7.007476558    0.430352811 XXXX 5      oc13    O  -0.930
O4      -7.329483207   11.765411388    4.804467890 XXXX 5      oc22    O  -1.000
O5      -2.405238715    6.163128019    7.923956520 XXXX 5      oc12    O  -0.600
O6      -2.356697517    8.455811642    0.430352811 XXXX 5      oc13    O  -0.930
Ca2     -2.242139427    8.505116666    4.508458020 XXXX 5      casl    Ca  1.700
O7      -6.422877465    7.938108888    6.967616940 XXXX 5      oc14    O  -0.690
Ca4     -0.079673394    7.703910024    9.404005870 XXXX 5      ca+t    Ca  1.500
O8      -5.141777669    8.782457427    4.850007870 XXXX 5      oc14    O  -0.690
O9      -5.789761848   11.278524274    2.732398800 XXXX 5      oc12    O  -0.600
O10     -4.474872838    6.915029637    9.353911892 XXXX 5      oc13    O  -0.930
O11     -3.098454297    7.210859782    2.732398800 XXXX 5      oc12    O  -0.600
O12     -5.035380186   10.138345591    7.058696900 XXXX 5      oc12    O  -0.600
O13     -4.330323055   11.438765603    0.430352811 XXXX 5      oc13    O  -0.930
Si1     -3.575549726    7.931945760    1.275119440 XXXX 5      sc2     Si  1.000
Ca5     -2.118542751   10.785474033    0.000000000 XXXX 5      ca+t    Ca  1.500
Si2     -5.216195759    8.733152403    6.421137180 XXXX 5      sc3     Si  1.000
Si3     -3.249330629    7.438895519    8.470436280 XXXX 5      sc2     Si  1.000
O14     -3.771281184    8.227775905    7.058696900 XXXX 5      oc12    O  -0.600
O15     -4.395566874   11.537375651    9.353911892 XXXX 5      oc13    O  -0.930
O16     -4.444108072    9.244692028    1.753289230 XXXX 5      oc12    O  -0.600
O17     -6.578986015   10.095203695    9.353911892 XXXX 5      oc13    O  -0.930
O18     -6.513742196    9.996593647    0.430352811 XXXX 5      oc13    O  -0.930
O19     -2.118542751   10.785474033    6.899306970 XXXX 5      o*      O  -0.820
Si4     -5.288199986   10.520459528    1.275119440 XXXX 5      sc2     Si  1.000
Si5     -7.329483207   11.765411388    3.210568590 XXXX 5      sc3     Si  1.000
Si6     -5.614419084   11.013509770    8.493206270 XXXX 5      sc2     Si  1.000
O20     -0.079673394    7.703910024    2.504698900 XXXX 5      o*      O  -0.820
Ca6     -2.118542751   10.785474033    9.404005870 XXXX 5      ca+t    Ca  1.500
H1      -0.796572192    8.116894266    3.244699001 XXXX 5      h*      H   0.410
H2       0.846046790    8.316398523    2.504698900 XXXX 5      h*      H   0.410
H3      -6.879661529    8.493582856    7.813132766 XXXX 5      hoy     H   0.420
H4      -4.287013524    9.419086863    4.539876868 XXXX 5      hoy     H   0.420
H5      -9.421997063   11.223180829    3.121673960 XXXX 5      hoy     H   0.420
H6      -2.835441550   11.198458276    7.639307071 XXXX 5      h*      H   0.410
H7      -1.192822567   11.397962533    6.899306970 XXXX 5      h*      H   0.410
O1      -3.247684709   10.126019334   20.738911892 XXXX 6      oc13    O  -0.930
Ca1     -5.463542751   10.785474032   11.385000000 XXXX 6      ca+t    Ca  1.500
O2       2.939747461    7.488200542   13.958008870 XXXX 6      oc14    O  -0.690
O3      -1.007177226   11.481907498   11.815352811 XXXX 6      oc13    O  -0.930
O4       1.786267062    6.723972668   16.189467890 XXXX 6      oc22    O  -1.000
O6      -3.186518628   10.033572414   11.815352811 XXXX 6      oc13    O  -0.930
O7       0.879661320   10.551275168   18.352616940 XXXX 6      oc14    O  -0.690
Ca4     -5.463542751   10.785474032   20.789005870 XXXX 6      ca+t    Ca  1.500
O8      -0.401438476    9.706926629   16.235007870 XXXX 6      oc14    O  -0.690
O9       0.246545703    7.210859782   14.117398800 XXXX 6      oc12    O  -0.600
O10     -1.068343307   11.574354419   20.738911892 XXXX 6      oc13    O  -0.930
O11     -2.444761848   11.278524274   14.117398800 XXXX 6      oc12    O  -0.600
O12     -0.507835959    8.351038465   18.443696900 XXXX 6      oc12    O  -0.600
O13     -1.212893090    7.050618453   11.815352811 XXXX 6      oc13    O  -0.930
Si1     -1.967666419   10.557438296   12.660119440 XXXX 6      sc2     Si  1.000
Ca5     -3.424673394    7.703910023   11.385000000 XXXX 6      ca+t    Ca  1.500
Si2     -0.327020386    9.756231653   17.806137180 XXXX 6      sc3     Si  1.000
Si3     -2.293885516   11.050488537   19.855436280 XXXX 6      sc2     Si  1.000
O14     -1.771934961   10.261608151   18.443696900 XXXX 6      oc12    O  -0.600
O15     -1.147649271    6.952008405   20.738911892 XXXX 6      oc13    O  -0.930
O16     -1.099108073    9.244692028   13.138289230 XXXX 6      oc12    O  -0.600
O17      1.035769870    8.394180361   20.738911892 XXXX 6      oc13    O  -0.930
O18      0.970526051    8.492790409   11.815352811 XXXX 6      oc13    O  -0.930
O19     -3.424673394    7.703910023   18.284306970 XXXX 6      o*      O  -0.820
Si4     -0.255016159    7.968924528   12.660119440 XXXX 6      sc2     Si  1.000
Si5      1.786267062    6.723972668   14.595568590 XXXX 6      sc3     Si  1.000
Si6      0.071202939    7.475874286   19.878206270 XXXX 6      sc2     Si  1.000
O20     -5.463542751   10.785474032   13.889698900 XXXX 6      o*      O  -0.820
Ca6     -3.424673394    7.703910023   20.789005870 XXXX 6      ca+t    Ca  1.500
H1      -4.746643953   10.372489790   14.629699001 XXXX 6      h*      H   0.410
H2      -6.389262935   10.172985533   13.889698900 XXXX 6      h*      H   0.410
H3       1.336445384    9.995801200   19.198132766 XXXX 6      hoy     H   0.420
H4      -1.256202621    9.070297193   15.924876868 XXXX 6      hoy     H   0.420
H5       3.878780918    7.266203227   14.506673960 XXXX 6      hoy     H   0.420
H6      -2.707774595    7.290925780   19.024307071 XXXX 6      h*      H   0.410
H7      -4.350393578    7.091421523   18.284306970 XXXX 6      h*      H   0.410
O1       4.394468564    8.363364722    9.353911892 XXXX 7      oc13    O  -0.930
Ca1      6.610326606    7.703910024    0.000000000 XXXX 7      ca+t    Ca  1.500
O2      -1.792963606   11.001183514    2.573008870 XXXX 7      oc14    O  -0.690
O3       2.153961081    7.007476558    0.430352811 XXXX 7      oc13    O  -0.930
O4      -0.639483207   11.765411388    4.804467890 XXXX 7      oc22    O  -1.000
O5       4.284761285    6.163128019    7.923956520 XXXX 7      oc12    O  -0.600
O6       4.333302483    8.455811642    0.430352811 XXXX 7      oc13    O  -0.930
O7       0.267122535    7.938108888    6.967616940 XXXX 7      oc14    O  -0.690
Ca4      6.610326606    7.703910024    9.404005870 XXXX 7      ca+t    Ca  1.500
O8       1.548222331    8.782457427    4.850007870 XXXX 7      oc14    O  -0.690
O9       0.900238152   11.278524274    2.732398800 XXXX 7      oc12    O  -0.600
O10      2.215127162    6.915029637    9.353911892 XXXX 7      oc13    O  -0.930
O11      3.591545703    7.210859782    2.732398800 XXXX 7      oc12    O  -0.600
O12      1.654619814   10.138345591    7.058696900 XXXX 7      oc12    O  -0.600
O13      2.359676945   11.438765603    0.430352811 XXXX 7      oc13    O  -0.930
Si1      3.114450274    7.931945760    1.275119440 XXXX 7      sc2     Si  1.000
Ca5      4.571457249   10.785474033    0.000000000 XXXX 7      ca+t    Ca  1.500
Si2      1.473804241    8.733152403    6.421137180 XXXX 7      sc3     Si  1.000
Si3      3.440669371    7.438895519    8.470436280 XXXX 7      sc2     Si  1.000
O14      2.918718816    8.227775905    7.058696900 XXXX 7      oc12    O  -0.600
O15      2.294433126   11.537375651    9.353911892 XXXX 7      oc13    O  -0.930
O16      2.245891928    9.244692028    1.753289230 XXXX 7      oc12    O  -0.600
O17      0.111013985   10.095203695    9.353911892 XXXX 7      oc13    O  -0.930
O18      0.176257804    9.996593647    0.430352811 XXXX 7      oc13    O  -0.930
O19      4.571457249   10.785474033    6.899306970 XXXX 7      o*      O  -0.820
Si4      1.401800014   10.520459528    1.275119440 XXXX 7      sc2     Si  1.000
Si5     -0.639483207   11.765411388    3.210568590 XXXX 7      sc3     Si  1.000
Si6      1.075580916   11.013509770    8.493206270 XXXX 7      sc2     Si  1.000
O20      6.610326606    7.703910024    2.504698900 XXXX 7      o*      O  -0.820
Ca6      4.571457249   10.785474033    9.404005870 XXXX 7      ca+t    Ca  1.500
H1       5.893427808    8.116894266    3.244699001 XXXX 7      h*      H   0.410
H2       7.536046790    8.316398523    2.504698900 XXXX 7      h*      H   0.410
H3      -0.189661529    8.493582856    7.813132766 XXXX 7      hoy     H   0.420
H4       2.402986476    9.419086863    4.539876868 XXXX 7      hoy     H   0.420
H5      -2.731997063   11.223180829    3.121673960 XXXX 7      hoy     H   0.420
H6       3.854558450   11.198458276    7.639307071 XXXX 7      h*      H   0.410
H7       5.497177433   11.397962533    6.899306970 XXXX 7      h*      H   0.410
O1       3.442315291   10.126019334   20.738911892 XXXX 8      oc13    O  -0.930
Ca1      1.226457249   10.785474032   11.385000000 XXXX 8      ca+t    Ca  1.500
O2       9.629747461    7.488200542   13.958008870 XXXX 8      oc14    O  -0.690
O3       5.682822774   11.481907498   11.815352811 XXXX 8      oc13    O  -0.930
O4       8.476267062    6.723972668   16.189467890 XXXX 8      oc22    O  -1.000
O6       3.503481372   10.033572414   11.815352811 XXXX 8      oc13    O  -0.930
Ca2      3.388923282    9.984267390   15.893458020 XXXX 8      casl    Ca  1.700
O7       7.569661320   10.551275168   18.352616940 XXXX 8      oc14    O  -0.690
Ca4      1.226457249   10.785474032   20.789005870 XXXX 8      ca+t    Ca  1.500
O8       6.288561524    9.706926629   16.235007870 XXXX 8      oc14    O  -0.690
O9       6.936545703    7.210859782   14.117398800 XXXX 8      oc12    O  -0.600
O10      5.621656693   11.574354419   20.738911892 XXXX 8      oc13    O  -0.930
O11      4.245238152   11.278524274   14.117398800 XXXX 8      oc12    O  -0.600
O12      6.182164041    8.351038465   18.443696900 XXXX 8      oc12    O  -0.600
O13      5.477106910    7.050618453   11.815352811 XXXX 8      oc13    O  -0.930
Si1      4.722333581   10.557438296   12.660119440 XXXX 8      sc2     Si  1.000
Ca5      3.265326606    7.703910023   11.385000000 XXXX 8      ca+t    Ca  1.500
Si2      6.362979614    9.756231653   17.806137180 XXXX 8      sc3     Si  1.000
Si3      4.396114484   11.050488537   19.855436280 XXXX 8      sc2     Si  1.000
O14      4.918065039   10.261608151   18.443696900 XXXX 8      oc12    O  -0.600
O15      5.542350729    6.952008405   20.738911892 XXXX 8      oc13    O  -0.930
O16      5.590891927    9.244692028   13.138289230 XXXX 8      oc12    O  -0.600
O17      7.725769870    8.394180361   20.738911892 XXXX 8      oc13    O  -0.930
O18      7.660526051    8.492790409   11.815352811 XXXX 8      oc13    O  -0.930
O19      3.265326606    7.703910023   18.284306970 XXXX 8      o*      O  -0.820
Si4      6.434983841    7.968924528   12.660119440 XXXX 8      sc2     Si  1.000
Si5      8.476267062    6.723972668   14.595568590 XXXX 8      sc3     Si  1.000
Si6      6.761202939    7.475874286   19.878206270 XXXX 8      sc2     Si  1.000
O20      1.226457249   10.785474032   13.889698900 XXXX 8      o*      O  -0.820
Ca6      3.265326606    7.703910023   20.789005870 XXXX 8      ca+t    Ca  1.500
H1       1.943356047   10.372489790   14.629699001 XXXX 8      h*      H   0.410
H2       0.300737065   10.172985533   13.889698900 XXXX 8      h*      H   0.410
H3       8.026445384    9.995801200   19.198132766 XXXX 8      hoy     H   0.420
H4       5.433797379    9.070297193   15.924876868 XXXX 8      hoy     H   0.420
H5      10.568780918    7.266203227   14.506673960 XXXX 8      hoy     H   0.420
H6       3.982225405    7.290925780   19.024307071 XXXX 8      h*      H   0.410
H7       2.339606422    7.091421523   18.284306970 XXXX 8      h*      H   0.410
O5       5.017500000    0.000000000   19.308956520 XXXX 9      oc12    O  -0.600
O5      11.707500000    0.000000000   19.308956520 XXXX 10     oc12    O  -0.600
end
end
