!BIOSYM archive 3
PBC=ON
Materials Studio Generated CAR File
!DATE Mon Mar 24 16:14:26 2025
PBC   13.4700   14.8500   27.9870   90.0000   90.0000  123.2500 (P1)
Ca1      3.233487052    2.639005575    7.981892395 XXXX 1      ca+t    Ca  1.500
Ca2     -0.051936153    2.657633794    6.008808858 XXXX 1      ca+t    Ca  1.500
Si1      3.479814159    2.396837983    4.903322411 XXXX 1      sc2     Si  1.000
Si2      2.974516950    4.657068530    2.913446599 XXXX 1      sc3     Si  1.000
Si3      1.091799484    5.967257301    4.900523664 XXXX 1      sc2     Si  1.000
O1       2.980328186    3.179225601    3.492777505 XXXX 1      oc12    O  -0.620
O2       4.349166357    1.173581242    4.315595471 XXXX 1      oc12    O  -0.620
O3       4.291043153    3.440021412    5.793309063 XXXX 1      oc13    O  -0.930
O4       2.263335803    1.869036831    5.779315327 XXXX 1      oc13    O  -0.930
O5       4.956198627    1.552360884   26.638026598 XXXX 1      oc22    O  -1.000
O6       4.345661317    5.513980295    3.288472492 XXXX 1      oc14    O  -0.690
O7       0.154990633    2.763193950    3.627115294 XXXX 1      o*      O  -0.820
O8       1.610738547    5.340105337    3.503972495 XXXX 1      oc12    O  -0.620
O9       0.019667273    5.116565965    5.784912821 XXXX 1      oc13    O  -0.930
O10      2.408347178    6.414335721    5.790510316 XXXX 1      oc13    O  -0.930
O11      3.267591631    4.775047561   26.419727952 XXXX 1      o*      O  -0.820
O12      1.137226577    1.316398022    0.083961001 XXXX 1      o*      O  -0.820
Ca3      1.873414217    6.172168268    0.053175301 XXXX 1      casl    Ca  1.700
O13      3.190262777    2.663843139    0.000000000 XXXX 1      o*      O  -0.820
Ca4     -0.134012948    2.639005575   21.975392395 XXXX 1      ca+t    Ca  1.500
Ca5      3.315563847    2.657633794   20.002308858 XXXX 1      ca+t    Ca  1.500
Si4      0.112314159    2.396837983   18.896822411 XXXX 1      sc2     Si  1.000
Si5     -0.392983050    4.657068530   16.906946599 XXXX 1      sc3     Si  1.000
Si6     -2.275700516    5.967257301   18.894023664 XXXX 1      sc2     Si  1.000
O14     -0.387171814    3.179225601   17.486277505 XXXX 1      oc12    O  -0.620
O15      0.981666357    1.173581242   18.309095471 XXXX 1      oc12    O  -0.620
O16      0.923543153    3.440021412   19.786809063 XXXX 1      oc13    O  -0.930
O17     -1.104164197    1.869036831   19.772815327 XXXX 1      oc13    O  -0.930
O18      1.588698627    1.552360884   12.644526598 XXXX 1      oc22    O  -1.000
O19      0.978161317    5.513980295   17.281972492 XXXX 1      oc14    O  -0.690
O20      3.522490633    2.763193950   17.620615294 XXXX 1      o*      O  -0.820
O21     -1.756761453    5.340105337   17.497472495 XXXX 1      oc12    O  -0.620
O22     -3.347832727    5.116565965   19.778412821 XXXX 1      oc13    O  -0.930
O23     -0.959152822    6.414335721   19.784010316 XXXX 1      oc13    O  -0.930
O24     -0.099908369    4.775047561   12.426227952 XXXX 1      o*      O  -0.820
Ca6      1.197948437    5.743717928   20.005107605 XXXX 1      ca+t    Ca  1.500
Ca7     -2.087474768    5.762346147   21.978191142 XXXX 1      ca+t    Ca  1.500
Si7      1.444275545    5.501550336   23.083677589 XXXX 1      sc2     Si  1.000
Si8      5.010055564    1.552356177   25.073553401 XXXX 1      sc3     Si  1.000
Si9      3.127338099    2.862544947   23.086476336 XXXX 1      sc2     Si  1.000
O25      5.015866801    0.074513247   24.494222495 XXXX 1      oc12    O  -0.620
O26      2.313627743    4.278293596   23.671404529 XXXX 1      oc12    O  -0.620
O27      2.255481767    6.544709059   22.193690937 XXXX 1      oc13    O  -0.930
O28      0.227797188    4.973749185   22.207684673 XXXX 1      oc13    O  -0.930
O29      2.920637242    4.657068530    1.348973402 XXXX 1      oc22    O  -1.000
O30      6.381199931    2.409267941   24.698527508 XXXX 1      oc14    O  -0.690
O31     -1.880547981    5.867906304   24.359884706 XXXX 1      o*      O  -0.820
O32      3.646277162    2.235392983   24.483027505 XXXX 1      oc12    O  -0.620
O33      2.055205887    2.011853611   22.202087179 XXXX 1      oc13    O  -0.930
O34      4.443908563    3.309628075   22.196489684 XXXX 1      oc13    O  -0.930
O35      5.303130246    1.670335208    1.567272048 XXXX 1      o*      O  -0.820
O36     -0.898312038    4.421110376   27.903038999 XXXX 1      o*      O  -0.820
Ca8     -2.169551563    5.743717928    6.011607605 XXXX 1      ca+t    Ca  1.500
Ca9      1.280025232    5.762346147    7.984691142 XXXX 1      ca+t    Ca  1.500
Si10    -1.923224455    5.501550336    9.090177589 XXXX 1      sc2     Si  1.000
Si11     1.642555564    1.552356177   11.080053401 XXXX 1      sc3     Si  1.000
Si12    -0.240161901    2.862544947    9.092976336 XXXX 1      sc2     Si  1.000
O37      1.648366801    0.074513247   10.500722495 XXXX 1      oc12    O  -0.620
O38     -1.053872257    4.278293596    9.677904529 XXXX 1      oc12    O  -0.620
O39     -1.112018233    6.544709059    8.200190937 XXXX 1      oc13    O  -0.930
O40     -3.139702812    4.973749185    8.214184673 XXXX 1      oc13    O  -0.930
O41     -0.446862758    4.657068530   15.342473402 XXXX 1      oc22    O  -1.000
O42      3.013699931    2.409267941   10.705027508 XXXX 1      oc14    O  -0.690
O43      1.486952019    5.867906304   10.366384706 XXXX 1      o*      O  -0.820
O44      0.278777162    2.235392983   10.489527505 XXXX 1      oc12    O  -0.620
O45     -1.312294113    2.011853611    8.208587179 XXXX 1      oc13    O  -0.930
O46      1.076408563    3.309628075    8.202989684 XXXX 1      oc13    O  -0.930
O47      1.935630246    1.670335208   15.560772048 XXXX 1      o*      O  -0.820
O48      5.303913032    1.782100187   14.077461001 XXXX 1      o*      O  -0.820
O49      2.469187962    4.421110376   13.909538999 XXXX 1      o*      O  -0.820
Ca10     0.541452832    3.067455915   13.940324699 XXXX 1      casl    Ca  1.700
O50     -2.212775838    5.768555492   13.993500000 XXXX 1      o*      O  -0.820
H1       6.843423414    2.791026938   25.423346563 XXXX 1      hoy     H   0.420
H2       1.430525643    5.904306616   16.556567616 XXXX 1      hoy     H   0.420
H3       3.708867862    2.395688885   11.336226581 XXXX 1      hoy     H   0.420
H4       4.832797315    5.838106161    2.550392443 XXXX 1      hoy     H   0.420
H5       5.633734561    1.725693551    2.498299190 XXXX 1      h*      H   0.410
H6       4.415089614    2.070426667    1.712690205 XXXX 1      h*      H   0.410
H7       0.008252917    3.636783065    3.197921326 XXXX 1      h*      H   0.410
H8       1.104902920    2.630613652    3.386507348 XXXX 1      h*      H   0.410
H9       1.162266619    2.165800931    0.576324689 XXXX 1      h*      H   0.410
H10      2.065062472    1.387643098   -0.248548595 XXXX 1      h*      H   0.410
H11      4.050916407    2.387323001   -0.412339625 XXXX 1      h*      H   0.410
H12      3.374956980    3.497716686    0.507734712 XXXX 1      h*      H   0.410
H13      1.111816101    5.629565999   11.240697981 XXXX 1      h*      H   0.410
H14      2.396056689    6.146588746   10.628428401 XXXX 1      h*      H   0.410
H15     -0.922999932    5.245847360   12.704850912 XXXX 1      h*      H   0.410
H16     -0.388250759    4.517718454   11.510968959 XXXX 1      h*      H   0.410
H17      2.846418908    4.684891624   13.042448887 XXXX 1      h*      H   0.410
H18      3.194873805    4.828636100   14.441054179 XXXX 1      h*      H   0.410
H19      5.190633325    0.816023550   13.947312897 XXXX 1      h*      H   0.410
H20      4.388458636    2.030670687   14.334808815 XXXX 1      h*      H   0.410
H21      1.826378664    0.698217974   15.649539152 XXXX 1      h*      H   0.410
H22      2.118707184    1.882665435   16.507602957 XXXX 1      h*      H   0.410
H23     -1.385155150    5.579857540   14.515919081 XXXX 1      h*      H   0.410
H24     -2.091466083    6.677009171   13.603581679 XXXX 1      h*      H   0.410
H25      3.430063302    3.657098547   17.219969855 XXXX 1      h*      H   0.410
H26      4.458053774    2.578700569   17.360758008 XXXX 1      h*      H   0.410
H27     -2.028047378    6.722494509   24.823259273 XXXX 1      h*      H   0.410
H28     -0.954140885    5.693698441   24.654904704 XXXX 1      h*      H   0.410
H29     -1.022468524    3.464821043   27.728846518 XXXX 1      h*      H   0.410
H30     -1.789048763    4.762334560   27.666951214 XXXX 1      h*      H   0.410
H31      3.145948272    3.797287460   26.448947827 XXXX 1      h*      H   0.410
H32      3.405903734    4.880643320   25.446882538 XXXX 1      h*      H   0.410
Ca1      9.968487052    2.639005575    7.981892395 XXXX 2      ca+t    Ca  1.500
Ca2      6.683063847    2.657633794    6.008808858 XXXX 2      ca+t    Ca  1.500
Si1     10.214814159    2.396837983    4.903322411 XXXX 2      sc2     Si  1.000
Si2      9.709516950    4.657068530    2.913446599 XXXX 2      sc3     Si  1.000
Si3      7.826799484    5.967257301    4.900523664 XXXX 2      sc2     Si  1.000
O1       9.715328186    3.179225601    3.492777505 XXXX 2      oc12    O  -0.620
O2      11.084166357    1.173581242    4.315595471 XXXX 2      oc12    O  -0.620
O3      11.026043153    3.440021412    5.793309063 XXXX 2      oc13    O  -0.930
O4       8.998335803    1.869036831    5.779315327 XXXX 2      oc13    O  -0.930
O5      11.691198627    1.552360884   26.638026598 XXXX 2      oc22    O  -1.000
O6      11.080661317    5.513980295    3.288472492 XXXX 2      oc14    O  -0.690
O7       6.889990633    2.763193950    3.627115294 XXXX 2      o*      O  -0.820
O8       8.345738547    5.340105337    3.503972495 XXXX 2      oc12    O  -0.620
O9       6.754667273    5.116565965    5.784912821 XXXX 2      oc13    O  -0.930
O10      9.143347178    6.414335721    5.790510316 XXXX 2      oc13    O  -0.930
O11     10.002591631    4.775047561   26.419727952 XXXX 2      o*      O  -0.820
O12      7.872226577    1.316398022    0.083961001 XXXX 2      o*      O  -0.820
Ca3      8.608414217    6.172168268    0.053175301 XXXX 2      casl    Ca  1.700
O13      9.925262777    2.663843139    0.000000000 XXXX 2      o*      O  -0.820
Ca4      6.600987052    2.639005575   21.975392395 XXXX 2      ca+t    Ca  1.500
Ca5     10.050563847    2.657633794   20.002308858 XXXX 2      ca+t    Ca  1.500
Si4      6.847314159    2.396837983   18.896822411 XXXX 2      sc2     Si  1.000
Si5      6.342016950    4.657068530   16.906946599 XXXX 2      sc3     Si  1.000
Si6      4.459299484    5.967257301   18.894023664 XXXX 2      sc2     Si  1.000
O14      6.347828186    3.179225601   17.486277505 XXXX 2      oc12    O  -0.620
O15      7.716666357    1.173581242   18.309095471 XXXX 2      oc12    O  -0.620
O16      7.658543153    3.440021412   19.786809063 XXXX 2      oc13    O  -0.930
O17      5.630835803    1.869036831   19.772815327 XXXX 2      oc13    O  -0.930
O18      8.323698627    1.552360884   12.644526598 XXXX 2      oc22    O  -1.000
O19      7.713161317    5.513980295   17.281972492 XXXX 2      oc14    O  -0.690
O20     10.257490633    2.763193950   17.620615294 XXXX 2      o*      O  -0.820
O21      4.978238547    5.340105337   17.497472495 XXXX 2      oc12    O  -0.620
O22      3.387167273    5.116565965   19.778412821 XXXX 2      oc13    O  -0.930
O23      5.775847178    6.414335721   19.784010316 XXXX 2      oc13    O  -0.930
O24      6.635091631    4.775047561   12.426227952 XXXX 2      o*      O  -0.820
Ca6      7.932948437    5.743717928   20.005107605 XXXX 2      ca+t    Ca  1.500
Ca7      4.647525232    5.762346147   21.978191142 XXXX 2      ca+t    Ca  1.500
Si7      8.179275545    5.501550336   23.083677589 XXXX 2      sc2     Si  1.000
Si8     11.745055564    1.552356177   25.073553401 XXXX 2      sc3     Si  1.000
Si9      9.862338099    2.862544947   23.086476336 XXXX 2      sc2     Si  1.000
O25     11.750866801    0.074513247   24.494222495 XXXX 2      oc12    O  -0.620
O26      9.048627743    4.278293596   23.671404529 XXXX 2      oc12    O  -0.620
O27      8.990481767    6.544709059   22.193690937 XXXX 2      oc13    O  -0.930
O28      6.962797188    4.973749185   22.207684673 XXXX 2      oc13    O  -0.930
O29      9.655637242    4.657068530    1.348973402 XXXX 2      oc22    O  -1.000
O30     13.116199931    2.409267941   24.698527508 XXXX 2      oc14    O  -0.690
O31      4.854452019    5.867906304   24.359884706 XXXX 2      o*      O  -0.820
O32     10.381277162    2.235392983   24.483027505 XXXX 2      oc12    O  -0.620
O33      8.790205887    2.011853611   22.202087179 XXXX 2      oc13    O  -0.930
O34     11.178908563    3.309628075   22.196489684 XXXX 2      oc13    O  -0.930
O35     12.038130246    1.670335208    1.567272048 XXXX 2      o*      O  -0.820
O36      5.836687962    4.421110376   27.903038999 XXXX 2      o*      O  -0.820
Ca8      4.565448437    5.743717928    6.011607605 XXXX 2      ca+t    Ca  1.500
Ca9      8.015025232    5.762346147    7.984691142 XXXX 2      ca+t    Ca  1.500
Si10     4.811775545    5.501550336    9.090177589 XXXX 2      sc2     Si  1.000
Si11     8.377555564    1.552356177   11.080053401 XXXX 2      sc3     Si  1.000
Si12     6.494838099    2.862544947    9.092976336 XXXX 2      sc2     Si  1.000
O37      8.383366801    0.074513247   10.500722495 XXXX 2      oc12    O  -0.620
O38      5.681127743    4.278293596    9.677904529 XXXX 2      oc12    O  -0.620
O39      5.622981767    6.544709059    8.200190937 XXXX 2      oc13    O  -0.930
O40      3.595297188    4.973749185    8.214184673 XXXX 2      oc13    O  -0.930
O41      6.288137242    4.657068530   15.342473402 XXXX 2      oc22    O  -1.000
O42      9.748699931    2.409267941   10.705027508 XXXX 2      oc14    O  -0.690
O43      8.221952019    5.867906304   10.366384706 XXXX 2      o*      O  -0.820
O44      7.013777162    2.235392983   10.489527505 XXXX 2      oc12    O  -0.620
O45      5.422705887    2.011853611    8.208587179 XXXX 2      oc13    O  -0.930
O46      7.811408563    3.309628075    8.202989684 XXXX 2      oc13    O  -0.930
O47      8.670630246    1.670335208   15.560772048 XXXX 2      o*      O  -0.820
O48     12.038913032    1.782100187   14.077461001 XXXX 2      o*      O  -0.820
O49      9.204187962    4.421110376   13.909538999 XXXX 2      o*      O  -0.820
Ca10     7.276452832    3.067455915   13.940324699 XXXX 2      casl    Ca  1.700
O50      4.522224162    5.768555492   13.993500000 XXXX 2      o*      O  -0.820
H1      13.578423414    2.791026938   25.423346563 XXXX 2      hoy     H   0.420
H2       8.165525643    5.904306616   16.556567616 XXXX 2      hoy     H   0.420
H3      10.443867862    2.395688885   11.336226581 XXXX 2      hoy     H   0.420
H4      11.567797315    5.838106161    2.550392443 XXXX 2      hoy     H   0.420
H5      12.368734561    1.725693551    2.498299190 XXXX 2      h*      H   0.410
H6      11.150089614    2.070426667    1.712690205 XXXX 2      h*      H   0.410
H7       6.743252917    3.636783065    3.197921326 XXXX 2      h*      H   0.410
H8       7.839902920    2.630613652    3.386507348 XXXX 2      h*      H   0.410
H9       7.897266619    2.165800931    0.576324689 XXXX 2      h*      H   0.410
H10      8.800062472    1.387643098   -0.248548595 XXXX 2      h*      H   0.410
H11     10.785916407    2.387323001   -0.412339625 XXXX 2      h*      H   0.410
H12     10.109956980    3.497716686    0.507734712 XXXX 2      h*      H   0.410
H13      7.846816101    5.629565999   11.240697981 XXXX 2      h*      H   0.410
H14      9.131056689    6.146588746   10.628428401 XXXX 2      h*      H   0.410
H15      5.812000068    5.245847360   12.704850912 XXXX 2      h*      H   0.410
H16      6.346749241    4.517718454   11.510968959 XXXX 2      h*      H   0.410
H17      9.581418908    4.684891624   13.042448887 XXXX 2      h*      H   0.410
H18      9.929873805    4.828636100   14.441054179 XXXX 2      h*      H   0.410
H19     11.925633325    0.816023550   13.947312897 XXXX 2      h*      H   0.410
H20     11.123458636    2.030670687   14.334808815 XXXX 2      h*      H   0.410
H21      8.561378664    0.698217974   15.649539152 XXXX 2      h*      H   0.410
H22      8.853707184    1.882665435   16.507602957 XXXX 2      h*      H   0.410
H23      5.349844850    5.579857540   14.515919081 XXXX 2      h*      H   0.410
H24      4.643533917    6.677009171   13.603581679 XXXX 2      h*      H   0.410
H25     10.165063302    3.657098547   17.219969855 XXXX 2      h*      H   0.410
H26     11.193053774    2.578700569   17.360758008 XXXX 2      h*      H   0.410
H27      4.706952622    6.722494509   24.823259273 XXXX 2      h*      H   0.410
H28      5.780859115    5.693698441   24.654904704 XXXX 2      h*      H   0.410
H29      5.712531476    3.464821043   27.728846518 XXXX 2      h*      H   0.410
H30      4.945951237    4.762334560   27.666951214 XXXX 2      h*      H   0.410
H31      9.880948272    3.797287460   26.448947827 XXXX 2      h*      H   0.410
H32     10.140903734    4.880643320   25.446882538 XXXX 2      h*      H   0.410
Ca1     -0.837590177    8.848430282    7.981892395 XXXX 3      ca+t    Ca  1.500
Ca2     -4.123013382    8.867058501    6.008808858 XXXX 3      ca+t    Ca  1.500
Si1     -0.591263070    8.606262690    4.903322411 XXXX 3      sc2     Si  1.000
Si2     -1.096560279   10.866493237    2.913446599 XXXX 3      sc3     Si  1.000
Si3     -2.979277745   12.176682008    4.900523664 XXXX 3      sc2     Si  1.000
O1      -1.090749043    9.388650308    3.492777505 XXXX 3      oc12    O  -0.620
O2       0.278089128    7.383005949    4.315595471 XXXX 3      oc12    O  -0.620
O3       0.219965924    9.649446119    5.793309063 XXXX 3      oc13    O  -0.930
O4      -1.807741426    8.078461538    5.779315327 XXXX 3      oc13    O  -0.930
O5       0.885121398    7.761785591   26.638026598 XXXX 3      oc22    O  -1.000
O6       0.274584088   11.723405002    3.288472492 XXXX 3      oc14    O  -0.690
O7      -3.916086596    8.972618657    3.627115294 XXXX 3      o*      O  -0.820
O8      -2.460338682   11.549530044    3.503972495 XXXX 3      oc12    O  -0.620
O9      -4.051409956   11.325990672    5.784912821 XXXX 3      oc13    O  -0.930
O11     -0.803485598   10.984472268   26.419727952 XXXX 3      o*      O  -0.820
O12     -2.933850652    7.525822729    0.083961001 XXXX 3      o*      O  -0.820
Ca3     -2.197663012   12.381592975    0.053175301 XXXX 3      casl    Ca  1.700
O13     -0.880814452    8.873267846    0.000000000 XXXX 3      o*      O  -0.820
Ca4     -4.205090177    8.848430282   21.975392395 XXXX 3      ca+t    Ca  1.500
Ca5     -0.755513382    8.867058501   20.002308858 XXXX 3      ca+t    Ca  1.500
Si4     -3.958763070    8.606262690   18.896822411 XXXX 3      sc2     Si  1.000
Si5     -4.464060279   10.866493237   16.906946599 XXXX 3      sc3     Si  1.000
Si6     -6.346777745   12.176682008   18.894023664 XXXX 3      sc2     Si  1.000
O14     -4.458249043    9.388650308   17.486277505 XXXX 3      oc12    O  -0.620
O15     -3.089410872    7.383005949   18.309095471 XXXX 3      oc12    O  -0.620
O16     -3.147534076    9.649446119   19.786809063 XXXX 3      oc13    O  -0.930
O17     -5.175241426    8.078461538   19.772815327 XXXX 3      oc13    O  -0.930
O18     -2.482378602    7.761785591   12.644526598 XXXX 3      oc22    O  -1.000
O19     -3.092915912   11.723405002   17.281972492 XXXX 3      oc14    O  -0.690
O20     -0.548586596    8.972618657   17.620615294 XXXX 3      o*      O  -0.820
O21     -5.827838682   11.549530044   17.497472495 XXXX 3      oc12    O  -0.620
O22     -7.418909956   11.325990672   19.778412821 XXXX 3      oc13    O  -0.930
O24     -4.170985598   10.984472268   12.426227952 XXXX 3      o*      O  -0.820
Ca6     -2.873128792   11.953142635   20.005107605 XXXX 3      ca+t    Ca  1.500
Ca7     -6.158551997   11.971770854   21.978191142 XXXX 3      ca+t    Ca  1.500
Si7     -2.626801684   11.710975043   23.083677589 XXXX 3      sc2     Si  1.000
Si8      0.938978335    7.761780884   25.073553401 XXXX 3      sc3     Si  1.000
Si9     -0.943739130    9.071969654   23.086476336 XXXX 3      sc2     Si  1.000
O25      0.944789572    6.283937954   24.494222495 XXXX 3      oc12    O  -0.620
O26     -1.757449486   10.487718303   23.671404529 XXXX 3      oc12    O  -0.620
O28     -3.843280041   11.183173892   22.207684673 XXXX 3      oc13    O  -0.930
O29     -1.150439987   10.866493237    1.348973402 XXXX 3      oc22    O  -1.000
O30      2.310122702    8.618692648   24.698527508 XXXX 3      oc14    O  -0.690
O31     -5.951625210   12.077331011   24.359884706 XXXX 3      o*      O  -0.820
O32     -0.424800067    8.444817690   24.483027505 XXXX 3      oc12    O  -0.620
O33     -2.015871342    8.221278318   22.202087179 XXXX 3      oc13    O  -0.930
O34      0.372831334    9.519052782   22.196489684 XXXX 3      oc13    O  -0.930
O35      1.232053017    7.879759915    1.567272048 XXXX 3      o*      O  -0.820
O36     -4.969389267   10.630535083   27.903038999 XXXX 3      o*      O  -0.820
Ca8     -6.240628792   11.953142635    6.011607605 XXXX 3      ca+t    Ca  1.500
Ca9     -2.791051997   11.971770854    7.984691142 XXXX 3      ca+t    Ca  1.500
Si10    -5.994301684   11.710975043    9.090177589 XXXX 3      sc2     Si  1.000
Si11    -2.428521665    7.761780884   11.080053401 XXXX 3      sc3     Si  1.000
Si12    -4.311239130    9.071969654    9.092976336 XXXX 3      sc2     Si  1.000
O37     -2.422710428    6.283937954   10.500722495 XXXX 3      oc12    O  -0.620
O38     -5.124949486   10.487718303    9.677904529 XXXX 3      oc12    O  -0.620
O40     -7.210780041   11.183173892    8.214184673 XXXX 3      oc13    O  -0.930
O41     -4.517939987   10.866493237   15.342473402 XXXX 3      oc22    O  -1.000
O42     -1.057377298    8.618692648   10.705027508 XXXX 3      oc14    O  -0.690
O43     -2.584125210   12.077331011   10.366384706 XXXX 3      o*      O  -0.820
O44     -3.792300067    8.444817690   10.489527505 XXXX 3      oc12    O  -0.620
O45     -5.383371342    8.221278318    8.208587179 XXXX 3      oc13    O  -0.930
O46     -2.994668666    9.519052782    8.202989684 XXXX 3      oc13    O  -0.930
O47     -2.135446983    7.879759915   15.560772048 XXXX 3      o*      O  -0.820
O48      1.232835803    7.991524894   14.077461001 XXXX 3      o*      O  -0.820
O49     -1.601889267   10.630535083   13.909538999 XXXX 3      o*      O  -0.820
Ca10    -3.529624397    9.276880622   13.940324699 XXXX 3      casl    Ca  1.700
O50     -6.283853067   11.977980199   13.993500000 XXXX 3      o*      O  -0.820
H1       2.772346185    9.000451645   25.423346563 XXXX 3      hoy     H   0.420
H2      -2.640551586   12.113731323   16.556567616 XXXX 3      hoy     H   0.420
H3      -0.362209367    8.605113592   11.336226581 XXXX 3      hoy     H   0.420
H4       0.761720086   12.047530868    2.550392443 XXXX 3      hoy     H   0.420
H5       1.562657332    7.935118258    2.498299190 XXXX 3      h*      H   0.410
H6       0.344012385    8.279851374    1.712690205 XXXX 3      h*      H   0.410
H7      -4.062824312    9.846207772    3.197921326 XXXX 3      h*      H   0.410
H8      -2.966174309    8.840038359    3.386507348 XXXX 3      h*      H   0.410
H9      -2.908810610    8.375225638    0.576324689 XXXX 3      h*      H   0.410
H10     -2.006014757    7.597067805   -0.248548595 XXXX 3      h*      H   0.410
H11     -0.020160822    8.596747708   -0.412339625 XXXX 3      h*      H   0.410
H12     -0.696120249    9.707141393    0.507734712 XXXX 3      h*      H   0.410
H13     -2.959261128   11.838990706   11.240697981 XXXX 3      h*      H   0.410
H14     -1.675020540   12.356013453   10.628428401 XXXX 3      h*      H   0.410
H15     -4.994077161   11.455272067   12.704850912 XXXX 3      h*      H   0.410
H16     -4.459327988   10.727143161   11.510968959 XXXX 3      h*      H   0.410
H17     -1.224658321   10.894316331   13.042448887 XXXX 3      h*      H   0.410
H18     -0.876203424   11.038060807   14.441054179 XXXX 3      h*      H   0.410
H19      1.119556096    7.025448257   13.947312897 XXXX 3      h*      H   0.410
H20      0.317381407    8.240095394   14.334808815 XXXX 3      h*      H   0.410
H21     -2.244698565    6.907642681   15.649539152 XXXX 3      h*      H   0.410
H22     -1.952370045    8.092090142   16.507602957 XXXX 3      h*      H   0.410
H23     -5.456232379   11.789282247   14.515919081 XXXX 3      h*      H   0.410
H24     -6.162543312   12.886433878   13.603581679 XXXX 3      h*      H   0.410
H25     -0.641013927    9.866523254   17.219969855 XXXX 3      h*      H   0.410
H26      0.386976545    8.788125276   17.360758008 XXXX 3      h*      H   0.410
H27     -6.099124607   12.931919216   24.823259273 XXXX 3      h*      H   0.410
H28     -5.025218114   11.903123148   24.654904704 XXXX 3      h*      H   0.410
H29     -5.093545753    9.674245750   27.728846518 XXXX 3      h*      H   0.410
H30     -5.860125992   10.971759267   27.666951214 XXXX 3      h*      H   0.410
H31     -0.925128957   10.006712167   26.448947827 XXXX 3      h*      H   0.410
H32     -0.665173495   11.090068027   25.446882538 XXXX 3      h*      H   0.410
Ca1      5.897409823    8.848430282    7.981892395 XXXX 4      ca+t    Ca  1.500
Ca2      2.611986618    8.867058501    6.008808858 XXXX 4      ca+t    Ca  1.500
Si1      6.143736930    8.606262690    4.903322411 XXXX 4      sc2     Si  1.000
Si2      5.638439721   10.866493237    2.913446599 XXXX 4      sc3     Si  1.000
Si3      3.755722255   12.176682008    4.900523664 XXXX 4      sc2     Si  1.000
O1       5.644250957    9.388650308    3.492777505 XXXX 4      oc12    O  -0.620
O2       7.013089128    7.383005949    4.315595471 XXXX 4      oc12    O  -0.620
O3       6.954965924    9.649446119    5.793309063 XXXX 4      oc13    O  -0.930
O4       4.927258574    8.078461538    5.779315327 XXXX 4      oc13    O  -0.930
O5       7.620121398    7.761785591   26.638026598 XXXX 4      oc22    O  -1.000
O6       7.009584088   11.723405002    3.288472492 XXXX 4      oc14    O  -0.690
O7       2.818913404    8.972618657    3.627115294 XXXX 4      o*      O  -0.820
O8       4.274661318   11.549530044    3.503972495 XXXX 4      oc12    O  -0.620
O9       2.683590044   11.325990672    5.784912821 XXXX 4      oc13    O  -0.930
O11      5.931514402   10.984472268   26.419727952 XXXX 4      o*      O  -0.820
O12      3.801149348    7.525822729    0.083961001 XXXX 4      o*      O  -0.820
Ca3      4.537336988   12.381592975    0.053175301 XXXX 4      casl    Ca  1.700
O13      5.854185548    8.873267846    0.000000000 XXXX 4      o*      O  -0.820
Ca4      2.529909823    8.848430282   21.975392395 XXXX 4      ca+t    Ca  1.500
Ca5      5.979486618    8.867058501   20.002308858 XXXX 4      ca+t    Ca  1.500
Si4      2.776236930    8.606262690   18.896822411 XXXX 4      sc2     Si  1.000
Si5      2.270939721   10.866493237   16.906946599 XXXX 4      sc3     Si  1.000
Si6      0.388222255   12.176682008   18.894023664 XXXX 4      sc2     Si  1.000
O14      2.276750957    9.388650308   17.486277505 XXXX 4      oc12    O  -0.620
O15      3.645589128    7.383005949   18.309095471 XXXX 4      oc12    O  -0.620
O16      3.587465924    9.649446119   19.786809063 XXXX 4      oc13    O  -0.930
O17      1.559758574    8.078461538   19.772815327 XXXX 4      oc13    O  -0.930
O18      4.252621398    7.761785591   12.644526598 XXXX 4      oc22    O  -1.000
O19      3.642084088   11.723405002   17.281972492 XXXX 4      oc14    O  -0.690
O20      6.186413404    8.972618657   17.620615294 XXXX 4      o*      O  -0.820
O21      0.907161318   11.549530044   17.497472495 XXXX 4      oc12    O  -0.620
O22     -0.683909956   11.325990672   19.778412821 XXXX 4      oc13    O  -0.930
O24      2.564014402   10.984472268   12.426227952 XXXX 4      o*      O  -0.820
Ca6      3.861871208   11.953142635   20.005107605 XXXX 4      ca+t    Ca  1.500
Ca7      0.576448003   11.971770854   21.978191142 XXXX 4      ca+t    Ca  1.500
Si7      4.108198316   11.710975043   23.083677589 XXXX 4      sc2     Si  1.000
Si8      7.673978335    7.761780884   25.073553401 XXXX 4      sc3     Si  1.000
Si9      5.791260870    9.071969654   23.086476336 XXXX 4      sc2     Si  1.000
O25      7.679789572    6.283937954   24.494222495 XXXX 4      oc12    O  -0.620
O26      4.977550514   10.487718303   23.671404529 XXXX 4      oc12    O  -0.620
O28      2.891719959   11.183173892   22.207684673 XXXX 4      oc13    O  -0.930
O29      5.584560013   10.866493237    1.348973402 XXXX 4      oc22    O  -1.000
O30      9.045122702    8.618692648   24.698527508 XXXX 4      oc14    O  -0.690
O31      0.783374790   12.077331011   24.359884706 XXXX 4      o*      O  -0.820
O32      6.310199933    8.444817690   24.483027505 XXXX 4      oc12    O  -0.620
O33      4.719128658    8.221278318   22.202087179 XXXX 4      oc13    O  -0.930
O34      7.107831334    9.519052782   22.196489684 XXXX 4      oc13    O  -0.930
O35      7.967053017    7.879759915    1.567272048 XXXX 4      o*      O  -0.820
O36      1.765610733   10.630535083   27.903038999 XXXX 4      o*      O  -0.820
Ca8      0.494371208   11.953142635    6.011607605 XXXX 4      ca+t    Ca  1.500
Ca9      3.943948003   11.971770854    7.984691142 XXXX 4      ca+t    Ca  1.500
Si10     0.740698316   11.710975043    9.090177589 XXXX 4      sc2     Si  1.000
Si11     4.306478335    7.761780884   11.080053401 XXXX 4      sc3     Si  1.000
Si12     2.423760870    9.071969654    9.092976336 XXXX 4      sc2     Si  1.000
O37      4.312289572    6.283937954   10.500722495 XXXX 4      oc12    O  -0.620
O38      1.610050514   10.487718303    9.677904529 XXXX 4      oc12    O  -0.620
O40     -0.475780041   11.183173892    8.214184673 XXXX 4      oc13    O  -0.930
O41      2.217060013   10.866493237   15.342473402 XXXX 4      oc22    O  -1.000
O42      5.677622702    8.618692648   10.705027508 XXXX 4      oc14    O  -0.690
O43      4.150874790   12.077331011   10.366384706 XXXX 4      o*      O  -0.820
O44      2.942699933    8.444817690   10.489527505 XXXX 4      oc12    O  -0.620
O45      1.351628658    8.221278318    8.208587179 XXXX 4      oc13    O  -0.930
O46      3.740331334    9.519052782    8.202989684 XXXX 4      oc13    O  -0.930
O47      4.599553017    7.879759915   15.560772048 XXXX 4      o*      O  -0.820
O48      7.967835803    7.991524894   14.077461001 XXXX 4      o*      O  -0.820
O49      5.133110733   10.630535083   13.909538999 XXXX 4      o*      O  -0.820
Ca10     3.205375603    9.276880622   13.940324699 XXXX 4      casl    Ca  1.700
O50      0.451146933   11.977980199   13.993500000 XXXX 4      o*      O  -0.820
H1       9.507346185    9.000451645   25.423346563 XXXX 4      hoy     H   0.420
H2       4.094448414   12.113731323   16.556567616 XXXX 4      hoy     H   0.420
H3       6.372790633    8.605113592   11.336226581 XXXX 4      hoy     H   0.420
H4       7.496720086   12.047530868    2.550392443 XXXX 4      hoy     H   0.420
H5       8.297657332    7.935118258    2.498299190 XXXX 4      h*      H   0.410
H6       7.079012385    8.279851374    1.712690205 XXXX 4      h*      H   0.410
H7       2.672175688    9.846207772    3.197921326 XXXX 4      h*      H   0.410
H8       3.768825691    8.840038359    3.386507348 XXXX 4      h*      H   0.410
H9       3.826189390    8.375225638    0.576324689 XXXX 4      h*      H   0.410
H10      4.728985243    7.597067805   -0.248548595 XXXX 4      h*      H   0.410
H11      6.714839178    8.596747708   -0.412339625 XXXX 4      h*      H   0.410
H12      6.038879751    9.707141393    0.507734712 XXXX 4      h*      H   0.410
H13      3.775738872   11.838990706   11.240697981 XXXX 4      h*      H   0.410
H14      5.059979460   12.356013453   10.628428401 XXXX 4      h*      H   0.410
H15      1.740922839   11.455272067   12.704850912 XXXX 4      h*      H   0.410
H16      2.275672012   10.727143161   11.510968959 XXXX 4      h*      H   0.410
H17      5.510341679   10.894316331   13.042448887 XXXX 4      h*      H   0.410
H18      5.858796576   11.038060807   14.441054179 XXXX 4      h*      H   0.410
H19      7.854556096    7.025448257   13.947312897 XXXX 4      h*      H   0.410
H20      7.052381407    8.240095394   14.334808815 XXXX 4      h*      H   0.410
H21      4.490301435    6.907642681   15.649539152 XXXX 4      h*      H   0.410
H22      4.782629955    8.092090142   16.507602957 XXXX 4      h*      H   0.410
H23      1.278767621   11.789282247   14.515919081 XXXX 4      h*      H   0.410
H24      0.572456688   12.886433878   13.603581679 XXXX 4      h*      H   0.410
H25      6.093986073    9.866523254   17.219969855 XXXX 4      h*      H   0.410
H26      7.121976545    8.788125276   17.360758008 XXXX 4      h*      H   0.410
H27      0.635875393   12.931919216   24.823259273 XXXX 4      h*      H   0.410
H28      1.709781886   11.903123148   24.654904704 XXXX 4      h*      H   0.410
H29      1.641454247    9.674245750   27.728846518 XXXX 4      h*      H   0.410
H30      0.874874008   10.971759267   27.666951214 XXXX 4      h*      H   0.410
H31      5.809871043   10.006712167   26.448947827 XXXX 4      h*      H   0.410
H32      6.069826505   11.090068027   25.446882538 XXXX 4      h*      H   0.410
O10      6.479424407    0.204911014    5.790510316 XXXX 5      oc13    O  -0.930
O23      3.111924407    0.204911014   19.784010316 XXXX 5      oc13    O  -0.930
O27      6.326558996    0.335284352   22.193690937 XXXX 5      oc13    O  -0.930
O39      2.959058996    0.335284352    8.200190937 XXXX 5      oc13    O  -0.930
O10     13.214424407    0.204911014    5.790510316 XXXX 6      oc13    O  -0.930
O23      9.846924407    0.204911014   19.784010316 XXXX 6      oc13    O  -0.930
O27     13.061558996    0.335284352   22.193690937 XXXX 6      oc13    O  -0.930
O39      9.694058996    0.335284352    8.200190937 XXXX 6      oc13    O  -0.930
end
end
