!BIOSYM archive 3
PBC=ON
Materials Studio Generated CAR File
!DATE Thu Dec 22 08:03:11 2016
PBC   22.5296   22.2750  103.5900   90.0000   90.0000   90.0000 (P1)
O5      -1.396753703    5.687004852    5.546975860 XXXX 1      oc22    O  -1.080
O11     -1.004098916    9.653684845    5.616893119 XXXX 1      o*      O  -0.820
Ca4     -4.869320758    9.359850027    1.071418371 XXXX 1      ca+t    Ca  1.500
Ca7     -4.734477942    5.690572774    1.127283200 XXXX 1      ca+t    Ca  1.500
Si7     -1.911796032   10.920416843    2.022623957 XXXX 1      sc2     Si  1.000
Si8     -1.118523030    5.740845828    3.967446167 XXXX 1      sc3     Si  1.000
Si9     -1.912648187    7.850748829    2.065901062 XXXX 1      sc2     Si  1.000
O25     -1.882482042    4.401200839    3.462516027 XXXX 1      oc12    O  -0.580
O26     -1.805928431    9.408361267    2.590850179 XXXX 1      oc12    O  -0.580
O28     -3.252462356   11.170333493    1.149913500 XXXX 1      oc13    O  -0.940
O30      0.552562933    5.682359197    3.634710906 XXXX 1      oc14    O  -0.670
O31     -4.654569450    6.321016745    3.860751472 XXXX 1      o*      O  -0.820
O32     -1.893908830    7.036621413    3.473313808 XXXX 1      oc12    O  -0.580
O33     -3.327927485    7.590886941    1.296203073 XXXX 1      oc13    O  -0.940
O34     -0.690804304    7.449153818    1.171599357 XXXX 1      oc13    O  -0.940
O36     -4.225532184   11.488695791    5.719678305 XXXX 1      o*      O  -0.820
H1       0.898237357    5.094502811    4.259744497 XXXX 1      hoy     H   0.400
H27     -3.839956516    6.648974529    4.267329020 XXXX 1      h*      H   0.410
H28     -5.234546563    6.689928389    4.598489567 XXXX 1      h*      H   0.410
H29     -4.445923947   10.879941575    4.951985901 XXXX 1      h*      H   0.410
H30     -5.176378211   11.388821401    6.122170486 XXXX 1      h*      H   0.410
H31     -1.638282626    9.161202728    5.062605322 XXXX 1      h*      H   0.410
H32     -0.339845727   10.011345614    4.905644511 XXXX 1      h*      H   0.410
O5       9.661553865    5.616154900    5.616860755 XXXX 2      oc22    O  -1.080
O11      9.991721161    9.270708823    5.607308298 XXXX 2      o*      O  -0.820
Ca4      6.293593429    9.381363472    0.858565282 XXXX 2      ca+t    Ca  1.500
Ca7      6.541956147    5.805780662    0.985575698 XXXX 2      ca+t    Ca  1.500
Si7      9.286542448   11.020543329    1.954199796 XXXX 2      sc2     Si  1.000
Si8      9.966097533    5.704092370    4.080073433 XXXX 2      sc3     Si  1.000
Si9      9.408059996    7.928367044    2.073234046 XXXX 2      sc2     Si  1.000
O25      9.141345807    4.447218555    3.556288615 XXXX 2      oc12    O  -0.580
O26      9.452287004    9.454767014    2.537382190 XXXX 2      oc12    O  -0.580
O28      7.975848733   11.248581262    1.095377484 XXXX 2      oc13    O  -0.940
O30     11.636444893    5.550959389    3.987901762 XXXX 2      oc14    O  -0.670
O31      6.666165538    5.915077358    3.655828102 XXXX 2      o*      O  -0.820
O32      9.361977867    7.128467952    3.495096325 XXXX 2      oc12    O  -0.580
O33      8.118484821    7.566217250    1.140182275 XXXX 2      oc13    O  -0.940
O34     10.759933158    7.532631723    1.252317659 XXXX 2      oc13    O  -0.940
O36      6.945493009   11.008903234    5.671433882 XXXX 2      o*      O  -0.820
H1      11.881315374    5.317121942    4.830676120 XXXX 2      hoy     H   0.400
H27      7.253153152    5.170256791    3.602898855 XXXX 2      h*      H   0.410
H28      7.238395999    6.626686429    3.882123688 XXXX 2      h*      H   0.410
H29      6.775663097   11.197102582    4.684439376 XXXX 2      h*      H   0.410
H30      6.257206008   10.352977215    5.851216418 XXXX 2      h*      H   0.410
H31     10.728197392    8.706930992    5.972278159 XXXX 2      h*      H   0.410
H32     10.232675499    9.046395558    4.668389682 XXXX 2      h*      H   0.410
O5      -1.398629390   13.214916704    5.574649293 XXXX 3      oc22    O  -1.080
O11     -1.078316812   16.958050415    5.755643925 XXXX 3      o*      O  -0.820
Ca4     -4.956797137   16.823800432    1.114365789 XXXX 3      ca+t    Ca  1.500
Ca7     -4.618953786   13.079464939    1.236907143 XXXX 3      ca+t    Ca  1.500
Si7     -2.099933152   18.309219421    1.995605850 XXXX 3      sc2     Si  1.000
Si8     -1.212648508   13.134834848    3.986618312 XXXX 3      sc3     Si  1.000
Si9     -2.025751063   15.286930685    2.026443164 XXXX 3      sc2     Si  1.000
O25     -1.951625185   11.835100855    3.413896332 XXXX 3      oc12    O  -0.580
O26     -1.898586555   16.785140624    2.576590465 XXXX 3      oc12    O  -0.580
O28     -3.387005890   18.533730848    1.187946025 XXXX 3      oc13    O  -0.940
O30      0.392404318   13.094307716    3.488507645 XXXX 3      oc14    O  -0.670
O31     -4.686039051   13.541071510    3.802716468 XXXX 3      o*      O  -0.820
O32     -2.010956718   14.435669547    3.377964380 XXXX 3      oc12    O  -0.580
O33     -3.447430326   15.131646574    1.180692148 XXXX 3      oc13    O  -0.940
O34     -0.867408474   14.900665615    1.098506854 XXXX 3      oc13    O  -0.940
O36     -4.371400346   18.853857996    5.505021840 XXXX 3      o*      O  -0.820
H1       0.899987778   12.657933010    4.155851583 XXXX 3      hoy     H   0.400
H27     -4.240746759   12.845262388    4.308851236 XXXX 3      h*      H   0.410
H28     -4.412780214   14.291678345    4.369264888 XXXX 3      h*      H   0.410
H29     -4.948266668   18.223450833    4.935918346 XXXX 3      h*      H   0.410
H30     -4.159298708   19.504001440    4.796092897 XXXX 3      h*      H   0.410
H31     -0.452024029   16.177964029    5.809214833 XXXX 3      h*      H   0.410
H32     -1.446656231   16.759046158    4.868403094 XXXX 3      h*      H   0.410
O5       9.997011025   12.948759253    5.526881214 XXXX 4      oc22    O  -1.080
O11      9.837025301   16.672981762    5.586440977 XXXX 4      o*      O  -0.820
Ca4      6.357414663   16.907568290    1.101653507 XXXX 4      ca+t    Ca  1.500
Ca7      6.582467869   13.188882689    0.956739356 XXXX 4      ca+t    Ca  1.500
Si7      9.245177071   18.418522201    2.063795745 XXXX 4      sc2     Si  1.000
Si8     10.147167717   13.067540920    3.941628582 XXXX 4      sc3     Si  1.000
Si9      9.341095243   15.323503471    2.092977936 XXXX 4      sc2     Si  1.000
O25      9.300126593   11.927234490    3.298140714 XXXX 4      oc12    O  -0.580
O26      9.289057714   16.884738951    2.621645495 XXXX 4      oc12    O  -0.580
O28      8.005839681   18.691544158    1.105855874 XXXX 4      oc13    O  -0.940
O30     11.718364136   12.845195325    3.485087716 XXXX 4      oc14    O  -0.670
O31      6.664293037   13.253495088    3.956723401 XXXX 4      o*      O  -0.820
O32      9.520230744   14.468645065    3.496894287 XXXX 4      oc12    O  -0.580
O33      7.990227541   14.999477975    1.317005407 XXXX 4      oc13    O  -0.940
O34     10.600151886   14.993854349    1.134461704 XXXX 4      oc13    O  -0.940
O36      6.985994205   18.541459946    5.500359465 XXXX 4      o*      O  -0.820
H1      12.121871009   12.462001887    4.263091664 XXXX 4      hoy     H   0.400
H27      6.826364791   14.074160329    4.449126025 XXXX 4      h*      H   0.410
H28      7.543805849   12.872224012    4.140493713 XXXX 4      h*      H   0.410
H29      6.040511275   18.235340941    5.659186462 XXXX 4      h*      H   0.410
H30      7.194506946   18.279733643    4.570649046 XXXX 4      h*      H   0.410
H31      9.617752472   15.847883039    5.063285786 XXXX 4      h*      H   0.410
H32     10.525813274   16.923787570    4.911425529 XXXX 4      h*      H   0.410
O5      -1.627996455   20.459756709    5.508523306 XXXX 5      oc22    O  -1.080
O11     -1.135373056   24.075807082    5.682112691 XXXX 5      o*      O  -0.820
Ca4     -4.889226558   24.103947316    1.033198413 XXXX 5      ca+t    Ca  1.500
Ca7     -4.752345748   20.473282232    0.842740673 XXXX 5      ca+t    Ca  1.500
Si7     -1.971495337   25.799983723    2.067959876 XXXX 5      sc2     Si  1.000
Si8     -1.359040410   20.508638274    3.981148956 XXXX 5      sc3     Si  1.000
Si9     -1.937508816   22.736203230    2.048832381 XXXX 5      sc2     Si  1.000
O25     -2.189659221   19.234871467    3.419644666 XXXX 5      oc12    O  -0.580
O26     -1.910627493   24.253830164    2.658160564 XXXX 5      oc12    O  -0.580
O28     -3.342461569   25.930960689    1.233615768 XXXX 5      oc13    O  -0.940
O30      0.271717327   20.441271802    3.657417244 XXXX 5      oc14    O  -0.670
O31     -6.821422396   20.511254359    5.511180942 XXXX 5      o*      O  -0.820
O32     -2.060859141   21.813053084    3.394498634 XXXX 5      oc12    O  -0.580
O33     -3.144274857   22.429727307    1.091591804 XXXX 5      oc13    O  -0.940
O34     -0.592974705   22.489239433    1.223790716 XXXX 5      oc13    O  -0.940
H1       0.725085108   19.928050503    4.439570574 XXXX 5      hoy     H   0.400
H27     -6.153923262   19.922054952    6.103797852 XXXX 5      h*      H   0.410
H28     -7.086985351   19.979050006    4.743915109 XXXX 5      h*      H   0.410
H31     -1.342871862   23.651320986    4.786942551 XXXX 5      h*      H   0.410
H32     -0.532374041   23.389277600    6.102373750 XXXX 5      h*      H   0.410
O5       9.835308733   20.383798248    5.563401687 XXXX 6      oc22    O  -1.080
O11     10.413040970   24.530367827    6.097420376 XXXX 6      o*      O  -0.820
Ca4      6.376179909   24.233300766    1.048296993 XXXX 6      ca+t    Ca  1.500
Ca7      6.530522860   20.522631731    0.920130638 XXXX 6      ca+t    Ca  1.500
Si7      9.181157573   25.813779367    2.227681392 XXXX 6      sc2     Si  1.000
Si8     10.010055090   20.560252166    4.033358353 XXXX 6      sc3     Si  1.000
Si9      9.275763351   22.744894109    2.205643546 XXXX 6      sc2     Si  1.000
O25      9.217614645   19.361260638    3.406749812 XXXX 6      oc12    O  -0.580
O26      9.271125152   24.264536849    2.781408792 XXXX 6      oc12    O  -0.580
O28      7.903032866   26.121355949    1.359258925 XXXX 6      oc13    O  -0.940
O30     11.603235448   20.567537236    3.658286144 XXXX 6      oc14    O  -0.670
O31      6.631462850   20.692246048    3.538228606 XXXX 6      o*      O  -0.820
O32      9.336043460   21.936251076    3.565111909 XXXX 6      oc12    O  -0.580
O33      7.983425041   22.404270025    1.293208682 XXXX 6      oc13    O  -0.940
O34     10.556253802   22.479437902    1.282503477 XXXX 6      oc13    O  -0.940
H1      11.870668191   19.947903545    4.292826216 XXXX 6      hoy     H   0.400
H27      7.506480149   21.019398312    3.908040849 XXXX 6      h*      H   0.410
H28      6.057690855   21.261493840    4.149372768 XXXX 6      h*      H   0.410
H31     10.741272157   24.409922860    5.225094480 XXXX 6      h*      H   0.410
H32     10.756559235   23.762578317    6.539725438 XXXX 6      h*      H   0.410
Ca1     -3.801935341    7.553110476   14.803176678 XXXX 7      ca+t    Ca  1.500
Ca2     -6.432315242    9.452083632   12.710629464 XXXX 7      ca+t    Ca  1.500
Si1     -3.676445045    7.252516516   11.578767810 XXXX 7      sc2     Si  1.000
Si2     -2.891433981    9.390316972    9.705707247 XXXX 7      sc3     Si  1.000
Si3     -3.686940131    4.173059031   11.456893690 XXXX 7      sc2     Si  1.000
O1      -3.745621235    8.256132524   10.337584693 XXXX 7      oc12    O  -0.580
O2      -3.600711941    5.742760765   10.968645220 XXXX 7      oc12    O  -0.580
O3      -2.410446953    7.609555664   12.512249438 XXXX 7      oc13    O  -0.940
O4      -4.974863635    7.507622863   12.472345916 XXXX 7      oc13    O  -0.940
O5      10.777805630   -2.071413015   80.843625933 XXXX 7      oc22    O  -1.080
O6      -1.278105175    9.310142049    9.935970732 XXXX 7      oc14    O  -0.670
O7      -5.961287900   11.041608473    7.916049047 XXXX 7      o*      O  -0.820
O8      -3.469726145   10.843214239   10.231713921 XXXX 7      oc12    O  -0.580
O9      -5.033526125    3.886195156   12.332490613 XXXX 7      oc13    O  -0.940
O11     11.548909905    2.037499784   80.941656396 XXXX 7      o*      O  -0.820
O12     -5.694769961    7.640535049    8.246797213 XXXX 7      o*      O  -0.820
Ca3     -2.425128343    3.859671048    6.745103310 XXXX 7      casl    Ca  1.700
O13     -3.531907251    7.525515222    5.953459544 XXXX 7      o*      O  -0.820
Ca4      7.353148576    1.817623946   76.367319199 XXXX 7      ca+t    Ca  1.500
Ca5     10.435221543   -0.041979478   74.074575494 XXXX 7      ca+t    Ca  1.500
Si4      7.595595688    1.516735489   73.073022605 XXXX 7      sc2     Si  1.000
Si5      8.031440475    3.753277490   71.068110179 XXXX 7      sc3     Si  1.000
Si6      7.508654480   -1.587860563   73.222205163 XXXX 7      sc2     Si  1.000
O14      7.421281899    2.399471018   71.630358208 XXXX 7      oc12    O  -0.580
O15      7.499568826   -0.045571867   72.595483405 XXXX 7      oc12    O  -0.580
O16      8.895027161    1.778236134   73.830627117 XXXX 7      oc13    O  -0.940
O17      6.346695917    1.827988548   74.090038184 XXXX 7      oc13    O  -0.940
O18     -5.908264160    7.767371323   19.358485139 XXXX 7      oc22    O  -1.080
O19      9.674333449    3.733025329   71.333213596 XXXX 7      oc14    O  -0.670
O20      2.555218577    9.963825907   68.517557742 XXXX 7      o*      O  -0.820
O21      7.400165829   -2.385222733   71.814301149 XXXX 7      oc12    O  -0.580
O22      6.272311367   -1.849291018   74.217565085 XXXX 7      oc13    O  -0.940
O24     -9.866033678    1.895616481   20.685256446 XXXX 7      o*      O  -0.820
Ca6     10.162185893    3.554252502   74.174272577 XXXX 7      ca+t    Ca  1.500
Ca7      7.701053493   -1.924786637   76.468870328 XXXX 7      ca+t    Ca  1.500
Si7     10.178725933    3.318688517   77.384252083 XXXX 7      sc2     Si  1.000
Si8     11.058535010   -2.054885014   79.299443405 XXXX 7      sc3     Si  1.000
Si9     10.287025903    0.267075246   77.375043063 XXXX 7      sc2     Si  1.000
O25     10.247732787   -3.259508100   78.670238641 XXXX 7      oc12    O  -0.580
O26     10.238011286    1.747696176   77.971878220 XXXX 7      oc12    O  -0.580
O28      8.928056053    3.517636254   76.386050595 XXXX 7      oc13    O  -0.940
O29     -3.137897885    9.458303115    8.176789423 XXXX 7      oc22    O  -1.080
O30     12.670512020   -2.112637843   79.119329867 XXXX 7      oc14    O  -0.670
O31      7.746921025   -1.772330121   79.330863084 XXXX 7      o*      O  -0.820
O32     10.436750486   -0.636017982   78.815813752 XXXX 7      oc12    O  -0.580
O33      8.988115661    0.052867199   76.540845318 XXXX 7      oc13    O  -0.940
O34     11.549677513    0.054766638   76.356554744 XXXX 7      oc13    O  -0.940
O35     -3.710360935    5.503872410    7.905064550 XXXX 7      o*      O  -0.820
O36      7.538733892    3.288614514   81.632683790 XXXX 7      o*      O  -0.820
Ca8     -6.490784018    5.613535857   12.755123786 XXXX 7      ca+t    Ca  1.500
Ca9     -3.539289483   11.372102099   14.847852206 XXXX 7      ca+t    Ca  1.500
Si10    -6.431722480    5.449174471   15.903106912 XXXX 7      sc2     Si  1.000
Si11    -5.708914255    7.638567779   17.775459048 XXXX 7      sc3     Si  1.000
Si12    -6.575133255    9.770556263   15.895590541 XXXX 7      sc2     Si  1.000
O37     -6.437091064    6.354570207   17.245438308 XXXX 7      oc12    O  -0.580
O38     -6.579371646   11.289709314   16.522935012 XXXX 7      oc12    O  -0.580
O40     -7.687506353    5.768184689   14.975060243 XXXX 7      oc13    O  -0.940
O41      7.759340928    3.888425233   69.523840101 XXXX 7      oc22    O  -1.080
O42     -4.173760164    7.767717979   17.463132958 XXXX 7      oc14    O  -0.670
O43    -18.413033416   11.411807066   19.414118922 XXXX 7      o*      O  -0.820
O44     -6.507939936    8.926870311   17.257383123 XXXX 7      oc12    O  -0.580
O45     -7.911432740    9.472060291   15.013917340 XXXX 7      oc13    O  -0.940
O46     -5.262736779    9.681630101   14.966689892 XXXX 7      oc13    O  -0.940
O47      5.597378570   31.936450095   21.628649345 XXXX 7      o*      O  -0.820
O48    -16.686558429    4.346742061   66.371972900 XXXX 7      o*      O  -0.820
O49    -36.068461503   23.853341889   19.873423193 XXXX 7      o*      O  -0.820
Ca10     5.594901137    4.351446974   68.890171065 XXXX 7      casl    Ca  1.700
O50    -15.987163041   16.192980515   67.977786873 XXXX 7      o*      O  -0.820
H1      12.925917996   -2.532616939   79.923287211 XXXX 7      hoy     H   0.400
H2      10.177555762    3.406835973   70.632146390 XXXX 7      hoy     H   0.400
H3      -3.795970064    7.597400873   18.314418079 XXXX 7      hoy     H   0.400
H4      -1.055538544    8.571964623    9.365360985 XXXX 7      hoy     H   0.400
H5      -3.612977974    5.620334455    8.897429710 XXXX 7      h*      H   0.410
H6      -4.181543763    6.319551729    7.694244482 XXXX 7      h*      H   0.410
H7      -5.267851896   10.463623199    8.208119899 XXXX 7      h*      H   0.410
H8      -6.353980979   10.458002639    7.219063374 XXXX 7      h*      H   0.410
H9      -4.794623257    8.201055376    8.060656099 XXXX 7      h*      H   0.410
H10     -5.558360047    7.283835091    9.146835165 XXXX 7      h*      H   0.410
H11     -2.736177657    6.914055332    5.838117590 XXXX 7      h*      H   0.410
H12     -3.154064089    8.110716870    6.748397266 XXXX 7      h*      H   0.410
H13    -18.161626307   12.049233479   20.131646996 XXXX 7      h*      H   0.410
H14    -17.892078069   11.780332751   18.689198209 XXXX 7      h*      H   0.410
H15    -10.645302129    1.325167216   21.048751710 XXXX 7      h*      H   0.410
H16    -10.378491981    2.770641893   20.584101355 XXXX 7      h*      H   0.410
H17    -35.387857793   23.507947953   19.261787871 XXXX 7      h*      H   0.410
H18    -35.500176691   24.561911585   20.206201520 XXXX 7      h*      H   0.410
H19    -17.395420824    4.827911289   65.941992247 XXXX 7      h*      H   0.410
H20    -16.120502951    4.356574472   65.581391239 XXXX 7      h*      H   0.410
H21      6.310262351   31.202332280   21.830081680 XXXX 7      h*      H   0.410
H22      6.118000398   32.787527181   21.685370087 XXXX 7      h*      H   0.410
H23    -15.062399045   16.224438101   68.391613594 XXXX 7      h*      H   0.410
H24    -16.013392686   15.178132935   67.965186415 XXXX 7      h*      H   0.410
H25      2.236721707    9.043455962   68.680388678 XXXX 7      h*      H   0.410
H26      3.159007867   10.050248328   69.331140572 XXXX 7      h*      H   0.410
H27      8.459137972   -1.815789523   79.999884656 XXXX 7      h*      H   0.410
H28      7.037946324   -1.125368843   79.645786498 XXXX 7      h*      H   0.410
H29      6.902702778    3.999570320   81.857153164 XXXX 7      h*      H   0.410
H30      6.839674914    2.600398179   81.402122785 XXXX 7      h*      H   0.410
H31     12.121515808    1.872154651   80.117125120 XXXX 7      h*      H   0.410
H32     12.119714082    1.498951244   81.540074332 XXXX 7      h*      H   0.410
Ca1      7.522483318    7.604410901   14.953397470 XXXX 8      ca+t    Ca  1.500
Ca2      4.940582985    9.549469349   12.654814389 XXXX 8      ca+t    Ca  1.500
Si1      7.482647405    7.267050411   11.784713662 XXXX 8      sc2     Si  1.000
Si2      8.177574517    9.560166411    9.888851071 XXXX 8      sc3     Si  1.000
Si3      7.533095103    4.181565689   11.745481539 XXXX 8      sc2     Si  1.000
O1       7.475729903    8.178239499   10.417857694 XXXX 8      oc12    O  -0.580
O2       7.452259525    5.755316061   11.176625890 XXXX 8      oc12    O  -0.580
O3       8.735073466    7.541923140   12.724136950 XXXX 8      oc13    O  -0.940
O4       6.204358576    7.583461600   12.619543004 XXXX 8      oc13    O  -0.940
O5      22.065864105   -1.825914770   80.756755577 XXXX 8      oc22    O  -1.080
O6       9.770817012    9.656393730   10.124757884 XXXX 8      oc14    O  -0.670
O7       5.352847653   11.088789576    7.912105260 XXXX 8      o*      O  -0.820
O8       7.400388648   10.821124566   10.475762106 XXXX 8      oc12    O  -0.580
O9       6.218733342    3.967396029   12.666560318 XXXX 8      oc13    O  -0.940
O11     22.013600965    1.872705339   80.724489630 XXXX 8      o*      O  -0.820
O12      5.476153790    7.946723378    8.309543686 XXXX 8      o*      O  -0.820
Ca3      8.924838183    3.954373713    7.095240803 XXXX 8      casl    Ca  1.700
O13      7.363037965    7.818255174    5.880663659 XXXX 8      o*      O  -0.820
Ca4     18.704084433    1.767025213   76.161534873 XXXX 8      ca+t    Ca  1.500
Ca5     21.706893925   -0.135772421   74.091676436 XXXX 8      ca+t    Ca  1.500
Si4     18.925733276    1.470571794   73.086559662 XXXX 8      sc2     Si  1.000
Si5     19.635382559    3.499622188   71.116309772 XXXX 8      sc3     Si  1.000
Si6     18.900109859   -1.700931109   73.082169451 XXXX 8      sc2     Si  1.000
O14     18.874859337    2.260417878   71.684370590 XXXX 8      oc12    O  -0.580
O15     18.900212404   -0.114050086   72.577392439 XXXX 8      oc12    O  -0.580
O16     20.186169838    1.667748957   74.048849029 XXXX 8      oc13    O  -0.940
O17     17.580903221    1.811380868   73.850555120 XXXX 8      oc13    O  -0.940
O18      5.142152251    7.637321701   19.393359949 XXXX 8      oc22    O  -1.080
O19     21.222088641    3.478630164   71.643844203 XXXX 8      oc14    O  -0.670
O20     23.006768336   12.291671603   68.882006457 XXXX 8      o*      O  -0.820
O21     18.861366425   -2.522468663   71.705557407 XXXX 8      oc12    O  -0.580
O22     17.637208507   -1.926640896   74.010943756 XXXX 8      oc13    O  -0.940
O24      6.672103756   18.358886497   19.174724017 XXXX 8      o*      O  -0.820
Ca6     21.481638779    3.566486407   74.154450025 XXXX 8      ca+t    Ca  1.500
Ca7     18.867391873   -1.950986566   76.298482962 XXXX 8      ca+t    Ca  1.500
Si7     21.570461168    3.230227998   77.434899330 XXXX 8      sc2     Si  1.000
Si8     22.261822766   -1.952196501   79.205082828 XXXX 8      sc3     Si  1.000
Si9     21.460589641    0.126259816   77.236842780 XXXX 8      sc2     Si  1.000
O25     21.658527202   -3.370949405   78.751976137 XXXX 8      oc12    O  -0.580
O26     21.436955525    1.662725137   77.891897452 XXXX 8      oc12    O  -0.580
O28     20.344215415    3.653312680   76.490501695 XXXX 8      oc13    O  -0.940
O29      7.962198580    9.692938421    8.274112431 XXXX 8      oc22    O  -1.080
O30     23.881459456   -1.835151837   78.860516083 XXXX 8      oc14    O  -0.670
O31     19.649469765   -0.078059180   80.858382312 XXXX 8      o*      O  -0.820
O32     21.373016029   -0.823102439   78.565639416 XXXX 8      oc12    O  -0.580
O33     20.236870713   -0.098034644   76.228298771 XXXX 8      oc13    O  -0.940
O34     22.800518643   -0.131975955   76.437180492 XXXX 8      oc13    O  -0.940
O35      8.208409820    6.139337594    8.209897380 XXXX 8      o*      O  -0.820
O36     18.556261336    3.588727160   81.737348547 XXXX 8      o*      O  -0.820
Ca8      4.619966477    5.677524522   12.632236185 XXXX 8      ca+t    Ca  1.500
Ca9      7.604147080   11.439436945   15.205860617 XXXX 8      ca+t    Ca  1.500
Si10     4.748378169    5.428875405   15.839951899 XXXX 8      sc2     Si  1.000
Si11     5.391212617    7.623457962   17.861158361 XXXX 8      sc3     Si  1.000
Si12     4.694996924    9.803705765   15.970781885 XXXX 8      sc2     Si  1.000
O37      4.667062892    6.277271484   17.222901978 XXXX 8      oc12    O  -0.580
O38      4.711496237   11.293532171   16.538341767 XXXX 8      oc12    O  -0.580
O40      3.524539545    5.717977704   14.857306145 XXXX 8      oc13    O  -0.940
O41     19.587536132    3.282527616   69.507277190 XXXX 8      oc22    O  -1.080
O42      6.976396361    7.666650096   17.635212076 XXXX 8      oc14    O  -0.670
O43      0.728106692    6.094283095   20.744687569 XXXX 8      o*      O  -0.820
O44      4.625507430    8.925895282   17.359019756 XXXX 8      oc12    O  -0.580
O45      3.450104890    9.600472192   15.028100216 XXXX 8      oc13    O  -0.940
O46      6.013545535    9.570748610   15.126938587 XXXX 8      oc13    O  -0.940
O47      1.683153929  -14.237912144   18.695342043 XXXX 8      o*      O  -0.820
O48      1.516943843  -11.967379613   21.018535614 XXXX 8      o*      O  -0.820
O49     35.724692063   31.192258989   19.329153288 XXXX 8      o*      O  -0.820
Ca10    -7.644368310   23.317517487   20.200951711 XXXX 8      casl    Ca  1.700
O50    -16.337197160    6.230826086   21.851950644 XXXX 8      o*      O  -0.820
H1      24.212008603   -2.067067846   79.755514699 XXXX 8      hoy     H   0.400
H2      21.672577668    3.735407153   70.857419036 XXXX 8      hoy     H   0.400
H3       7.297789504    8.092565363   18.405027208 XXXX 8      hoy     H   0.400
H4      10.173954701    9.498183476    9.277267669 XXXX 8      hoy     H   0.400
H5       7.591238505    6.879968964    7.982974249 XXXX 8      h*      H   0.410
H6       8.241369270    6.374288886    9.157384009 XXXX 8      h*      H   0.410
H7       4.873598066   10.769490046    7.110855183 XXXX 8      h*      H   0.410
H8       6.024799840   10.395685774    8.020800020 XXXX 8      h*      H   0.410
H9       5.466746280    7.410585437    9.165091903 XXXX 8      h*      H   0.410
H10      6.280429533    8.544502328    8.486849386 XXXX 8      h*      H   0.410
H11      8.189856025    7.469427896    5.452499939 XXXX 8      h*      H   0.410
H12      7.754473563    8.423439405    6.546244339 XXXX 8      h*      H   0.410
H13      0.264134604    5.222753438   20.514723414 XXXX 8      h*      H   0.410
H14     -0.060600606    6.664033134   20.656875363 XXXX 8      h*      H   0.410
H15      7.503556557   17.818480864   19.153539282 XXXX 8      h*      H   0.410
H16      7.082631167   19.244536953   19.371363771 XXXX 8      h*      H   0.410
H17     35.251836376   30.404264644   19.841071507 XXXX 8      h*      H   0.410
H18     35.010717232   31.543129406   18.669475228 XXXX 8      h*      H   0.410
H19      1.451697215  -11.481626093   21.801487059 XXXX 8      h*      H   0.410
H20      0.847767179  -11.528964732   20.407423038 XXXX 8      h*      H   0.410
H21      1.564818957  -15.185410249   18.429406002 XXXX 8      h*      H   0.410
H22      1.015185489  -13.890061433   18.031184153 XXXX 8      h*      H   0.410
H23    -15.322892730    6.195706295   21.659401631 XXXX 8      h*      H   0.410
H24    -16.526162930    6.702134382   21.012787157 XXXX 8      h*      H   0.410
H25     23.479828932   11.445131942   68.900567265 XXXX 8      h*      H   0.410
H26     23.843163261   12.866488420   68.914968939 XXXX 8      h*      H   0.410
H27     20.069239286    0.591817808   81.404424631 XXXX 8      h*      H   0.410
H28     20.480133152   -0.400064475   80.439186952 XXXX 8      h*      H   0.410
H29     17.892061776    4.288544074   81.564260163 XXXX 8      h*      H   0.410
H30     17.978979007    2.914810940   81.355893574 XXXX 8      h*      H   0.410
H31     21.860963402    1.720279041   79.753409400 XXXX 8      h*      H   0.410
H32     22.957364338    1.513864680   80.736042506 XXXX 8      h*      H   0.410
Ca1     -3.821435353   15.034342657   14.813434717 XXXX 9      ca+t    Ca  1.500
Ca2     -6.462711968   16.839486032   12.863472716 XXXX 9      ca+t    Ca  1.500
Si1     -3.725502562   14.694875336   11.649264985 XXXX 9      sc2     Si  1.000
Si2     -3.005576676   16.862621811    9.672489420 XXXX 9      sc3     Si  1.000
Si3     -3.604311021   11.650179547   11.638636670 XXXX 9      sc2     Si  1.000
O1      -3.731446144   15.585657637   10.291435808 XXXX 9      oc12    O  -0.580
O2      -3.639757531   13.201792839   11.108837043 XXXX 9      oc12    O  -0.580
O3      -2.424318039   15.082193535   12.561373711 XXXX 9      oc13    O  -0.940
O4      -5.016289504   14.977973705   12.504588856 XXXX 9      oc13    O  -0.940
O5      10.678809751    5.468993549   80.824775532 XXXX 9      oc22    O  -1.080
O6      -1.398784905   16.814995075    9.883274247 XXXX 9      oc14    O  -0.670
O7      -6.002382636   18.452350815    7.922507439 XXXX 9      o*      O  -0.820
O8      -3.739551355   18.137340185   10.286286409 XXXX 9      oc12    O  -0.580
O9      -4.957035901   11.266438660   12.387645310 XXXX 9      oc13    O  -0.940
O11     10.950073399    9.057457711   80.594401217 XXXX 9      o*      O  -0.820
O12     -5.756554819   15.348068354    8.329994583 XXXX 9      o*      O  -0.820
Ca3     -2.212234804   11.494010373    6.851183703 XXXX 9      casl    Ca  1.700
O13     -3.676454602   15.292195124    5.792041522 XXXX 9      o*      O  -0.820
Ca4      7.456843144    9.068227432   76.225900273 XXXX 9      ca+t    Ca  1.500
Ca5     10.372262118    7.412513758   73.946877937 XXXX 9      ca+t    Ca  1.500
Si4      7.422711242    8.818124588   73.120218474 XXXX 9      sc2     Si  1.000
Si5      8.246977870   10.979792449   71.120079385 XXXX 9      sc3     Si  1.000
Si6      7.428832792    5.816459818   73.161436479 XXXX 9      sc2     Si  1.000
O14      7.443222795    9.665237641   71.710604061 XXXX 9      oc12    O  -0.580
O15      7.386775464    7.352007497   72.575425763 XXXX 9      oc12    O  -0.580
O16      8.804379824    9.057984580   73.934779640 XXXX 9      oc13    O  -0.940
O17      6.153821838    9.096277797   74.082667356 XXXX 9      oc13    O  -0.940
O18     -5.959937526   15.034266903   19.480174204 XXXX 9      oc22    O  -1.080
O19      9.819503628   11.004045067   71.600854310 XXXX 9      oc14    O  -0.670
O20     13.306097961   40.848772150   20.898370597 XXXX 9      o*      O  -0.820
O21      7.283493699    4.907771031   71.806334577 XXXX 9      oc12    O  -0.580
O22      6.244365202    5.623576918   74.177892506 XXXX 9      oc13    O  -0.940
O24    -19.998587228    7.796713298   22.034592628 XXXX 9      o*      O  -0.820
Ca6     10.292720166   10.945175482   74.000238997 XXXX 9      ca+t    Ca  1.500
Ca7      7.511042521    5.470981998   76.325675942 XXXX 9      ca+t    Ca  1.500
Si7     10.261803057   10.687412238   77.138856107 XXXX 9      sc2     Si  1.000
Si8     11.004792451    5.525761205   79.284886581 XXXX 9      sc3     Si  1.000
Si9     10.265366724    7.673054727   77.228633363 XXXX 9      sc2     Si  1.000
O25     10.165719595    4.275645254   78.701114499 XXXX 9      oc12    O  -0.580
O26     10.226098698    9.218102214   77.702740184 XXXX 9      oc12    O  -0.580
O28      8.975055360   10.913389666   76.213099987 XXXX 9      oc13    O  -0.940
O29     -3.337166215   16.943669767    8.171648279 XXXX 9      oc22    O  -1.080
O30     12.631569497    5.346009718   79.111968538 XXXX 9      oc14    O  -0.670
O31      7.410435614    5.248033541   79.085191815 XXXX 9      o*      O  -0.820
O32     10.379615507    6.869628451   78.695616501 XXXX 9      oc12    O  -0.580
O33      8.924316881    7.287080777   76.416126801 XXXX 9      oc13    O  -0.940
O34     11.536100332    7.371584473   76.373660453 XXXX 9      oc13    O  -0.940
O35     -3.091023377   13.005994408    8.406646507 XXXX 9      o*      O  -0.820
O36      5.581127601   10.790615198   82.909985909 XXXX 9      o*      O  -0.820
Ca8     -6.533853135   13.092045793   12.716335143 XXXX 9      ca+t    Ca  1.500
Ca9     -3.505660878   18.750261624   14.772777336 XXXX 9      ca+t    Ca  1.500
Si10    -6.632671191   12.835632094   15.958013378 XXXX 9      sc2     Si  1.000
Si11    -5.750307315   14.945752738   17.933337706 XXXX 9      sc3     Si  1.000
Si12    -6.387259923   17.199344027   15.973897479 XXXX 9      sc2     Si  1.000
O37     -6.660880652   13.734280900   17.302516977 XXXX 9      oc12    O  -0.580
O38     -6.336853588   18.731309059   16.510085747 XXXX 9      oc12    O  -0.580
O40     -7.917362822   12.968574945   14.993835063 XXXX 9      oc13    O  -0.940
O41      8.082459435   10.890773099   69.589283271 XXXX 9      oc22    O  -1.080
O42     -4.126861904   14.752191123   17.531188739 XXXX 9      oc14    O  -0.670
O43     -9.196741484   37.305429692   17.768396048 XXXX 9      o*      O  -0.820
O44     -6.282783650   16.408943835   17.436940217 XXXX 9      oc12    O  -0.580
O45     -7.722879227   16.879890288   15.136778864 XXXX 9      oc13    O  -0.940
O46     -5.094289790   16.920432422   15.046277948 XXXX 9      oc13    O  -0.940
O47      4.515276979   18.104616259   71.066708548 XXXX 9      o*      O  -0.820
O48    -14.361208325   12.627828422   19.734774735 XXXX 9      o*      O  -0.820
O49     39.488217293   50.109081134   21.353491123 XXXX 9      o*      O  -0.820
Ca10     4.523140443   17.551582569   19.968330910 XXXX 9      casl    Ca  1.700
O50      4.765966973   20.351765192   68.349917158 XXXX 9      o*      O  -0.820
H1      12.952150557    4.893556015   79.878741706 XXXX 9      hoy     H   0.400
H2      10.239645260   11.442821678   70.852815991 XXXX 9      hoy     H   0.400
H3      -3.548216136   14.443213233   18.186177032 XXXX 9      hoy     H   0.400
H4      -1.168042450   17.316655559    9.162070899 XXXX 9      hoy     H   0.400
H5      -2.861198746   12.774617652    9.326346795 XXXX 9      h*      H   0.410
H6      -3.733610577   13.676827440    8.715963972 XXXX 9      h*      H   0.410
H7      -5.247688812   17.873445469    8.060935695 XXXX 9      h*      H   0.410
H8      -6.399244201   17.911885585    7.168610735 XXXX 9      h*      H   0.410
H9      -5.619747001   15.768182648    9.169611286 XXXX 9      h*      H   0.410
H10     -4.867722483   15.540133595    7.962933968 XXXX 9      h*      H   0.410
H11     -3.399172601   15.721906004    6.658118246 XXXX 9      h*      H   0.410
H12     -2.810893256   14.799092647    5.674982246 XXXX 9      h*      H   0.410
H13     -9.792228825   37.203814828   18.561875180 XXXX 9      h*      H   0.410
H14     -8.321780795   37.596171764   18.137355162 XXXX 9      h*      H   0.410
H15    -20.217364438    7.917811429   22.962599587 XXXX 9      h*      H   0.410
H16    -20.634262172    7.122251309   21.833539156 XXXX 9      h*      H   0.410
H17     40.426569317   49.924006377   21.115835383 XXXX 9      h*      H   0.410
H18     39.322817121   50.834080000   20.721683923 XXXX 9      h*      H   0.410
H19    -13.589072570   11.981194368   19.564985040 XXXX 9      h*      H   0.410
H20    -13.966884537   13.474467754   19.393381862 XXXX 9      h*      H   0.410
H21      4.464672104   17.163031583   71.395286483 XXXX 9      h*      H   0.410
H22      3.617866982   18.392349843   71.343687520 XXXX 9      h*      H   0.410
H23      5.441101207   21.061293523   68.448259482 XXXX 9      h*      H   0.410
H24      3.908150146   20.781406068   68.410119199 XXXX 9      h*      H   0.410
H25     12.330441949   40.821763347   20.563233032 XXXX 9      h*      H   0.410
H26     13.554436852   39.913550018   20.810000255 XXXX 9      h*      H   0.410
H27      8.098407622    5.848030486   79.461153417 XXXX 9      h*      H   0.410
H28      7.734522377    4.398258597   79.469635504 XXXX 9      h*      H   0.410
H29      5.377080109   10.231644632   82.122518664 XXXX 9      h*      H   0.410
H30      4.861925940   11.419801801   82.766457711 XXXX 9      h*      H   0.410
H31     10.344134489    8.473812677   80.129638098 XXXX 9      h*      H   0.410
H32     11.531639126    9.266488747   79.844130580 XXXX 9      h*      H   0.410
Ca1      7.515819593   15.170594405   14.888021021 XXXX 10     ca+t    Ca  1.500
Ca2      4.794802940   16.862423114   12.802370657 XXXX 10     ca+t    Ca  1.500
Si1      7.564219038   14.708162016   11.750166351 XXXX 10     sc2     Si  1.000
Si2      8.332546487   16.861045058    9.781972641 XXXX 10     sc3     Si  1.000
Si3      7.530618780   11.709015485   11.832214333 XXXX 10     sc2     Si  1.000
O1       7.514464565   15.621655536   10.304756126 XXXX 10     oc12    O  -0.580
O2       7.588449112   13.232481234   11.233592382 XXXX 10     oc12    O  -0.580
O3       8.910446515   15.052376768   12.650341583 XXXX 10     oc13    O  -0.940
O4       6.231026345   14.962294287   12.564257702 XXXX 10     oc13    O  -0.940
O5      22.001362571    5.579501916   80.929162240 XXXX 10     oc22    O  -1.080
O6       9.960494051   16.818123934   10.116423243 XXXX 10     oc14    O  -0.670
O7       5.226118498   18.213681481    8.055777225 XXXX 10     o*      O  -0.820
O8       7.647193488   18.201635423   10.311881967 XXXX 10     oc12    O  -0.580
O9       6.230808784   11.537418450   12.723848498 XXXX 10     oc13    O  -0.940
O11     22.524209966    9.453937722   80.924760978 XXXX 10     o*      O  -0.820
O12      5.263883888   15.026288709    8.156528330 XXXX 10     o*      O  -0.820
Ca3      9.000089749   11.231482999    6.904406849 XXXX 10     casl    Ca  1.700
O13      7.387418066   15.278410648    5.939167409 XXXX 10     o*      O  -0.820
Ca4     18.732624522    9.193956220   76.020876863 XXXX 10     ca+t    Ca  1.500
Ca5     21.775864035    7.353844029   73.976720273 XXXX 10     ca+t    Ca  1.500
Si4     18.794097823    8.824545612   72.896455319 XXXX 10     sc2     Si  1.000
Si5     19.540070935   11.102593893   71.120661844 XXXX 10     sc3     Si  1.000
Si6     18.795370992    5.796716706   72.871937826 XXXX 10     sc2     Si  1.000
O14     18.838659674    9.733521883   71.533069429 XXXX 10     oc12    O  -0.580
O15     18.919154954    7.310619199   72.352007020 XXXX 10     oc12    O  -0.580
O16     20.125557326    9.121145304   73.765466544 XXXX 10     oc13    O  -0.940
O17     17.490645874    9.160876387   73.827317392 XXXX 10     oc13    O  -0.940
O18      5.038260727   15.354003032   19.511950328 XXXX 10     oc22    O  -1.080
O19     21.115206644   11.102736499   71.506557218 XXXX 10     oc14    O  -0.670
O20    -30.442779129   -1.174526257   21.346196355 XXXX 10     o*      O  -0.820
O21     18.868606877    4.842663011   71.538404526 XXXX 10     oc12    O  -0.580
O22     17.368523171    5.628390853   73.644964336 XXXX 10     oc13    O  -0.940
O24     12.267650139  -10.294665872   69.383138945 XXXX 10     o*      O  -0.820
Ca6     21.478867182   10.979396790   74.046115201 XXXX 10     ca+t    Ca  1.500
Ca7     19.046685491    5.521027940   76.267253396 XXXX 10     ca+t    Ca  1.500
Si7     21.601246228   10.690734137   77.347049563 XXXX 10     sc2     Si  1.000
Si8     22.207350224    5.483142044   79.311929025 XXXX 10     sc3     Si  1.000
Si9     21.593512212    7.670330806   77.254163628 XXXX 10     sc2     Si  1.000
O25     21.457501788    4.120096144   78.812416965 XXXX 10     oc12    O  -0.580
O26     21.593989974    9.133519902   77.848942415 XXXX 10     oc12    O  -0.580
O28     20.363549376   11.009732553   76.396709764 XXXX 10     oc13    O  -0.940
O29      8.125930848   16.996915529    8.233806642 XXXX 10     oc22    O  -1.080
O30     23.812731558    5.458870575   79.000799671 XXXX 10     oc14    O  -0.670
O31     18.717520999    5.406554869   78.968033280 XXXX 10     o*      O  -0.820
O32     21.452618735    6.793737702   78.696600635 XXXX 10     oc12    O  -0.580
O33     20.386083655    7.436992441   76.157288621 XXXX 10     oc13    O  -0.940
O34     22.905890514    7.438059828   76.398134494 XXXX 10     oc13    O  -0.940
O35      7.971609174   13.082819047    8.356025681 XXXX 10     o*      O  -0.820
O36     17.768737825   10.489781172   83.020296336 XXXX 10     o*      O  -0.820
Ca8      4.684111467   13.258994757   12.884621000 XXXX 10     ca+t    Ca  1.500
Ca9      7.720352769   18.848432236   14.992975939 XXXX 10     ca+t    Ca  1.500
Si10     4.671209306   12.872736277   16.027343330 XXXX 10     sc2     Si  1.000
Si11     5.275044980   15.158698747   17.936451281 XXXX 10     sc3     Si  1.000
Si12     4.726632404   17.325916617   15.838477161 XXXX 10     sc2     Si  1.000
O37      4.648522204   13.728979783   17.397946139 XXXX 10     oc12    O  -0.580
O38      4.587614529   18.839688114   16.376247304 XXXX 10     oc12    O  -0.580
O40      3.417857597   13.206394918   15.154897182 XXXX 10     oc13    O  -0.940
O41     19.483874202   11.312877468   69.558785936 XXXX 10     oc22    O  -1.080
O42      6.866278928   15.169885797   17.703557349 XXXX 10     oc14    O  -0.670
O43      0.441545191   20.556941883   21.138355000 XXXX 10     o*      O  -0.820
O44      4.565692286   16.415291729   17.204695374 XXXX 10     oc12    O  -0.580
O45      3.483743429   17.049130160   14.793091658 XXXX 10     oc13    O  -0.940
O46      6.082935528   17.054198304   15.059667893 XXXX 10     oc13    O  -0.940
O47     14.133138761   15.916106490   20.520271659 XXXX 10     o*      O  -0.820
O48     13.211243044   15.749102292   67.024544610 XXXX 10     o*      O  -0.820
O49     -1.959332035  -20.475211736   67.491837704 XXXX 10     o*      O  -0.820
Ca10    -2.595903474   18.440273478   20.045082261 XXXX 10     casl    Ca  1.700
O50     -1.487852434   22.352690294   19.524605919 XXXX 10     o*      O  -0.820
H1      24.109236387    5.319981588   79.905911726 XXXX 10     hoy     H   0.400
H2      21.548169285   10.614632645   70.787504779 XXXX 10     hoy     H   0.400
H3       7.083013230   15.045667640   18.585442670 XXXX 10     hoy     H   0.400
H4      10.415028524   16.716603541    9.266905528 XXXX 10     hoy     H   0.400
H5       7.932450115   13.062614902    9.427067929 XXXX 10     h*      H   0.410
H6       7.181177800   13.665803818    8.254594311 XXXX 10     h*      H   0.410
H7       5.073994497   17.660815009    7.229932391 XXXX 10     h*      H   0.410
H8       6.181702950   17.881170690    8.221208716 XXXX 10     h*      H   0.410
H9       5.569551959   14.766696975    9.046169277 XXXX 10     h*      H   0.410
H10      5.980718603   15.629989489    7.934875012 XXXX 10     h*      H   0.410
H11      8.132968436   14.686732053    5.763891193 XXXX 10     h*      H   0.410
H12      7.795838936   15.885689182    6.619032744 XXXX 10     h*      H   0.410
H13      0.161315869   19.961083285   20.378598231 XXXX 10     h*      H   0.410
H14      0.234170626   21.456823484   20.732080934 XXXX 10     h*      H   0.410
H15     12.910370523  -10.801804943   69.965839935 XXXX 10     h*      H   0.410
H16     12.592681785   -9.350708049   69.586135183 XXXX 10     h*      H   0.410
H17     -1.022915047  -20.709984908   67.788463001 XXXX 10     h*      H   0.410
H18     -2.061768795  -19.661596321   67.993375025 XXXX 10     h*      H   0.410
H19     13.514886686   15.036299441   67.693603613 XXXX 10     h*      H   0.410
H20     12.792530572   15.109576526   66.429115196 XXXX 10     h*      H   0.410
H21     15.046295221   15.555616233   20.292814610 XXXX 10     h*      H   0.410
H22     13.687816143   15.081463175   20.863913066 XXXX 10     h*      H   0.410
H23     -1.306742190   22.037352446   18.582320105 XXXX 10     h*      H   0.410
H24     -1.284410786   23.273035115   19.403981749 XXXX 10     h*      H   0.410
H25    -31.137127282   -1.870730436   21.397427591 XXXX 10     h*      H   0.410
H26    -29.622144231   -1.693306691   21.201603718 XXXX 10     h*      H   0.410
H27     18.905262576    5.965192815   79.733437970 XXXX 10     h*      H   0.410
H28     19.318652199    4.643198240   79.115250751 XXXX 10     h*      H   0.410
H29     17.434475835    9.898459788   82.297265699 XXXX 10     h*      H   0.410
H30     18.703110462   10.066360786   83.057285814 XXXX 10     h*      H   0.410
H31     22.616213957    8.807442921   80.267241214 XXXX 10     h*      H   0.410
H32     23.443966932    9.686769515   81.154905729 XXXX 10     h*      H   0.410
Ca1     -3.818666578   22.474765775   14.700033794 XXXX 11     ca+t    Ca  1.500
Ca2     -6.510369838   24.264852503   12.676741165 XXXX 11     ca+t    Ca  1.500
Si1     -3.707620863   22.101024837   11.578577222 XXXX 11     sc2     Si  1.000
Si2     -2.982442696   24.152404259    9.601844568 XXXX 11     sc3     Si  1.000
Si3     -3.755600197   18.999797421   11.679578641 XXXX 11     sc2     Si  1.000
O1      -3.831105950   22.960090577   10.192752135 XXXX 11     oc12    O  -0.580
O2      -3.774471855   20.581410352   11.089635582 XXXX 11     oc12    O  -0.580
O3      -2.305957303   22.293144022   12.270061357 XXXX 11     oc13    O  -0.940
O4      -4.912958286   22.376332388   12.582239237 XXXX 11     oc13    O  -0.940
O5      11.159745435   12.650879838   80.677504910 XXXX 11     oc22    O  -1.080
O6      -1.354856375   23.967372354    9.814905149 XXXX 11     oc14    O  -0.670
O7      -5.949278578   25.912969107    7.449211978 XXXX 11     o*      O  -0.820
O8      -3.602822601   25.567587219   10.122229517 XXXX 11     oc12    O  -0.580
O9      -5.005860392   18.681803223   12.594388747 XXXX 11     oc13    O  -0.940
O11      8.352984887   14.923201708   81.229199742 XXXX 11     o*      O  -0.820
O12     -6.390314188   24.532434537   10.043249838 XXXX 11     o*      O  -0.820
Ca3     -2.403822165   18.665468580    6.863932595 XXXX 11     casl    Ca  1.700
O13     -3.848959057   22.456845102    5.795717817 XXXX 11     o*      O  -0.820
Ca4      7.438796743   16.518028095   76.344447092 XXXX 11     ca+t    Ca  1.500
Ca5     10.382291225   14.666886071   74.220680448 XXXX 11     ca+t    Ca  1.500
Si4      7.667556206   16.226279638   73.109048400 XXXX 11     sc2     Si  1.000
Si6      7.513189208   13.135360613   73.034378497 XXXX 11     sc2     Si  1.000
O14      7.586620331   17.220813327   71.723056848 XXXX 11     oc12    O  -0.580
O15      7.606800316   14.661747836   72.491404478 XXXX 11     oc12    O  -0.580
O16      8.888591874   16.414484526   74.039490142 XXXX 11     oc13    O  -0.940
O17      6.352584968   16.510998736   73.977378461 XXXX 11     oc13    O  -0.940
O18     -5.684204462   22.388116817   19.355945187 XXXX 11     oc22    O  -1.080
O20     -4.838318097    2.483699296   66.381692345 XXXX 11     o*      O  -0.820
O21      7.442930298   12.264302981   71.611418080 XXXX 11     oc12    O  -0.580
O22      6.242620920   12.921910087   73.954888142 XXXX 11     oc13    O  -0.940
Ca7      7.600224955   12.784649975   76.318983327 XXXX 11     ca+t    Ca  1.500
Si7     10.325491945   18.132539527   77.292732826 XXXX 11     sc2     Si  1.000
Si8     11.210277389   12.781023056   79.121693574 XXXX 11     sc3     Si  1.000
Si9     10.372244195   15.079383079   77.348321506 XXXX 11     sc2     Si  1.000
O25     10.260339212   11.621114395   78.499058822 XXXX 11     oc12    O  -0.580
O26     10.366072409   16.631295491   77.892912769 XXXX 11     oc12    O  -0.580
O28      8.991080712   18.355303701   76.365800458 XXXX 11     oc13    O  -0.940
O29     -3.231991962   24.185719752    8.017305936 XXXX 11     oc22    O  -1.080
O30     12.731876918   12.730533172   78.635077729 XXXX 11     oc14    O  -0.670
O31      8.020561799   10.722057420   81.111964004 XXXX 11     o*      O  -0.820
O32     10.501715320   14.213908366   78.671476157 XXXX 11     oc12    O  -0.580
O33      8.996755002   14.742339128   76.592338185 XXXX 11     oc13    O  -0.940
O34     11.636921585   14.780715400   76.372154328 XXXX 11     oc13    O  -0.940
O35     -3.165175159   20.290054911    8.273936649 XXXX 11     o*      O  -0.820
Ca8     -6.605717479   20.594060043   12.752213978 XXXX 11     ca+t    Ca  1.500
Si10    -6.443844545   20.277470563   15.984264545 XXXX 11     sc2     Si  1.000
Si11    -5.618380698   22.452602471   17.800548755 XXXX 11     sc3     Si  1.000
Si12    -6.441728439   24.661644324   15.855435205 XXXX 11     sc2     Si  1.000
O37     -6.374606423   21.131020465   17.317643314 XXXX 11     oc12    O  -0.580
O40     -7.784438506   20.507296497   15.120777832 XXXX 11     oc13    O  -0.940
O42     -4.056289847   22.486126335   17.348858319 XXXX 11     oc14    O  -0.670
O43    -20.729504979   24.684338545   20.275993933 XXXX 11     o*      O  -0.820
O44     -6.367415125   23.806048254   17.311859890 XXXX 11     oc12    O  -0.580
O45     -7.767363043   24.364518817   15.043337848 XXXX 11     oc13    O  -0.940
O46     -5.199566271   24.514305918   14.915301347 XXXX 11     oc13    O  -0.940
O47      3.370245673   27.263855320   68.136046320 XXXX 11     o*      O  -0.820
O48     -2.905932052   49.750797199   19.771213544 XXXX 11     o*      O  -0.820
O49     -9.246152022   21.893592143   18.701922874 XXXX 11     o*      O  -0.820
Ca10    -4.266881506   23.803362115   68.609525500 XXXX 11     casl    Ca  1.700
O50    -11.148599621   -0.850338134   20.764066163 XXXX 11     o*      O  -0.820
H1      13.277797036   12.617063959   79.372407792 XXXX 11     hoy     H   0.400
H3      -3.692143638   22.545202112   18.215596652 XXXX 11     hoy     H   0.400
H4      -1.040021316   23.354088200    9.076302435 XXXX 11     hoy     H   0.400
H5      -3.728861314   20.906989495    7.723668386 XXXX 11     h*      H   0.410
H6      -3.368002819   20.614200758    9.172353426 XXXX 11     h*      H   0.410
H7      -6.491785441   25.280787588    6.881578056 XXXX 11     h*      H   0.410
H8      -5.150100157   25.381871100    7.666584486 XXXX 11     h*      H   0.410
H9      -7.094641123   24.737117941    9.356579277 XXXX 11     h*      H   0.410
H10     -5.809838962   25.249598491    9.803397187 XXXX 11     h*      H   0.410
H11     -3.056462365   21.958704184    5.610664138 XXXX 11     h*      H   0.410
H12     -3.462268753   23.097690336    6.413249983 XXXX 11     h*      H   0.410
H13    -21.587664208   25.231889821   20.153188037 XXXX 11     h*      H   0.410
H14    -20.995265094   23.820196106   20.481322618 XXXX 11     h*      H   0.410
H17     -8.850408114   20.972528297   18.696455099 XXXX 11     h*      H   0.410
H18    -10.057082171   21.746358603   19.186621843 XXXX 11     h*      H   0.410
H19     -2.620155730   50.288920904   19.020267819 XXXX 11     h*      H   0.410
H20     -2.237131286   48.946176989   19.679708429 XXXX 11     h*      H   0.410
H21      2.816413210   27.888553370   68.681800562 XXXX 11     h*      H   0.410
H22      2.726539946   26.716115990   67.722118013 XXXX 11     h*      H   0.410
H23    -11.145901671   -1.783283995   20.391400541 XXXX 11     h*      H   0.410
H24    -12.063518826   -0.812634083   21.133086741 XXXX 11     h*      H   0.410
H25     -4.151604261    2.344897369   65.652427994 XXXX 11     h*      H   0.410
H26     -4.728668416    3.474523066   66.525908897 XXXX 11     h*      H   0.410
H27      7.139792675   10.859999045   81.454301662 XXXX 11     h*      H   0.410
H28      7.806209332   10.015060154   80.433569929 XXXX 11     h*      H   0.410
H31      8.585044145   15.592033093   81.913662452 XXXX 11     h*      H   0.410
H32      9.200615042   14.793057111   80.753662628 XXXX 11     h*      H   0.410
Ca1      7.464714859   22.485038762   14.919951709 XXXX 12     ca+t    Ca  1.500
Ca2      4.950052694   24.343345282   12.731579367 XXXX 12     ca+t    Ca  1.500
Si1      7.536757345   22.048834362   11.704331364 XXXX 12     sc2     Si  1.000
Si2      8.324205120   24.259637070    9.858491315 XXXX 12     sc3     Si  1.000
Si3      7.516241707   19.034093992   11.738592109 XXXX 12     sc2     Si  1.000
O1       7.658169323   22.920670562   10.306762489 XXXX 12     oc12    O  -0.580
O2       7.557615124   20.550957256   11.144451842 XXXX 12     oc12    O  -0.580
O3       8.805515454   22.357679870   12.614802976 XXXX 12     oc13    O  -0.940
O4       6.225145408   22.405276794   12.554861558 XXXX 12     oc13    O  -0.940
O5      22.146779233   12.724733078   80.742891732 XXXX 12     oc22    O  -1.080
O6       9.872033540   24.255633432   10.357079486 XXXX 12     oc14    O  -0.670
O7       5.149608390   25.746876255    8.960695183 XXXX 12     o*      O  -0.820
O8       7.516336078   25.473869696   10.420562315 XXXX 12     oc12    O  -0.580
O9       6.099136248   18.699589654   12.531500478 XXXX 12     oc13    O  -0.940
O11     22.367683086   16.729164718   80.743337011 XXXX 12     o*      O  -0.820
O12      5.447775507   22.990519362    8.287936210 XXXX 12     o*      O  -0.820
Ca3      8.970295299   18.694126359    6.838578212 XXXX 12     casl    Ca  1.700
O13      7.419166157   22.444073555    5.764712618 XXXX 12     o*      O  -0.820
Ca4     18.823376715   16.495292506   76.385894698 XXXX 12     ca+t    Ca  1.500
Ca5     21.873982343   14.622452625   74.059157757 XXXX 12     ca+t    Ca  1.500
Si4     18.838651442   16.246894617   73.166340617 XXXX 12     sc2     Si  1.000
Si6     18.734344953   13.205546716   73.124746943 XXXX 12     sc2     Si  1.000
O14     18.617494609   17.186795696   71.859333551 XXXX 12     oc12    O  -0.580
O15     18.744977252   14.720514874   72.561134788 XXXX 12     oc12    O  -0.580
O16     20.260907880   16.472870771   73.888360201 XXXX 12     oc13    O  -0.940
O17     17.696164198   16.528274913   74.226155055 XXXX 12     oc13    O  -0.940
O18      4.788571589   22.587405753   19.373381158 XXXX 12     oc22    O  -1.080
O20      9.249911533    7.718492217   67.130420009 XXXX 12     o*      O  -0.820
O21     18.733752317   12.343727537   71.739620782 XXXX 12     oc12    O  -0.580
O22     17.435768764   12.841665043   73.938372456 XXXX 12     oc13    O  -0.940
Ca7     18.899962032   12.835555098   76.342462357 XXXX 12     ca+t    Ca  1.500
Si7     21.626851788   18.073020978   77.343200459 XXXX 12     sc2     Si  1.000
Si8     22.383393580   12.745332030   79.201293919 XXXX 12     sc3     Si  1.000
Si9     21.664379009   14.979926148   77.273672423 XXXX 12     sc2     Si  1.000
O25     21.570001651   11.534527767   78.725712435 XXXX 12     oc12    O  -0.580
O26     21.615162555   16.554125006   77.843820467 XXXX 12     oc12    O  -0.580
O28     20.382423563   18.474239581   76.480173853 XXXX 12     oc13    O  -0.940
O29      8.275093267   24.366141601    8.382694394 XXXX 12     oc22    O  -1.080
O30     24.013790373   12.682591425   78.915742008 XXXX 12     oc14    O  -0.670
O31     19.563108631   10.544018209   80.547835054 XXXX 12     o*      O  -0.820
O32     21.726456233   14.121691641   78.671878278 XXXX 12     oc12    O  -0.580
O33     20.369190239   14.682853366   76.458945513 XXXX 12     oc13    O  -0.940
O34     22.948751848   14.768995060   76.376443847 XXXX 12     oc13    O  -0.940
O35      8.009422006   20.357841932    8.222474382 XXXX 12     o*      O  -0.820
Ca8      4.544020450   20.616317480   12.452475904 XXXX 12     ca+t    Ca  1.500
Si10     4.730162114   20.369897890   15.853481727 XXXX 12     sc2     Si  1.000
Si11     5.221638656   22.536588156   17.903169302 XXXX 12     sc3     Si  1.000
Si12     4.718552853   24.647931392   15.823251896 XXXX 12     sc2     Si  1.000
O37      4.610654531   21.214399501   17.298643247 XXXX 12     oc12    O  -0.580
O40      3.514044482   20.646313723   14.905465331 XXXX 12     oc13    O  -0.940
O42      6.822825546   22.534974216   17.818051690 XXXX 12     oc14    O  -0.670
O43     36.001603755   41.853036856   68.301314574 XXXX 12     o*      O  -0.820
O44      4.532039951   23.856082731   17.161565390 XXXX 12     oc12    O  -0.580
O45      3.562951442   24.380294176   14.767257465 XXXX 12     oc13    O  -0.940
O46      6.121279743   24.349945401   15.121565744 XXXX 12     oc13    O  -0.940
O47      2.054304960   16.815179495   19.799961303 XXXX 12     o*      O  -0.820
O48     19.834811871   12.799632963   19.907416801 XXXX 12     o*      O  -0.820
O49    -27.398555528   17.450343802   20.688850822 XXXX 12     o*      O  -0.820
Ca10    15.390870634   32.179356160   19.705223507 XXXX 12     casl    Ca  1.700
O50     26.599137257   26.369848508   70.917558369 XXXX 12     o*      O  -0.820
H1      24.402177894   12.128938851   79.576716637 XXXX 12     hoy     H   0.400
H3       7.078675965   22.381993343   18.680490442 XXXX 12     hoy     H   0.400
H4      10.252427766   24.242237864    9.449664204 XXXX 12     hoy     H   0.400
H5       7.678344712   20.091177621    9.119183519 XXXX 12     h*      H   0.410
H6       8.437238223   21.231879587    8.527800183 XXXX 12     h*      H   0.410
H7       6.048744064   25.991422539    8.698059170 XXXX 12     h*      H   0.410
H8       5.167431751   24.793864039    8.658307069 XXXX 12     h*      H   0.410
H9       5.805374943   22.592550891    9.115678898 XXXX 12     h*      H   0.410
H10      6.356695492   23.366053352    8.000126866 XXXX 12     h*      H   0.410
H11      7.761613301   22.973320465    6.537991654 XXXX 12     h*      H   0.410
H12      8.214200037   21.864378028    5.569380269 XXXX 12     h*      H   0.410
H13     35.857145046   42.325620606   67.468658061 XXXX 12     h*      H   0.410
H14     35.990841825   42.639358698   68.881656534 XXXX 12     h*      H   0.410
H17    -27.791173163   16.646743948   20.247957143 XXXX 12     h*      H   0.410
H18    -28.205928438   17.910001193   21.076101422 XXXX 12     h*      H   0.410
H19     20.549905555   13.213268875   20.392419853 XXXX 12     h*      H   0.410
H20     20.328344379   12.116553165   19.403730017 XXXX 12     h*      H   0.410
H21      1.440801043   16.074013390   19.904317029 XXXX 12     h*      H   0.410
H22      1.365072174   17.507084909   19.737441412 XXXX 12     h*      H   0.410
H23     25.987947938   27.100623779   71.300033316 XXXX 12     h*      H   0.410
H24     26.005477006   25.638621424   71.081408276 XXXX 12     h*      H   0.410
H25      8.477624736    8.129171870   67.578462916 XXXX 12     h*      H   0.410
H26      9.046879000    8.160065716   66.293310099 XXXX 12     h*      H   0.410
H27     20.183321599   10.030747296   79.917647991 XXXX 12     h*      H   0.410
H28     18.720398360   10.064285638   80.381128538 XXXX 12     h*      H   0.410
H31     22.302139994   16.537171868   79.748414936 XXXX 12     h*      H   0.410
H32     23.309259110   16.784965938   80.975882471 XXXX 12     h*      H   0.410
Ca1      8.589672035   -0.164695397   90.149392089 XXXX 13     ca+t    Ca  1.500
Ca2      6.035304615    1.736734899   87.985195580 XXXX 13     ca+t    Ca  1.500
Si1      8.705013999   -0.446342239   86.941425131 XXXX 13     sc2     Si  1.000
Si2      9.565874288    1.673114092   85.035901068 XXXX 13     sc3     Si  1.000
Si3      8.840896341   -3.625290862   86.920035074 XXXX 13     sc2     Si  1.000
O1       8.607979995    0.542851472   85.649970357 XXXX 13     oc12    O  -0.580
O2       8.735432773   -2.042958134   86.338066059 XXXX 13     oc12    O  -0.580
O3      10.013988002   -0.197113498   87.762097300 XXXX 13     oc13    O  -0.940
O4       7.442990579   -0.283978865   87.924598285 XXXX 13     oc13    O  -0.940
O6      11.143859964    1.451900290   85.471626267 XXXX 13     oc14    O  -0.670
O7       6.112003518    2.565566757   84.846924523 XXXX 13     o*      O  -0.820
O8       8.984367061    3.055436451   85.569381062 XXXX 13     oc12    O  -0.580
O9       7.613949243   -3.932602940   87.863276195 XXXX 13     oc13    O  -0.940
O12      6.297673765    0.224619844   83.315432985 XXXX 13     o*      O  -0.820
Ca3     10.190541114   -3.647204005   82.484666855 XXXX 13     casl    Ca  1.700
O13      8.781333409    0.404780283   81.257980679 XXXX 13     o*      O  -0.820
Ca5     10.433283965   -0.121275025  101.564827442 XXXX 13     ca+t    Ca  1.500
Si4      7.464650890    1.331479995  100.960354932 XXXX 13     sc2     Si  1.000
Si5      8.039167742    3.539676967   98.937835478 XXXX 13     sc3     Si  1.000
Si6      7.484385000   -1.743543429  100.947645249 XXXX 13     sc2     Si  1.000
O14      7.360715352    2.272340292   99.537957974 XXXX 13     oc12    O  -0.580
O15      7.332966735   -0.213320632  100.431619119 XXXX 13     oc12    O  -0.580
O16      8.818660247    1.611936729  101.776332720 XXXX 13     oc13    O  -0.940
O17      6.126145844    1.694266008  101.860959764 XXXX 13     oc13    O  -0.940
O18      6.524081077   -0.223862678   94.727826413 XXXX 13     oc22    O  -1.080
O19      9.696819111    3.583566533   99.086210410 XXXX 13     oc14    O  -0.670
O20     10.131504152    0.095120703   98.915529986 XXXX 13     o*      O  -0.820
O21      7.296168004   -2.598191038   99.562402597 XXXX 13     oc12    O  -0.580
O22      6.308337579   -2.062172022  101.990396062 XXXX 13     oc13    O  -0.940
O24      6.117535424    3.615075421   94.580249487 XXXX 13     o*      O  -0.820
Ca6     10.081152902    3.520959109  101.907791294 XXXX 13     ca+t    Ca  1.500
O29      9.414214677    1.756146913   83.487779940 XXXX 13     oc22    O  -1.080
O35      8.450984009   -1.970651190   83.159624779 XXXX 13     o*      O  -0.820
Ca8      5.891978704   -2.078946386   88.009000404 XXXX 13     ca+t    Ca  1.500
Ca9      8.783010469    3.502128656   90.264747472 XXXX 13     ca+t    Ca  1.500
Si10     5.787804239   -2.332419144   91.205495343 XXXX 13     sc2     Si  1.000
Si11     6.669179328   -0.208288458   93.171858618 XXXX 13     sc3     Si  1.000
Si12     5.961059782    2.032603089   91.234573507 XXXX 13     sc2     Si  1.000
O37      5.864722601   -1.474866164   92.572845403 XXXX 13     oc12    O  -0.580
O38      6.029340710    3.588313535   91.826426710 XXXX 13     oc12    O  -0.580
O40      4.557551755   -1.993752974   90.259017460 XXXX 13     oc13    O  -0.940
O41      7.704250884    3.521400060   97.346335700 XXXX 13     oc22    O  -1.080
O42      8.222572294   -0.354787129   92.922043221 XXXX 13     oc14    O  -0.670
O43      9.046035682    4.029126655   93.015432580 XXXX 13     o*      O  -0.820
O44      6.021649234    1.178009714   92.653389335 XXXX 13     oc12    O  -0.580
O45      4.636467453    1.769159348   90.386288111 XXXX 13     oc13    O  -0.940
O46      7.177821954    1.778425861   90.238067732 XXXX 13     oc13    O  -0.940
O47      7.873103760   -0.154264982   97.537394135 XXXX 13     o*      O  -0.820
O48     10.431442560   -2.303745691   96.931273867 XXXX 13     o*      O  -0.820
O49      9.153610410    1.980468822   94.845226055 XXXX 13     o*      O  -0.820
Ca10     6.995686673    1.765217696   95.985972907 XXXX 13     casl    Ca  1.700
O50      3.599451283   -2.027558636   94.888196512 XXXX 13     o*      O  -0.820
H2      10.086713015    2.960998811   98.525764418 XXXX 13     hoy     H   0.400
H3       8.491809073   -0.529960630   93.762361181 XXXX 13     hoy     H   0.400
H4      11.621372975    1.347588263   84.699985253 XXXX 13     hoy     H   0.400
H5       8.480821181   -1.726913931   84.125946152 XXXX 13     h*      H   0.410
H6       7.706625651   -1.443259756   82.825248513 XXXX 13     h*      H   0.410
H7       6.067563897    3.506014782   85.081169663 XXXX 13     h*      H   0.410
H8       7.114914819    2.589762994   84.835556750 XXXX 13     h*      H   0.410
H9       7.007677773    0.674594461   82.830827550 XXXX 13     h*      H   0.410
H10      6.314802389    0.796328226   84.130979749 XXXX 13     h*      H   0.410
H11      9.670717253    0.131859515   80.912874567 XXXX 13     h*      H   0.410
H12      9.044867582    0.598912955   82.181551908 XXXX 13     h*      H   0.410
H13      8.684231230    4.732285341   93.629862515 XXXX 13     h*      H   0.410
H14      9.958616239    4.376716698   93.119686828 XXXX 13     h*      H   0.410
H15      5.851745500    4.564211833   94.648964025 XXXX 13     h*      H   0.410
H16      5.891735700    3.598067894   93.615531152 XXXX 13     h*      H   0.410
H17      9.188798431    2.549740274   93.987357824 XXXX 13     h*      H   0.410
H18     10.040690733    2.346393274   95.140098561 XXXX 13     h*      H   0.410
H19      9.561605897   -2.540482672   96.524589753 XXXX 13     h*      H   0.410
H20     10.042489335   -2.418682202   97.833981646 XXXX 13     h*      H   0.410
H21      7.422445207   -0.382259995   98.369371072 XXXX 13     h*      H   0.410
H22      8.697322502   -0.507651748   97.869101811 XXXX 13     h*      H   0.410
H23      4.266218035   -2.241570576   95.576631716 XXXX 13     h*      H   0.410
H24      4.040423675   -1.269018061   94.415345515 XXXX 13     h*      H   0.410
H25     10.827541580   -0.348845878   98.303701202 XXXX 13     h*      H   0.410
H26     10.212533515    0.991561101   98.575962235 XXXX 13     h*      H   0.410
Ca1     19.979414396   -0.161836305   90.173491014 XXXX 14     ca+t    Ca  1.500
Ca2     17.264012413    1.741877998   87.942014005 XXXX 14     ca+t    Ca  1.500
Si1     20.047432363   -0.411582398   87.014608068 XXXX 14     sc2     Si  1.000
Si2     20.774830763    1.798628165   85.095378916 XXXX 14     sc3     Si  1.000
Si3     19.962692602   -3.548005109   86.897620282 XXXX 14     sc2     Si  1.000
O1      20.001048910    0.487387584   85.675592638 XXXX 14     oc12    O  -0.580
O2      19.935646507   -1.960264424   86.405597315 XXXX 14     oc12    O  -0.580
O3      21.342827786   -0.350979141   87.890782527 XXXX 14     oc13    O  -0.940
O4      18.775410046   -0.077756547   87.913731131 XXXX 14     oc13    O  -0.940
O6      22.372819876    1.691360010   85.439919327 XXXX 14     oc14    O  -0.670
O7      14.825518950    1.662009094   83.611393936 XXXX 14     o*      O  -0.820
O8      20.059291152    3.119428117   85.662751902 XXXX 14     oc12    O  -0.580
O9      18.718514891   -3.893260111   87.779261976 XXXX 14     oc13    O  -0.940
O12     17.310536227    2.363967139   85.319835791 XXXX 14     o*      O  -0.820
Ca3     20.951669994   -3.643443144   82.047590178 XXXX 14     casl    Ca  1.700
O13     17.893034131    0.425639093   83.503596059 XXXX 14     o*      O  -0.820
Ca5     21.508806116   -0.180199589  101.907433755 XXXX 14     ca+t    Ca  1.500
Si4     18.668224694    1.354407192  100.902891088 XXXX 14     sc2     Si  1.000
Si5     19.295595453    3.535086019   99.069226627 XXXX 14     sc3     Si  1.000
Si6     18.813612799   -1.768275590  100.938684755 XXXX 14     sc2     Si  1.000
O14     18.577132366    2.193406816   99.495974352 XXXX 14     oc12    O  -0.580
O15     18.783049986   -0.215029851  100.344781147 XXXX 14     oc12    O  -0.580
O16     20.026584314    1.752944466  101.758517784 XXXX 14     oc13    O  -0.940
O17     17.379539201    1.600584536  101.690043745 XXXX 14     oc13    O  -0.940
O18     18.086108781   -0.042265185   94.673912921 XXXX 14     oc22    O  -1.080
O19     20.859165042    3.546614939   99.546104261 XXXX 14     oc14    O  -0.670
O20     22.096550112    1.064521856   97.826546546 XXXX 14     o*      O  -0.820
O21     18.893101253   -2.599906564   99.523391887 XXXX 14     oc12    O  -0.580
O22     17.351823804   -2.005014298  101.715452820 XXXX 14     oc13    O  -0.940
O24     17.637460889    3.473129763   94.550429113 XXXX 14     o*      O  -0.820
Ca6     21.507543892    3.518983147  101.957363028 XXXX 14     ca+t    Ca  1.500
O29     20.562745649    1.825998985   83.542829871 XXXX 14     oc22    O  -1.080
O35     19.887828285   -2.013506483   83.681612215 XXXX 14     o*      O  -0.820
Ca8     17.261587143   -1.939089744   88.010459123 XXXX 14     ca+t    Ca  1.500
Ca9     20.007275485    3.612902757   90.458363085 XXXX 14     ca+t    Ca  1.500
Si10    17.229992803   -2.311521153   91.270747147 XXXX 14     sc2     Si  1.000
Si11    18.104276202   -0.081786605   93.077788363 XXXX 14     sc3     Si  1.000
Si12    17.195978944    1.984290365   91.121558259 XXXX 14     sc2     Si  1.000
O37     17.379661642   -1.449689956   92.687842240 XXXX 14     oc12    O  -0.580
O38     17.076647132    3.561860639   91.645136157 XXXX 14     oc12    O  -0.580
O40     15.851948371   -2.055393108   90.459364869 XXXX 14     oc13    O  -0.940
O41     19.101842347    3.561343965   97.492890553 XXXX 14     oc22    O  -1.080
O42     19.660237445   -0.020591712   92.556568423 XXXX 14     oc14    O  -0.670
O43     19.533847964    5.448120912   95.400624701 XXXX 14     o*      O  -0.820
O44     17.224698696    1.109551915   92.504214839 XXXX 14     oc12    O  -0.580
O45     15.900415294    1.680033031   90.205255544 XXXX 14     oc13    O  -0.940
O46     18.460095878    1.765264774   90.250563149 XXXX 14     oc13    O  -0.940
O47     19.583507640   -0.096933151   97.576748106 XXXX 14     o*      O  -0.820
O48     21.368000410   -2.376863796   96.691803859 XXXX 14     o*      O  -0.820
O49     20.149378447    3.712517287   93.103353834 XXXX 14     o*      O  -0.820
Ca10    18.680701112    1.776085318   96.045203449 XXXX 14     casl    Ca  1.700
O50     17.217282628   -1.895728058   96.675993112 XXXX 14     o*      O  -0.820
H2      21.208908866    4.003912441   98.837943848 XXXX 14     hoy     H   0.400
H3      20.119078950   -0.192717314   93.344762108 XXXX 14     hoy     H   0.400
H4      22.766489678    1.974410243   84.623762018 XXXX 14     hoy     H   0.400
H5      19.653954849   -2.236500606   84.611703986 XXXX 14     h*      H   0.410
H6      19.531561429   -1.073263270   83.476616748 XXXX 14     h*      H   0.410
H7      14.768231216    1.341103854   84.555363382 XXXX 14     h*      H   0.410
H8      14.396514759    2.525451659   83.765902060 XXXX 14     h*      H   0.410
H9      18.215824633    2.681761784   85.078217325 XXXX 14     h*      H   0.410
H10     16.830527819    3.163132081   84.913561132 XXXX 14     h*      H   0.410
H11     18.718986300    0.893251300   83.248084191 XXXX 14     h*      H   0.410
H12     17.651380414    0.991313639   84.293742819 XXXX 14     h*      H   0.410
H13     18.859453451    6.100652876   95.166947084 XXXX 14     h*      H   0.410
H14     18.998593644    4.895427860   96.015942969 XXXX 14     h*      H   0.410
H15     17.200788549    4.299873536   94.355433917 XXXX 14     h*      H   0.410
H16     17.549334493    3.065410704   93.648370884 XXXX 14     h*      H   0.410
H17     21.070450310    3.424442069   93.428578018 XXXX 14     h*      H   0.410
H18     19.957881330    4.300914473   93.898937816 XXXX 14     h*      H   0.410
H19     20.599030195   -1.735000395   96.700222689 XXXX 14     h*      H   0.410
H20     20.728241334   -3.154264294   96.726603134 XXXX 14     h*      H   0.410
H21     20.427361379    0.278175354   97.889276101 XXXX 14     h*      H   0.410
H22     19.255236064   -0.315223320   98.492906341 XXXX 14     h*      H   0.410
H23     17.717374364   -1.127878180   96.273220400 XXXX 14     h*      H   0.410
H24     18.012712947   -2.528844194   96.822216355 XXXX 14     h*      H   0.410
H25     22.488361121    1.611040107   98.567066038 XXXX 14     h*      H   0.410
H26     22.832565339    0.462475337   97.591020364 XXXX 14     h*      H   0.410
Ca1      8.698399399    7.251391649   90.088848186 XXXX 15     ca+t    Ca  1.500
Ca2      6.015973532    9.130692232   87.925107856 XXXX 15     ca+t    Ca  1.500
Si1      8.839811061    6.997136767   86.919241078 XXXX 15     sc2     Si  1.000
Si2      9.810520806    9.092442849   84.965248167 XXXX 15     sc3     Si  1.000
Si3      8.884722683    3.913277074   86.998961779 XXXX 15     sc2     Si  1.000
O1       8.974194656    7.847125540   85.527895618 XXXX 15     oc12    O  -0.580
O2       8.960213237    5.469697560   86.452049687 XXXX 15     oc12    O  -0.580
O3      10.057519143    7.290174617   87.984220172 XXXX 15     oc13    O  -0.940
O4       7.401092236    7.198728789   87.587222858 XXXX 15     oc13    O  -0.940
O6      11.366750385    9.163018271   85.500078637 XXXX 15     oc14    O  -0.670
O7       6.099588592    9.405665866   85.296621045 XXXX 15     o*      O  -0.820
O8       8.912930591   10.365502927   85.485563842 XXXX 15     oc12    O  -0.580
O9       7.445181589    3.720781209   87.730418832 XXXX 15     oc13    O  -0.940
O12      6.308410707    7.548523644   83.202718898 XXXX 15     o*      O  -0.820
Ca3      9.881591939    3.521287019   82.030542990 XXXX 15     casl    Ca  1.700
O13      8.566705275    7.540632365   81.191035255 XXXX 15     o*      O  -0.820
Ca5     10.241909880    7.298679760  101.651318677 XXXX 15     ca+t    Ca  1.500
Si4      7.365423637    8.762682792  101.113408072 XXXX 15     sc2     Si  1.000
Si5      8.057616409   10.979793414   99.191640996 XXXX 15     sc3     Si  1.000
Si6      7.412613605    5.703401026  100.960297786 XXXX 15     sc2     Si  1.000
O14      7.216625171    9.725220615   99.822700523 XXXX 15     oc12    O  -0.580
O15      7.468046059    7.269114918  100.480207866 XXXX 15     oc12    O  -0.580
O16      8.692638852    9.153184584  101.887122805 XXXX 15     oc13    O  -0.940
O17      6.069288945    8.905909319  102.047728675 XXXX 15     oc13    O  -0.940
O18      6.587581015    7.437850384   94.669857711 XXXX 15     oc22    O  -1.080
O19      9.636980251   10.940237275   99.434967114 XXXX 15     oc14    O  -0.670
O20     10.461743984    7.724247788   98.953618036 XXXX 15     o*      O  -0.820
O21      7.311411257    4.867957458   99.565426520 XXXX 15     oc12    O  -0.580
O22      6.120882828    5.569174726  101.844341214 XXXX 15     oc13    O  -0.940
O24      6.128437309   11.448875524   94.657482293 XXXX 15     o*      O  -0.820
Ca6      9.998401224   10.978652838  102.136702311 XXXX 15     ca+t    Ca  1.500
O29      9.724100918    9.097394169   83.391434175 XXXX 15     oc22    O  -1.080
O35      9.042216331    5.309560637   83.725573769 XXXX 15     o*      O  -0.820
Ca8      5.898705779    5.429160074   87.969825561 XXXX 15     ca+t    Ca  1.500
Ca9      8.896434085   11.055823405   89.994972571 XXXX 15     ca+t    Ca  1.500
Si10     5.980750792    5.057660448   91.293701889 XXXX 15     sc2     Si  1.000
Si11     6.681849439    7.369481128   93.069401797 XXXX 15     sc3     Si  1.000
Si12     5.960175999    9.529546312   91.164147560 XXXX 15     sc2     Si  1.000
O37      5.955387811    6.005480316   92.612093460 XXXX 15     oc12    O  -0.580
O38      5.986537285   11.091292833   91.734268397 XXXX 15     oc12    O  -0.580
O40      4.648620778    5.290629130   90.402549111 XXXX 15     oc13    O  -0.940
O41      7.771471860   10.962528000   97.663124462 XXXX 15     oc22    O  -1.080
O42      8.258782518    7.356355267   92.626576679 XXXX 15     oc14    O  -0.670
O43      9.120774343    9.740803223   94.879701322 XXXX 15     o*      O  -0.820
O44      5.916433733    8.657848495   92.520001444 XXXX 15     oc12    O  -0.580
O45      4.724252794    9.279655140   90.229678248 XXXX 15     oc13    O  -0.940
O46      7.294760349    9.223305889   90.288916943 XXXX 15     oc13    O  -0.940
O47      8.189553766    7.652372609   97.217270442 XXXX 15     o*      O  -0.820
O48      8.787131424    5.428767781   95.315983238 XXXX 15     o*      O  -0.820
O49     11.211039560    9.029967667   96.404294941 XXXX 15     o*      O  -0.820
Ca10     6.958791427    9.454421904   95.926180374 XXXX 15     casl    Ca  1.700
O50      6.043839815    5.834864571   96.987868691 XXXX 15     o*      O  -0.820
H2       9.930604449   10.998509069   98.536412554 XXXX 15     hoy     H   0.400
H3       8.736592994    7.292887808   93.448176571 XXXX 15     hoy     H   0.400
H4      11.810717658    9.221865403   84.652597140 XXXX 15     hoy     H   0.400
H5       8.896425395    6.270576530   83.932104060 XXXX 15     h*      H   0.410
H6       8.827308278    5.000360728   84.664810571 XXXX 15     h*      H   0.410
H7       6.911483523    9.988755528   85.263737657 XXXX 15     h*      H   0.410
H8       5.604123658    9.969167573   84.668858187 XXXX 15     h*      H   0.410
H9       6.371034411    8.171366451   83.958417450 XXXX 15     h*      H   0.410
H10      7.064753138    7.845176878   82.587949906 XXXX 15     h*      H   0.410
H11      9.295641081    6.885842511   81.271822483 XXXX 15     h*      H   0.410
H12      8.983454222    8.158707448   81.841068795 XXXX 15     h*      H   0.410
H13      9.581873379   10.173634225   94.107616670 XXXX 15     h*      H   0.410
H14      9.906180423    9.595032581   95.486341426 XXXX 15     h*      H   0.410
H15      6.187981003   11.214122817   93.687381913 XXXX 15     h*      H   0.410
H16      6.160052738   12.412903850   94.724459265 XXXX 15     h*      H   0.410
H17     12.044113822    8.570622920   96.636936868 XXXX 15     h*      H   0.410
H18     11.524103969    9.766717438   95.822497478 XXXX 15     h*      H   0.410
H19      8.140864603    6.156719229   95.375968698 XXXX 15     h*      H   0.410
H20      8.363620820    4.911453585   96.057639450 XXXX 15     h*      H   0.410
H21      8.760266588    8.121506307   97.910351536 XXXX 15     h*      H   0.410
H22      7.978385903    6.916177108   97.871569533 XXXX 15     h*      H   0.410
H23      6.722828610    5.100366738   97.196564528 XXXX 15     h*      H   0.410
H24      6.341819597    6.326818889   96.196707856 XXXX 15     h*      H   0.410
H25     11.024650362    6.989115979   98.679499506 XXXX 15     h*      H   0.410
H26     11.026730441    8.435742577   98.604325473 XXXX 15     h*      H   0.410
Ca1     19.919194366    7.350740362   90.230484753 XXXX 16     ca+t    Ca  1.500
Ca2     17.265147116    9.230147696   88.050005443 XXXX 16     ca+t    Ca  1.500
Si1     20.003244562    7.012855007   87.049108129 XXXX 16     sc2     Si  1.000
Si2     20.763209864    9.222613083   85.037095739 XXXX 16     sc3     Si  1.000
Si3     20.061584360    3.917746821   87.083813409 XXXX 16     sc2     Si  1.000
O1      19.982158580    7.885633260   85.622202253 XXXX 16     oc12    O  -0.580
O2      20.023604919    5.459543414   86.530847455 XXXX 16     oc12    O  -0.580
O3      21.305219454    7.338494031   87.872879852 XXXX 16     oc13    O  -0.940
O4      18.656807272    7.291913063   87.890855536 XXXX 16     oc13    O  -0.940
O6      22.385307759    9.206046347   85.434615338 XXXX 16     oc14    O  -0.670
O7      17.329812302    9.437067856   85.449021059 XXXX 16     o*      O  -0.820
O8      20.054922921   10.511182356   85.623970179 XXXX 16     oc12    O  -0.580
O9      18.795673005    3.635710152   87.979237350 XXXX 16     oc13    O  -0.940
O12     17.859936018    7.120744123   83.315850385 XXXX 16     o*      O  -0.820
Ca3     21.066874305    3.672423706   82.166811129 XXXX 16     casl    Ca  1.700
O13     19.858154205    7.356298854   81.506393906 XXXX 16     o*      O  -0.820
Ca5     21.629379573    7.271883954  101.347235100 XXXX 16     ca+t    Ca  1.500
Si4     18.614300464    8.884803210  100.973019209 XXXX 16     sc2     Si  1.000
Si5     19.271640112   10.936070726   98.845413180 XXXX 16     sc3     Si  1.000
Si6     18.622531172    5.718340896  100.992909633 XXXX 16     sc2     Si  1.000
O14     18.601525663    9.638812506   99.561123677 XXXX 16     oc12    O  -0.580
O15     18.663575460    7.321111009  100.435503674 XXXX 16     oc12    O  -0.580
O16     20.008696226    9.171727492  101.705031860 XXXX 16     oc13    O  -0.940
O17     17.279546040    9.210897798  101.810384948 XXXX 16     oc13    O  -0.940
O18     17.571190934    7.172320050   94.619774143 XXXX 16     oc22    O  -1.080
O19     20.869408392   10.981700489   98.933684744 XXXX 16     oc14    O  -0.670
O20     21.128271625    7.529339623   98.721018793 XXXX 16     o*      O  -0.820
O21     18.482482849    4.832182720   99.654147613 XXXX 16     oc12    O  -0.580
O22     17.334230037    5.538309456  101.930784353 XXXX 16     oc13    O  -0.940
O24     17.347243784   11.150373570   94.712047454 XXXX 16     o*      O  -0.820
Ca6     21.439842999   10.987175416  101.458540407 XXXX 16     ca+t    Ca  1.500
O29     20.560751997    9.294346168   83.494181051 XXXX 16     oc22    O  -1.080
O35     20.586913440    5.479983399   83.815331912 XXXX 16     o*      O  -0.820
Ca8     17.171901091    5.384265064   88.079554598 XXXX 16     ca+t    Ca  1.500
Ca9     20.125380615   11.067694600   90.300949535 XXXX 16     ca+t    Ca  1.500
Si10    17.077712815    5.074253637   91.148648827 XXXX 16     sc2     Si  1.000
Si11    17.744677297    7.237399801   93.088083271 XXXX 16     sc3     Si  1.000
Si12    17.153381456    9.503887776   91.205232293 XXXX 16     sc2     Si  1.000
O37     16.952855614    5.945286319   92.486380726 XXXX 16     oc12    O  -0.580
O38     17.189354808   11.049107362   91.818704181 XXXX 16     oc12    O  -0.580
O40     15.846383687    5.308457453   90.233019641 XXXX 16     oc13    O  -0.940
O41     18.826045020   10.848790323   97.363546046 XXXX 16     oc22    O  -1.080
O42     19.320976884    7.115628301   92.772253082 XXXX 16     oc14    O  -0.670
O43     20.148998201   10.857844060   92.978742356 XXXX 16     o*      O  -0.820
O44     17.116420697    8.641203823   92.593486191 XXXX 16     oc12    O  -0.580
O45     15.872290518    9.189563427   90.290945149 XXXX 16     oc13    O  -0.940
O46     18.454933746    9.241150555   90.348788470 XXXX 16     oc13    O  -0.940
O47     18.105499490    7.240222400   97.600185902 XXXX 16     o*      O  -0.820
O48     21.810816758    5.042914472   97.202648027 XXXX 16     o*      O  -0.820
O49     20.272840750    9.000098475   95.454836377 XXXX 16     o*      O  -0.820
Ca10    17.864447215    9.044253536   95.998467493 XXXX 16     casl    Ca  1.700
O50     16.475487122    4.913771098   97.573320513 XXXX 16     o*      O  -0.820
H2      21.108423503   10.853629699   98.070398775 XXXX 16     hoy     H   0.400
H3      19.611527452    6.976136387   93.647047680 XXXX 16     hoy     H   0.400
H4      22.752670074    9.768516629   84.794269016 XXXX 16     hoy     H   0.400
H5      20.251210086    6.381731716   83.962899988 XXXX 16     h*      H   0.410
H6      20.269076513    4.984616058   84.578031473 XXXX 16     h*      H   0.410
H7      18.229162848    9.959730212   85.318719287 XXXX 16     h*      H   0.410
H8      16.827870226    9.656730827   84.604001384 XXXX 16     h*      H   0.410
H9      18.237241158    7.702303405   83.995710243 XXXX 16     h*      H   0.410
H10     18.562188778    7.226334422   82.567955969 XXXX 16     h*      H   0.410
H11     20.141528744    8.167485794   81.999297133 XXXX 16     h*      H   0.410
H12     20.686763513    6.821441920   81.430235334 XXXX 16     h*      H   0.410
H13     19.990040620   11.432420573   93.731724533 XXXX 16     h*      H   0.410
H14     20.940238021   10.340298256   93.283253466 XXXX 16     h*      H   0.410
H15     17.442154868   12.152026403   94.722041931 XXXX 16     h*      H   0.410
H16     17.218809357   11.097641347   93.703937512 XXXX 16     h*      H   0.410
H17     20.781724366    8.914766839   94.640006605 XXXX 16     h*      H   0.410
H18     21.041347717    9.149889131   96.059780442 XXXX 16     h*      H   0.410
H19     20.957290552    5.021430110   96.696641580 XXXX 16     h*      H   0.410
H20     21.635689064    5.953563464   97.597222486 XXXX 16     h*      H   0.410
H21     17.867095915    6.247730400   97.405420862 XXXX 16     h*      H   0.410
H22     18.171572224    7.003493515   98.554020918 XXXX 16     h*      H   0.410
H23     17.228736035    4.333141291   97.838106977 XXXX 16     h*      H   0.410
H24     16.082053406    4.348384124   96.882001554 XXXX 16     h*      H   0.410
H25     21.598161138    8.154518127   98.089551823 XXXX 16     h*      H   0.410
H26     20.252866888    7.940680684   98.534605038 XXXX 16     h*      H   0.410
Ca1      8.706698957   14.743797389   90.177341951 XXXX 17     ca+t    Ca  1.500
Ca2      6.132060167   16.530842664   87.908125951 XXXX 17     ca+t    Ca  1.500
Si1      8.725970700   14.306732962   86.958048912 XXXX 17     sc2     Si  1.000
Si2      9.289498528   16.470880647   85.031806854 XXXX 17     sc3     Si  1.000
Si3      8.782028813   11.204672284   86.865397887 XXXX 17     sc2     Si  1.000
O1       8.507865049   15.257043099   85.654068557 XXXX 17     oc12    O  -0.580
O2       8.767447510   12.786447353   86.338779114 XXXX 17     oc12    O  -0.580
O3      10.064885528   14.661941337   87.768568678 XXXX 17     oc13    O  -0.940
O4       7.465846349   14.476453190   87.885416671 XXXX 17     oc13    O  -0.940
O6      10.878866404   16.351375454   85.289861507 XXXX 17     oc14    O  -0.670
O7       6.258714987   17.896938883   83.181338254 XXXX 17     o*      O  -0.820
O8       8.770846217   17.791485900   85.507330098 XXXX 17     oc12    O  -0.580
O9       7.416606894   10.898881284   87.697844056 XXXX 17     oc13    O  -0.940
O12      6.548977127   14.631427118   83.412531122 XXXX 17     o*      O  -0.820
Ca3     10.237829450   10.826412103   81.933963770 XXXX 17     casl    Ca  1.700
O13      7.781341169   12.966659776   79.038306322 XXXX 17     o*      O  -0.820
Ca5     10.403633218   14.711869694  101.832157984 XXXX 17     ca+t    Ca  1.500
Si4      7.321547143   16.169282744  101.124464208 XXXX 17     sc2     Si  1.000
Si6      7.389089637   13.127946623  101.106905688 XXXX 17     sc2     Si  1.000
O14      7.132196825   17.023152152   99.748343154 XXXX 17     oc12    O  -0.580
O15      7.304050140   14.692295417  100.542277990 XXXX 17     oc12    O  -0.580
O16      8.691018414   16.559792440  101.893732550 XXXX 17     oc13    O  -0.940
O17      6.010805274   16.376719171  101.938986038 XXXX 17     oc13    O  -0.940
O18      6.471135050   14.681728460   94.675851672 XXXX 17     oc22    O  -1.080
O20     10.265161758   15.000679941   99.240722075 XXXX 17     o*      O  -0.820
O21      7.380169995   12.298755733   99.734529055 XXXX 17     oc12    O  -0.580
O22      6.112664834   12.713656631  102.013025423 XXXX 17     oc13    O  -0.940
O29      9.046152847   16.553000567   83.541014554 XXXX 17     oc22    O  -1.080
O35      9.359465087   12.454562258   83.416424983 XXXX 17     o*      O  -0.820
Ca8      5.881485332   12.800140901   88.003408079 XXXX 17     ca+t    Ca  1.500
Si10     5.971295449   12.613243210   91.175971290 XXXX 17     sc2     Si  1.000
Si11     6.681347133   14.794515297   93.138345160 XXXX 17     sc3     Si  1.000
Si12     5.865045324   16.906887609   91.227740846 XXXX 17     sc2     Si  1.000
O37      5.949295159   13.515360837   92.503523804 XXXX 17     oc12    O  -0.580
O40      4.627313819   12.862018360   90.295024977 XXXX 17     oc13    O  -0.940
O42      8.270781087   14.800200675   92.883521561 XXXX 17     oc14    O  -0.670
O43      8.086950457   19.838545928   95.392963896 XXXX 17     o*      O  -0.820
O44      6.048646991   16.096307655   92.637606330 XXXX 17     oc12    O  -0.580
O45      4.560264849   16.455275013   90.442820727 XXXX 17     oc13    O  -0.940
O46      7.153464552   16.761602717   90.241202860 XXXX 17     oc13    O  -0.940
O47      9.014217794   16.704459774   95.128726152 XXXX 17     o*      O  -0.820
O48     10.047095102   12.952537100   96.674539185 XXXX 17     o*      O  -0.820
O49      8.876964365   18.620358163   92.827830108 XXXX 17     o*      O  -0.820
Ca10     6.676760407   16.485113789   96.071048808 XXXX 17     casl    Ca  1.700
O50      5.647503741   13.129339898   97.124190011 XXXX 17     o*      O  -0.820
H3       8.455293857   14.961955401   93.797137905 XXXX 17     hoy     H   0.400
H4      11.158845262   15.793861544   84.544223179 XXXX 17     hoy     H   0.400
H5       8.931006711   12.127104163   84.271914342 XXXX 17     h*      H   0.410
H6       9.577965480   13.358979513   83.629790688 XXXX 17     h*      H   0.410
H7       5.918622188   17.415964596   82.337635645 XXXX 17     h*      H   0.410
H8       7.169198054   17.519635389   83.322737533 XXXX 17     h*      H   0.410
H9       7.223769264   14.956496701   84.063128634 XXXX 17     h*      H   0.410
H10      7.270856773   14.253462058   82.791317290 XXXX 17     h*      H   0.410
H11      8.511913356   13.584239919   79.006669372 XXXX 17     h*      H   0.410
H12      8.277786886   12.165268128   79.456600888 XXXX 17     h*      H   0.410
H13      7.377608548   20.586874261   95.269878518 XXXX 17     h*      H   0.410
H14      7.644343394   19.227299353   96.000774562 XXXX 17     h*      H   0.410
H17      8.335578375   18.952867419   93.590185400 XXXX 17     h*      H   0.410
H18      9.775450393   18.684147752   93.136251725 XXXX 17     h*      H   0.410
H19      9.466992730   12.226513816   96.560079677 XXXX 17     h*      H   0.410
H20      9.448084940   13.446450607   97.342205081 XXXX 17     h*      H   0.410
H21      9.678836276   16.564173526   95.835970543 XXXX 17     h*      H   0.410
H22      9.636570772   17.108213695   94.432248023 XXXX 17     h*      H   0.410
H23      6.211478084   12.350629475   97.415431905 XXXX 17     h*      H   0.410
H24      6.030593367   13.495032166   96.264585955 XXXX 17     h*      H   0.410
H25     11.197955083   14.917753867   99.169216840 XXXX 17     h*      H   0.410
H26     10.098449451   15.322215979   98.317110841 XXXX 17     h*      H   0.410
Ca1     20.041916921   14.652083171   90.161800139 XXXX 18     ca+t    Ca  1.500
Ca2     17.322806819   16.481965160   87.911607653 XXXX 18     ca+t    Ca  1.500
Si1     20.002090518   14.453330053   86.914941197 XXXX 18     sc2     Si  1.000
Si2     20.801051543   16.558146040   84.903592753 XXXX 18     sc3     Si  1.000
Si3     20.058960087   11.357838191   86.999761586 XXXX 18     sc2     Si  1.000
O1      19.999952812   15.328157714   85.536090618 XXXX 18     oc12    O  -0.580
O2      20.061653601   12.890996836   86.406049699 XXXX 18     oc12    O  -0.580
O3      21.278624172   14.771421254   87.923670886 XXXX 18     oc13    O  -0.940
O4      18.759552624   14.675802466   87.808196202 XXXX 18     oc13    O  -0.940
O6      22.370922020   16.519601798   85.338931968 XXXX 18     oc14    O  -0.670
O7      17.749742657   15.541399966   83.409485618 XXXX 18     o*      O  -0.820
O8      20.098968205   17.894677598   85.454158209 XXXX 18     oc12    O  -0.580
O9      18.711132714   11.106915413   87.829945844 XXXX 18     oc13    O  -0.940
O12     20.013638756   14.909310234   81.160671995 XXXX 18     o*      O  -0.820
Ca3     21.267346318   11.137858238   82.211673372 XXXX 18     casl    Ca  1.700
O13     18.924465426   12.985042600   79.226396724 XXXX 18     o*      O  -0.820
Ca5     21.747536084   14.530324722  101.634683970 XXXX 18     ca+t    Ca  1.500
Si4     18.746625025   16.194741250  100.936063053 XXXX 18     sc2     Si  1.000
Si6     18.588288510   13.083422929  100.835376392 XXXX 18     sc2     Si  1.000
O14     18.781025557   17.035711997   99.494360018 XXXX 18     oc12    O  -0.580
O15     18.521032955   14.638949024  100.347448201 XXXX 18     oc12    O  -0.580
O16     20.189446198   16.361589327  101.713882619 XXXX 18     oc13    O  -0.940
O17     17.468531904   16.603700736  101.761851537 XXXX 18     oc13    O  -0.940
O18     17.858991729   14.636269388   94.772441158 XXXX 18     oc22    O  -1.080
O20     22.262913702   12.553875911   96.934478013 XXXX 18     o*      O  -0.820
O21     18.601275914   12.268517391   99.391048677 XXXX 18     oc12    O  -0.580
O22     17.269607477   12.770722064  101.712466658 XXXX 18     oc13    O  -0.940
O29     20.544766418   16.535341598   83.290452725 XXXX 18     oc22    O  -1.080
O35     20.255738152   13.101540744   83.244492072 XXXX 18     o*      O  -0.820
Ca8     17.118115306   12.835549496   88.099913547 XXXX 18     ca+t    Ca  1.500
Si10    17.230080296   12.577709422   91.276557426 XXXX 18     sc2     Si  1.000
Si11    18.055273827   14.698668671   93.211863158 XXXX 18     sc3     Si  1.000
Si12    17.310224842   16.794671197   91.265052970 XXXX 18     sc2     Si  1.000
O37     17.249887520   13.414355044   92.633108961 XXXX 18     oc12    O  -0.580
O40     15.950901278   12.889470192   90.410282851 XXXX 18     oc13    O  -0.940
O42     19.594499074   14.709628040   92.735521877 XXXX 18     oc14    O  -0.670
O43     20.545680765   17.195630892   94.560550197 XXXX 18     o*      O  -0.820
O44     17.282846586   16.018019048   92.674099306 XXXX 18     oc12    O  -0.580
O45     16.024931968   16.551225857   90.308761109 XXXX 18     oc13    O  -0.940
O46     18.650619137   16.408122886   90.466985496 XXXX 18     oc13    O  -0.940
O47     19.450402597   14.622552657   97.225115200 XXXX 18     o*      O  -0.820
O48     19.983263671   12.429077031   95.349011308 XXXX 18     o*      O  -0.820
O49     22.524410917   16.841622756   96.665801137 XXXX 18     o*      O  -0.820
Ca10    18.543721648   16.557555601   95.938768404 XXXX 18     casl    Ca  1.700
O50     14.730327779   12.630979639   95.000069806 XXXX 18     o*      O  -0.820
H3      20.118025245   14.685291643   93.518738203 XXXX 18     hoy     H   0.400
H4      22.808594887   16.308586796   84.577854786 XXXX 18     hoy     H   0.400
H5      19.976436019   13.873833045   82.721114458 XXXX 18     h*      H   0.410
H6      20.060742556   13.416733366   84.166485094 XXXX 18     h*      H   0.410
H7      18.080552825   15.281763774   84.287981556 XXXX 18     h*      H   0.410
H8      18.395574367   16.310037778   83.250887592 XXXX 18     h*      H   0.410
H9      20.877803690   14.617877538   80.814511643 XXXX 18     h*      H   0.410
H10     20.366557917   15.560574829   81.827657659 XXXX 18     h*      H   0.410
H11     19.401285300   13.664739875   79.640992389 XXXX 18     h*      H   0.410
H12     19.278283901   12.202376459   79.651937172 XXXX 18     h*      H   0.410
H13     21.188127624   17.407510394   95.264456435 XXXX 18     h*      H   0.410
H14     21.075091750   17.214841137   93.741305898 XXXX 18     h*      H   0.410
H17     22.967847491   17.145937146   95.831263062 XXXX 18     h*      H   0.410
H18     23.216986709   16.169149031   97.010605893 XXXX 18     h*      H   0.410
H19     19.399475449   13.240892425   95.397086680 XXXX 18     h*      H   0.410
H20     19.356777581   11.895253466   95.939953480 XXXX 18     h*      H   0.410
H21     19.150899870   13.819814315   97.769539392 XXXX 18     h*      H   0.410
H22     20.124391229   14.967160094   97.889514444 XXXX 18     h*      H   0.410
H23     15.003633084   13.196724858   95.839732141 XXXX 18     h*      H   0.410
H24     15.305630823   13.174555539   94.389633101 XXXX 18     h*      H   0.410
H25     21.509043010   12.288194072   96.351292621 XXXX 18     h*      H   0.410
H26     21.865437846   13.257729540   97.520970146 XXXX 18     h*      H   0.410
O36     -4.150852361    3.801462962    5.013471480 XXXX 19     o*      O  -0.820
H29     -4.000271705    4.278165230    4.175818343 XXXX 19     h*      H   0.410
H30     -4.593602952    2.958565480    4.729140136 XXXX 19     h*      H   0.410
O36      6.525645778    3.940047365    6.447981701 XXXX 20     o*      O  -0.820
H29      6.177010786    4.817109737    6.071610323 XXXX 20     h*      H   0.410
H30      5.807230469    3.256556922    6.205976397 XXXX 20     h*      H   0.410
Si5      8.139815088   -3.704511974   71.155368690 XXXX 21     sc3     Si  1.000
O19      9.781294686   -3.598025173   71.302998411 XXXX 21     oc14    O  -0.670
O24     31.824229050  -28.342637681   19.966380564 XXXX 21     o*      O  -0.820
Ca6     10.238526659   -3.861795193   74.073374097 XXXX 21     ca+t    Ca  1.500
O36      8.709284471   -4.451156586   80.771629623 XXXX 21     o*      O  -0.820
Ca9     -3.503233256    3.937768963   14.848016675 XXXX 21     ca+t    Ca  1.500
O38     -6.522365315    3.931053360   16.438767052 XXXX 21     oc12    O  -0.580
O41      7.778947061   -3.647387419   69.657684140 XXXX 21     oc22    O  -1.080
H2      10.050718499   -2.962081434   70.657706034 XXXX 21     hoy     H   0.400
H15     32.487971085  -27.613853045   20.115662007 XXXX 21     h*      H   0.410
H16     32.152134925  -28.744291860   19.157346605 XXXX 21     h*      H   0.410
H29      8.840464987   -3.992140690   79.946654351 XXXX 21     h*      H   0.410
H30      8.038932292   -5.108823472   80.497589152 XXXX 21     h*      H   0.410
Si5     19.360595538   -3.881717693   71.081474598 XXXX 22     sc3     Si  1.000
O19     20.982345753   -3.986819022   71.093936771 XXXX 22     oc14    O  -0.670
O24     38.489682932   -4.794509392   69.892498813 XXXX 22     o*      O  -0.820
Ca6     21.670517688   -3.955372177   74.134404833 XXXX 22     ca+t    Ca  1.500
O36     18.457431377   -4.004722381   81.679387024 XXXX 22     o*      O  -0.820
Ca9      7.759434106    3.871817397   14.943945872 XXXX 22     ca+t    Ca  1.500
O38      4.624317627    3.857939425   16.385479711 XXXX 22     oc12    O  -0.580
O41     18.825961449   -3.912831638   69.621771108 XXXX 22     oc22    O  -1.080
H2      21.229268519   -3.854472225   70.212254333 XXXX 22     hoy     H   0.400
H15     39.322023979   -4.453245708   69.547608639 XXXX 22     h*      H   0.410
H16     39.010366917   -5.349922186   70.532357247 XXXX 22     h*      H   0.410
H29     17.909241502   -3.224763040   81.397190165 XXXX 22     h*      H   0.410
H30     17.759745035   -4.599599674   81.311986388 XXXX 22     h*      H   0.410
Si5      7.848179858   -3.999829612   98.935960326 XXXX 23     sc3     Si  1.000
O19      9.502481922   -4.022316354   99.078055506 XXXX 23     oc14    O  -0.670
O24      5.720974988   -3.916218276   94.579982970 XXXX 23     o*      O  -0.820
Ca6     10.180323038   -3.745046382  101.712399327 XXXX 23     ca+t    Ca  1.500
Ca9      8.772241416   -3.840177745   90.159546427 XXXX 23     ca+t    Ca  1.500
O38      5.709900912   -3.821838630   91.735414522 XXXX 23     oc12    O  -0.580
O41      7.392334582   -4.131022157   97.473941540 XXXX 23     oc22    O  -1.080
H2       9.793839704   -4.493793573   98.339703071 XXXX 23     hoy     H   0.400
H15      5.836046066   -3.028690737   94.235357171 XXXX 23     h*      H   0.410
H16      5.503878139   -4.473930306   93.776942155 XXXX 23     h*      H   0.410
Si5     19.568412847   -3.980946403   98.996598535 XXXX 24     sc3     Si  1.000
O19     21.193921554   -4.026616059   99.324941656 XXXX 24     oc14    O  -0.670
O24     17.328139209   -3.962651063   94.796871936 XXXX 24     o*      O  -0.820
Ca6     21.489778947   -3.998867637  101.941192011 XXXX 24     ca+t    Ca  1.500
Ca9     20.021805203   -3.892585546   90.032985718 XXXX 24     ca+t    Ca  1.500
O38     17.313256864   -3.871496038   91.826520338 XXXX 24     oc12    O  -0.580
O41     19.359751675   -4.011425098   97.442855819 XXXX 24     oc22    O  -1.080
H2      21.524863429   -3.717303341   98.571113113 XXXX 24     hoy     H   0.400
H15     17.303412859   -3.034083378   94.580600101 XXXX 24     h*      H   0.410
H16     16.877909083   -4.333352045   94.018260872 XXXX 24     h*      H   0.410
O5       4.254113978    9.259698671    5.484918975 XXXX 25     oc22    O  -1.080
O11      4.405447092    5.919502386    5.249640747 XXXX 25     o*      O  -0.820
Ca4      0.790483881    5.618451862    0.824306829 XXXX 25     ca+t    Ca  1.500
Ca7      0.913128926    9.361376310    0.910068795 XXXX 25     ca+t    Ca  1.500
Si7      3.650055826    7.188618387    1.949372927 XXXX 25     sc2     Si  1.000
Si8      4.413977689    9.370211856    3.909745007 XXXX 25     sc3     Si  1.000
Si9      3.615783136    4.079633447    1.998797862 XXXX 25     sc2     Si  1.000
O25      3.598034449    8.215572907    3.252596025 XXXX 25     oc12    O  -0.580
O26      3.634567701    5.625910363    2.559849481 XXXX 25     oc12    O  -0.580
O28      2.432757775    7.470763122    0.937746545 XXXX 25     oc13    O  -0.940
O30      6.013220961    9.255539326    3.568879542 XXXX 25     oc14    O  -0.670
O31      0.939702418    9.496380047    3.770831671 XXXX 25     o*      O  -0.820
O32      3.779276427   10.773294293    3.455631927 XXXX 25     oc12    O  -0.580
O33      2.344808600    3.870544038    1.042806593 XXXX 25     oc13    O  -0.940
O36      0.967396891    7.497756524    6.141560464 XXXX 25     o*      O  -0.820
H1       6.385151057    8.808773446    4.382738741 XXXX 25     hoy     H   0.400
H27      1.427145416   10.272825448    4.004025141 XXXX 25     h*      H   0.410
H28      1.655556903    8.769958160    3.874136039 XXXX 25     h*      H   0.410
H29      0.516180137    6.775615042    5.610287694 XXXX 25     h*      H   0.410
H30      0.212261149    8.168598105    6.094227315 XXXX 25     h*      H   0.410
H31      5.197878059    5.867988789    4.663541326 XXXX 25     h*      H   0.410
H32      3.708655740    5.701806882    4.581546758 XXXX 25     h*      H   0.410
O5      15.500030808    9.367808076    5.704540578 XXXX 26     oc22    O  -1.080
O11     15.754842744    5.831385125    5.586931217 XXXX 26     o*      O  -0.820
Ca4     12.112139054    5.610036759    1.203279075 XXXX 26     ca+t    Ca  1.500
Ca7     12.246901882    9.362620070    1.106181776 XXXX 26     ca+t    Ca  1.500
Si7     14.972533104    7.266489096    2.146478808 XXXX 26     sc2     Si  1.000
Si8     15.787168807    9.424510471    4.167560644 XXXX 26     sc3     Si  1.000
Si9     15.098324612    4.079255143    2.115559516 XXXX 26     sc2     Si  1.000
O25     15.035030427    8.139094887    3.515578134 XXXX 26     oc12    O  -0.580
O26     15.073960443    5.682802979    2.722319207 XXXX 26     oc12    O  -0.580
O28     13.637688604    7.481644834    1.305245891 XXXX 26     oc13    O  -0.940
O30     17.456997732    9.428653872    3.871278175 XXXX 26     oc14    O  -0.670
O31     12.403230242    9.338974539    4.062499177 XXXX 26     o*      O  -0.820
O32     15.092866306   10.785664771    3.612632210 XXXX 26     oc12    O  -0.580
O33     13.739690229    3.867586532    1.229574493 XXXX 26     oc13    O  -0.940
O36     11.986199021    7.237198653    6.816405823 XXXX 26     o*      O  -0.820
H1      17.757056006    8.790182032    4.557027625 XXXX 26     hoy     H   0.400
H27     12.823785709   10.186863580    4.427594164 XXXX 26     h*      H   0.410
H28     13.169744405    8.737309661    3.992838321 XXXX 26     h*      H   0.410
H29     12.195161254    6.296878384    7.218231995 XXXX 26     h*      H   0.410
H30     11.096758631    6.960291909    6.497603922 XXXX 26     h*      H   0.410
H31     15.797968140    5.489145732    4.640346378 XXXX 26     h*      H   0.410
H32     16.249997797    5.069622864    6.024494252 XXXX 26     h*      H   0.410
O5       4.253275843   16.842335599    5.544592395 XXXX 27     oc22    O  -1.080
O11      4.453900629   13.027417675    5.626316684 XXXX 27     o*      O  -0.820
Ca4      0.778338620   13.167322555    0.998701017 XXXX 27     ca+t    Ca  1.500
Ca7      0.883447030   16.753340509    0.958080737 XXXX 27     ca+t    Ca  1.500
Si7      3.652012310   14.685516944    2.091956944 XXXX 27     sc2     Si  1.000
Si8      4.388981495   16.837113987    4.006701231 XXXX 27     sc3     Si  1.000
Si9      3.633016971   11.618243175    2.021939612 XXXX 27     sc2     Si  1.000
O25      3.648862207   15.559643657    3.471609093 XXXX 27     oc12    O  -0.580
O26      3.541464657   13.171603374    2.540947303 XXXX 27     oc12    O  -0.580
O28      2.391251733   15.019903763    1.129934124 XXXX 27     oc13    O  -0.940
O30      5.964078009   16.830653780    3.559668866 XXXX 27     oc14    O  -0.670
O31      0.886862878   17.095614516    3.558536012 XXXX 27     o*      O  -0.820
O32      3.655387457   18.127633703    3.467414113 XXXX 27     oc12    O  -0.580
O33      2.377175409   11.180182982    1.153511097 XXXX 27     oc13    O  -0.940
O34      4.997164007   11.432669434    1.141942369 XXXX 27     oc13    O  -0.940
O36      0.727717662   14.854737409    6.428561959 XXXX 27     o*      O  -0.820
H1       6.473655301   16.419645553    4.245562099 XXXX 27     hoy     H   0.400
H27      0.315172401   17.729675620    4.058451647 XXXX 27     h*      H   0.410
H28      1.674671856   17.122658387    4.146365304 XXXX 27     h*      H   0.410
H29     -0.109352261   14.401677971    6.071549812 XXXX 27     h*      H   0.410
H30      0.731223170   14.257889561    7.291166769 XXXX 27     h*      H   0.410
H31      4.423253668   12.106547908    5.245944244 XXXX 27     h*      H   0.410
H32      4.907703563   13.471504723    4.872890018 XXXX 27     h*      H   0.410
O5      15.213510902   16.804871124    5.554139525 XXXX 28     oc22    O  -1.080
O11     15.611468636   13.266960476    5.687254916 XXXX 28     o*      O  -0.820
Ca4     12.114647821   13.195497418    1.019207075 XXXX 28     ca+t    Ca  1.500
Ca7     12.157961089   16.854254824    1.040925707 XXXX 28     ca+t    Ca  1.500
Si7     14.891194329   14.580433815    2.130883652 XXXX 28     sc2     Si  1.000
Si8     15.570937766   16.804864055    4.000056216 XXXX 28     sc3     Si  1.000
Si9     15.000557609   11.526094928    2.175905323 XXXX 28     sc2     Si  1.000
O25     14.859493535   15.477230938    3.507427613 XXXX 28     oc12    O  -0.580
O26     14.964516006   13.026190038    2.701672027 XXXX 28     oc12    O  -0.580
O28     13.600688559   14.873836302    1.300657182 XXXX 28     oc13    O  -0.940
O30     17.191563835   16.806484782    3.756079929 XXXX 28     oc14    O  -0.670
O31     12.253820010   16.894440890    4.106216756 XXXX 28     o*      O  -0.820
O32     14.802379615   18.105923897    3.421178910 XXXX 28     oc12    O  -0.580
O33     13.686355769   11.251402924    1.350928332 XXXX 28     oc13    O  -0.940
O34     16.291092854   11.263884357    1.231988509 XXXX 28     oc13    O  -0.940
O36     12.181516533   14.696328230    6.146645476 XXXX 28     o*      O  -0.820
H1      17.578854360   16.293333995    4.446910660 XXXX 28     hoy     H   0.400
H27     12.764507686   17.693538615    4.416189372 XXXX 28     h*      H   0.410
H28     12.941476648   16.229254723    4.225756632 XXXX 28     h*      H   0.410
H29     11.474023646   14.047218292    5.950970287 XXXX 28     h*      H   0.410
H30     11.650178130   15.490168559    6.311454617 XXXX 28     h*      H   0.410
H31     16.469199139   13.386439119    5.216638164 XXXX 28     h*      H   0.410
H32     15.099008405   12.920998280    4.928222451 XXXX 28     h*      H   0.410
O5       4.311991778   24.404377830    5.484163300 XXXX 29     oc22    O  -1.080
O11      5.047588039   20.658404334    6.549327710 XXXX 29     o*      O  -0.820
Ca4      0.798965216   20.572115381    0.958224367 XXXX 29     ca+t    Ca  1.500
Ca7      0.871472571   24.292083568    0.963009663 XXXX 29     ca+t    Ca  1.500
Si7      3.644207000   22.065277357    2.081244821 XXXX 29     sc2     Si  1.000
Si8      4.490861567   24.287651938    3.988872674 XXXX 29     sc3     Si  1.000
Si9      3.639399830   19.047931621    2.108595302 XXXX 29     sc2     Si  1.000
O25      3.776326785   22.861844214    3.505053136 XXXX 29     oc12    O  -0.580
O26      3.544843979   20.560892167    2.648832821 XXXX 29     oc12    O  -0.580
O28      2.302005615   22.435057813    1.277786960 XXXX 29     oc13    O  -0.940
O30      6.064417058   24.304761063    3.601252251 XXXX 29     oc14    O  -0.670
O31      0.980680179   24.675096866    3.702725639 XXXX 29     o*      O  -0.820
O32      3.614259706   25.452548739    3.361797051 XXXX 29     oc12    O  -0.580
O33      2.362401399   18.741558512    1.142220821 XXXX 29     oc13    O  -0.940
O34      4.947947023   18.815890415    1.156313190 XXXX 29     oc13    O  -0.940
O36      1.517691812   22.462312546    5.305797152 XXXX 29     o*      O  -0.820
H1       6.366833920   23.815071659    4.358991028 XXXX 29     hoy     H   0.400
H27      1.799439279   25.079900209    4.052441245 XXXX 29     h*      H   0.410
H28      0.377673579   25.177131416    4.200184016 XXXX 29     h*      H   0.410
H29      1.470308833   23.024284213    4.496391344 XXXX 29     h*      H   0.410
H30      1.283726425   21.578334779    4.951018806 XXXX 29     h*      H   0.410
H31      5.951728779   20.690957720    6.309136732 XXXX 29     h*      H   0.410
H32      4.951253871   19.835851410    7.065391972 XXXX 29     h*      H   0.410
O5      15.471026125   24.082465066    5.636008627 XXXX 30     oc22    O  -1.080
O11     16.939813033   22.381544246    8.093898207 XXXX 30     o*      O  -0.820
Ca4     11.985029268   20.589962941    1.012410940 XXXX 30     ca+t    Ca  1.500
Ca7     12.100214704   24.257326856    1.048343567 XXXX 30     ca+t    Ca  1.500
Si7     14.802258422   22.013351098    2.141431617 XXXX 30     sc2     Si  1.000
Si8     15.701105151   24.094683360    4.104243386 XXXX 30     sc3     Si  1.000
Si9     14.864131988   18.993380478    2.067024371 XXXX 30     sc2     Si  1.000
O25     14.764027417   22.875739415    3.477473452 XXXX 30     oc12    O  -0.580
O26     14.843122072   20.467415800    2.672847080 XXXX 30     oc12    O  -0.580
O28     13.586976603   22.395412679    1.126356911 XXXX 30     oc13    O  -0.940
O30     17.266281013   23.943123672    3.777663544 XXXX 30     oc14    O  -0.670
O31     12.113684212   24.650028478    3.599946083 XXXX 30     o*      O  -0.820
O32     15.071810826   25.421274025    3.537609173 XXXX 30     oc12    O  -0.580
O33     13.623742429   18.726188877    1.103769437 XXXX 30     oc13    O  -0.940
O34     16.228104948   18.737216202    1.269696359 XXXX 30     oc13    O  -0.940
O36     12.652770308   22.223039342    5.670522279 XXXX 30     o*      O  -0.820
H1      17.568799868   23.506491704    4.598152845 XXXX 30     hoy     H   0.400
H27     12.773719860   25.104416333    4.199615608 XXXX 30     h*      H   0.410
H28     11.331402977   25.172740248    3.685675504 XXXX 30     h*      H   0.410
H29     12.030634595   21.623119371    5.231107342 XXXX 30     h*      H   0.410
H30     12.908991776   22.727376260    4.836221753 XXXX 30     h*      H   0.410
H31     17.080709236   22.516255151    9.048455884 XXXX 30     h*      H   0.410
H32     17.815159344   22.716505534    7.767999639 XXXX 30     h*      H   0.410
Ca1      1.945770550    3.801737908   15.008809328 XXXX 31     ca+t    Ca  1.500
Ca2     -0.748195037    5.778206120   12.746619004 XXXX 31     ca+t    Ca  1.500
Si1      1.950052162   11.048557701   11.673257982 XXXX 31     sc2     Si  1.000
Si2      2.689031519    5.780441650    9.722174513 XXXX 31     sc3     Si  1.000
Si3      2.026175948    8.013454375   11.642923041 XXXX 31     sc2     Si  1.000
O1       1.882745830    4.509859322   10.158215075 XXXX 31     oc12    O  -0.580
O2       1.954316910    9.549435216   11.081983752 XXXX 31     oc12    O  -0.580
O3       3.294010023   11.389258326   12.512672222 XXXX 31     oc13    O  -0.940
O4       0.608145793   11.332635202   12.610981176 XXXX 31     oc13    O  -0.940
O5      16.584205305    1.871340341   80.784093197 XXXX 31     oc22    O  -1.080
O6       4.267335679    5.773073745   10.112981855 XXXX 31     oc14    O  -0.670
O7      -0.845375030    6.820317527    8.212754424 XXXX 31     o*      O  -0.820
O8       1.978215163    7.122100334   10.277103582 XXXX 31     oc12    O  -0.580
O9       0.760123132    7.703996614   12.602778777 XXXX 31     oc13    O  -0.940
O11     17.345615336   -1.654347738   80.723290154 XXXX 31     o*      O  -0.820
O12     -0.062359313    3.945106295    8.063205300 XXXX 31     o*      O  -0.820
Ca3      3.361375010    7.609865151    6.867751258 XXXX 31     casl    Ca  1.700
O13      2.033069743    3.963252477    5.873287844 XXXX 31     o*      O  -0.820
Ca4     13.077449936   -1.932604525   76.282613346 XXXX 31     ca+t    Ca  1.500
Ca5     16.274777335   -3.872098690   74.320739500 XXXX 31     ca+t    Ca  1.500
Si4     13.147595682   -2.356870679   73.108982786 XXXX 31     sc2     Si  1.000
Si5     13.906738888   -0.202358791   71.217984839 XXXX 31     sc3     Si  1.000
Si6     13.056681256    2.003969663   73.112806856 XXXX 31     sc2     Si  1.000
O14     13.250397787   -1.555380078   71.726686362 XXXX 31     oc12    O  -0.580
O15     13.046541536    3.457859759   72.475074531 XXXX 31     oc12    O  -0.580
O16     14.440154471   -1.957775456   74.030128755 XXXX 31     oc13    O  -0.940
O17     11.886309004   -2.033982773   73.944760329 XXXX 31     oc13    O  -0.940
O18     -0.309982239    3.932552730   19.411236503 XXXX 31     oc22    O  -1.080
O19     15.488353586   -0.118228446   71.539217331 XXXX 31     oc14    O  -0.670
O20      5.910535862   13.085873388   21.273467299 XXXX 31     o*      O  -0.820
O21     13.092234162    1.083565456   71.763381946 XXXX 31     oc12    O  -0.580
O22     11.796531195    1.781398952   74.099695041 XXXX 31     oc13    O  -0.940
O24     -3.744687473   -1.663992365   20.629817870 XXXX 31     o*      O  -0.820
Ca6     15.894981976   -0.056962272   74.150686117 XXXX 31     ca+t    Ca  1.500
Ca7     13.159630510    1.813263179   76.308079778 XXXX 31     ca+t    Ca  1.500
Si7     15.955689049   -0.412034598   77.386488048 XXXX 31     sc2     Si  1.000
Si8     16.787070661    1.779760983   79.280881664 XXXX 31     sc3     Si  1.000
Si9     16.003065700   -3.442808595   77.489862587 XXXX 31     sc2     Si  1.000
O25     15.960976789    0.482915077   78.800173930 XXXX 31     oc12    O  -0.580
O26     16.026366309   -1.923457946   78.063346993 XXXX 31     oc12    O  -0.580
O28     14.714274833   -0.253234495   76.457817413 XXXX 31     oc13    O  -0.940
O29      2.568298666    5.873718394    8.124915022 XXXX 31     oc22    O  -1.080
O30     18.378620209    1.696060571   78.925051975 XXXX 31     oc14    O  -0.670
O31     13.490499134    1.945182803   78.928760473 XXXX 31     o*      O  -0.820
O32     16.057724873    3.084932204   78.716562439 XXXX 31     oc12    O  -0.580
O33     14.682104935   -3.691072362   76.724484967 XXXX 31     oc13    O  -0.940
O35      2.520673431    9.418714180    8.278809635 XXXX 31     o*      O  -0.820
O36     11.438551237   -0.317462241   82.810562331 XXXX 31     o*      O  -0.820
Ca8     -0.884651234    9.571494228   12.819686982 XXXX 31     ca+t    Ca  1.500
Ca9      2.084131128    7.733220787   14.828176292 XXXX 31     ca+t    Ca  1.500
Si10    -0.865037299    9.188709836   15.918401786 XXXX 31     sc2     Si  1.000
Si11    -0.140152304    3.869187621   17.896585487 XXXX 31     sc3     Si  1.000
Si12    -0.785440754    6.134268068   15.979344840 XXXX 31     sc2     Si  1.000
O37     -0.915877227   10.068731817   17.282844390 XXXX 31     oc12    O  -0.580
O38     -0.857820884    7.683633791   16.474707497 XXXX 31     oc12    O  -0.580
O40     -2.201402182    9.395921778   15.036524950 XXXX 31     oc13    O  -0.940
O41     13.669350635   -0.259526189   69.669235407 XXXX 31     oc22    O  -1.080
O42      1.488870006    3.890092084   17.582280625 XXXX 31     oc14    O  -0.670
O43      4.692250682    2.048241189   69.053900511 XXXX 31     o*      O  -0.820
O44     -0.864035529    5.228863783   17.388527746 XXXX 31     oc12    O  -0.580
O45     -1.968596829    5.806352840   14.917513654 XXXX 31     oc13    O  -0.940
O46      0.596277525    5.807905481   15.285767860 XXXX 31     oc13    O  -0.940
O48      8.468915069   -1.942823526   19.938314598 XXXX 31     o*      O  -0.820
O49     -6.817907134    1.468357004   68.965117099 XXXX 31     o*      O  -0.820
Ca10    13.631612975   -5.128397000   68.971843646 XXXX 31     casl    Ca  1.700
O50     16.956437923   11.790427481   19.812623726 XXXX 31     o*      O  -0.820
H1      18.714511464    1.112629791   79.580255398 XXXX 31     hoy     H   0.400
H2      15.785899193   -0.180867539   70.605455887 XXXX 31     hoy     H   0.400
H4       4.610358880    4.982303434    9.615887591 XXXX 31     hoy     H   0.400
H5       2.723017441   10.395123966    8.501532019 XXXX 31     h*      H   0.410
H6       2.135401273    9.140956788    9.171282007 XXXX 31     h*      H   0.410
H7       0.135508950    6.897921032    8.236965542 XXXX 31     h*      H   0.410
H8      -0.893951394    6.368782574    7.318661291 XXXX 31     h*      H   0.410
H9       0.671455695    3.922121772    7.406502700 XXXX 31     h*      H   0.410
H10      0.410290475    4.489573388    8.727874591 XXXX 31     h*      H   0.410
H11      2.449978713    4.583831650    6.536349167 XXXX 31     h*      H   0.410
H12      2.853531211    3.436685630    5.752358162 XXXX 31     h*      H   0.410
H13      3.912362515    1.501722291   69.260312193 XXXX 31     h*      H   0.410
H14      5.248201668    1.285128406   68.758662894 XXXX 31     h*      H   0.410
H15     -4.585694829   -1.083435743   20.477561899 XXXX 31     h*      H   0.410
H16     -3.178563916   -0.885099257   20.736308686 XXXX 31     h*      H   0.410
H17     -7.069760564    2.385433598   69.202043007 XXXX 31     h*      H   0.410
H18     -7.731837787    1.022397264   69.135120442 XXXX 31     h*      H   0.410
H19      8.759856188   -1.617529180   19.045285441 XXXX 31     h*      H   0.410
H20      9.259612751   -2.524574095   20.061753878 XXXX 31     h*      H   0.410
H23     16.524629788   12.663636349   19.750520163 XXXX 31     h*      H   0.410
H24     17.920284345   12.092577261   19.853752034 XXXX 31     h*      H   0.410
H25      5.434350202   13.795127535   20.632534714 XXXX 31     h*      H   0.410
H26      6.813830351   13.016376547   20.822636859 XXXX 31     h*      H   0.410
H27     13.919025162    2.790348610   78.829424957 XXXX 31     h*      H   0.410
H28     14.094686087    1.552728076   79.533634013 XXXX 31     h*      H   0.410
H29     10.696614946    0.211952486   83.219107381 XXXX 31     h*      H   0.410
H30     10.980957539   -0.902763428   82.170015632 XXXX 31     h*      H   0.410
H31     17.019278277   -1.715791559   79.794966130 XXXX 31     h*      H   0.410
H32     18.146070401   -1.076345918   80.692207674 XXXX 31     h*      H   0.410
Ca1     13.056585979    3.931619839   15.002491314 XXXX 32     ca+t    Ca  1.500
Ca2     10.429748947    5.762277600   12.788974366 XXXX 32     ca+t    Ca  1.500
Si1     13.185672245   10.948800825   11.655025994 XXXX 32     sc2     Si  1.000
Si2     13.950377257    5.676132992    9.757854137 XXXX 32     sc3     Si  1.000
Si3     13.247807369    7.826300515   11.681460741 XXXX 32     sc2     Si  1.000
O1      13.156270620    4.426278034   10.283953010 XXXX 32     oc12    O  -0.580
O2      13.189324175    9.384399617   11.099672115 XXXX 32     oc12    O  -0.580
O3      14.466205722   11.163774735   12.571421512 XXXX 32     oc13    O  -0.940
O4      11.934010616   11.288322301   12.515475728 XXXX 32     oc13    O  -0.940
O5      27.636238233    1.822992897   80.934205585 XXXX 32     oc22    O  -1.080
O6      15.550481931    5.586268530   10.156271040 XXXX 32     oc14    O  -0.670
O7      10.502424206    6.679225820   10.020044056 XXXX 32     o*      O  -0.820
O8      13.291076245    6.959008705   10.318814709 XXXX 32     oc12    O  -0.580
O9      11.925651176    7.542300845   12.505515632 XXXX 32     oc13    O  -0.940
O11     28.054524970   -1.976624861   81.150861779 XXXX 32     o*      O  -0.820
O12     11.252037643    4.057242764    8.254004822 XXXX 32     o*      O  -0.820
Ca3     14.614301136    7.663360611    6.979519881 XXXX 32     casl    Ca  1.700
O13     13.147663464    4.236405226    6.078917474 XXXX 32     o*      O  -0.820
Ca4     24.303743067   -1.977771820   76.440559730 XXXX 32     ca+t    Ca  1.500
Ca5     27.498359915   -3.797410235   74.460124943 XXXX 32     ca+t    Ca  1.500
Si4     24.453094134   -2.309445724   73.069962701 XXXX 32     sc2     Si  1.000
Si5     25.272983648   -0.025311839   71.224927024 XXXX 32     sc3     Si  1.000
Si6     24.376509705    2.058315066   73.167320360 XXXX 32     sc2     Si  1.000
O14     24.469557334   -1.363301083   71.738642844 XXXX 32     oc12    O  -0.580
O15     24.428119191    3.642146886   72.653632144 XXXX 32     oc12    O  -0.580
O16     25.805180357   -2.148942449   73.989661175 XXXX 32     oc13    O  -0.940
O17     23.147989614   -2.096790971   74.020141336 XXXX 32     oc13    O  -0.940
O18     10.948227056    3.903536176   19.573480003 XXXX 32     oc22    O  -1.080
O19     26.821832267   -0.114966111   71.721958405 XXXX 32     oc14    O  -0.670
O20     27.558171016  -26.208110782   22.228881184 XXXX 32     o*      O  -0.820
O21     24.432419058    1.246628541   71.745080840 XXXX 32     oc12    O  -0.580
O22     23.125376283    1.750461798   74.074456868 XXXX 32     oc13    O  -0.940
O24     -3.228038408   15.285497406   69.108169225 XXXX 32     o*      O  -0.820
Ca6     27.195104958   -0.040394953   74.200458704 XXXX 32     ca+t    Ca  1.500
Ca7     24.509504032    1.730767230   76.478544752 XXXX 32     ca+t    Ca  1.500
Si7     27.310397934   -0.480138420   77.478883128 XXXX 32     sc2     Si  1.000
Si8     27.978348184    1.752302587   79.361246504 XXXX 32     sc3     Si  1.000
Si9     27.362945131   -3.510245329   77.484470693 XXXX 32     sc2     Si  1.000
O25     27.304569923    0.499240195   78.836132553 XXXX 32     oc12    O  -0.580
O26     27.403265545   -1.977441386   78.063334181 XXXX 32     oc12    O  -0.580
O28     25.957411182   -0.238666743   76.630804489 XXXX 32     oc13    O  -0.940
O29     13.845719791    5.794203434    8.220359479 XXXX 32     oc22    O  -1.080
O30     29.665314669    1.806422548   79.135718992 XXXX 32     oc14    O  -0.670
O31     24.479901522    1.880553181   79.171460114 XXXX 32     o*      O  -0.820
O32     27.221337924    3.081118237   78.808805639 XXXX 32     oc12    O  -0.580
O33     25.995374550   -3.736030972   76.700812550 XXXX 32     oc13    O  -0.940
O35     13.890178237    9.624222147    8.239036322 XXXX 32     o*      O  -0.820
O36     24.221942329   -0.427754348   81.844250201 XXXX 32     o*      O  -0.820
Ca8     10.302663033    9.506472835   12.620043296 XXXX 32     ca+t    Ca  1.500
Ca9     13.296245719    7.532626482   14.969010994 XXXX 32     ca+t    Ca  1.500
Si10    10.332369434    9.128447360   15.961885507 XXXX 32     sc2     Si  1.000
Si11    11.076116111    3.890909630   18.019687112 XXXX 32     sc3     Si  1.000
Si12    10.427717809    6.061458818   16.045869506 XXXX 32     sc2     Si  1.000
O37     10.331374746    9.999408642   17.320350235 XXXX 32     oc12    O  -0.580
O38     10.310095196    7.602205853   16.588611379 XXXX 32     oc12    O  -0.580
O40      9.016567223    9.446470159   14.996472544 XXXX 32     oc13    O  -0.940
O41     25.306388610   -0.023983605   69.638963698 XXXX 32     oc22    O  -1.080
O42     12.683479921    3.811084782   17.693889371 XXXX 32     oc14    O  -0.670
O43     29.253602178  -22.544166464   69.758680364 XXXX 32     o*      O  -0.820
O44     10.367552539    5.175892880   17.424956305 XXXX 32     oc12    O  -0.580
O45      9.166430180    5.665730985   15.109587159 XXXX 32     oc13    O  -0.940
O46     11.763712017    5.787747587   15.245074711 XXXX 32     oc13    O  -0.940
O48    -13.903105376    5.269004483   19.918478359 XXXX 32     o*      O  -0.820
O49     10.267008876  -17.285280754   68.885988964 XXXX 32     o*      O  -0.820
Ca10    28.182311337   18.128381361   68.766662986 XXXX 32     casl    Ca  1.700
O50     33.128014340    9.675684731   68.625345002 XXXX 32     o*      O  -0.820
H1      30.045511368    1.455713244   79.925592197 XXXX 32     hoy     H   0.400
H2      27.343659604    0.078668065   70.939503497 XXXX 32     hoy     H   0.400
H4      15.925428690    5.512569552    9.305504226 XXXX 32     hoy     H   0.400
H5      13.407519619    9.577112266    9.112195591 XXXX 32     h*      H   0.410
H6      14.279358298   10.527963400    8.317726375 XXXX 32     h*      H   0.410
H7      10.155086042    6.848451832    9.124941868 XXXX 32     h*      H   0.410
H8      11.355223701    7.119431052    9.945435471 XXXX 32     h*      H   0.410
H9      11.865434087    4.428587843    8.920754656 XXXX 32     h*      H   0.410
H10     11.957350507    4.167935847    7.525097304 XXXX 32     h*      H   0.410
H11     13.931880148    3.907809579    5.615205509 XXXX 32     h*      H   0.410
H12     13.616666685    4.576932081    6.848220092 XXXX 32     h*      H   0.410
H13     29.566625462  -23.431658985   69.929921408 XXXX 32     h*      H   0.410
H14     29.569785471  -22.059452908   70.543668196 XXXX 32     h*      H   0.410
H15     -3.368191844   16.255828254   68.872526527 XXXX 32     h*      H   0.410
H16     -3.348159185   15.422987555   70.027431875 XXXX 32     h*      H   0.410
H17     10.780556115  -18.157528420   68.722070151 XXXX 32     h*      H   0.410
H18      9.255779906  -17.660665477   69.055010501 XXXX 32     h*      H   0.410
H19    -13.556871495    5.841192069   19.184920258 XXXX 32     h*      H   0.410
H20    -13.074078320    4.675518945   19.950619966 XXXX 32     h*      H   0.410
H23     32.270943026   10.216639666   68.658808606 XXXX 32     h*      H   0.410
H24     33.706815711   10.489813002   68.791529883 XXXX 32     h*      H   0.410
H25     27.920162353  -25.309116809   22.265935584 XXXX 32     h*      H   0.410
H26     27.980853397  -26.582642558   23.006551620 XXXX 32     h*      H   0.410
H27     24.556640689    2.805499040   79.502165657 XXXX 32     h*      H   0.410
H28     25.325023097    1.476201456   79.455816584 XXXX 32     h*      H   0.410
H29     24.434615416   -1.140615487   82.489688543 XXXX 32     h*      H   0.410
H30     23.358393631   -0.818346442   81.501146846 XXXX 32     h*      H   0.410
H31     28.388158137   -2.820993654   81.546851844 XXXX 32     h*      H   0.410
H32     27.984838966   -2.431044191   80.164650463 XXXX 32     h*      H   0.410
Ca1      1.796670662   11.365668003   14.788070609 XXXX 33     ca+t    Ca  1.500
Ca2     -0.818001176   13.356415516   12.517997256 XXXX 33     ca+t    Ca  1.500
Si1      1.928025856   18.362974925   11.390557725 XXXX 33     sc2     Si  1.000
Si2      2.535775021   13.045087835    9.646909916 XXXX 33     sc3     Si  1.000
Si3      2.031909472   15.361069269   11.526401853 XXXX 33     sc2     Si  1.000
O1       1.821362264   11.828638052   10.297722315 XXXX 33     oc12    O  -0.580
O2       2.115771242   16.844963204   10.905203543 XXXX 33     oc12    O  -0.580
O3       3.127165102   18.836935377   12.372879051 XXXX 33     oc13    O  -0.940
O4       0.547606107   18.580268045   12.142624267 XXXX 33     oc13    O  -0.940
O5      16.342028435    8.729330521   80.749248371 XXXX 33     oc22    O  -1.080
O6       4.156746970   12.918159243    9.757495580 XXXX 33     oc14    O  -0.670
O7      -0.905511581   13.666852525    9.916744636 XXXX 33     o*      O  -0.820
O8       1.949422544   14.439851350   10.194340568 XXXX 33     oc12    O  -0.580
O9       0.729883484   15.184500090   12.410933933 XXXX 33     oc13    O  -0.940
O11     16.500154363    5.612461540   80.679421609 XXXX 33     o*      O  -0.820
O12     -0.158207017   11.322144134    8.202383982 XXXX 33     o*      O  -0.820
Ca3      3.262720055   14.918526898    6.728275768 XXXX 33     casl    Ca  1.700
O13      1.856462746   11.904820891    5.507736540 XXXX 33     o*      O  -0.820
Ca4     13.045006712    5.425435280   76.091163708 XXXX 33     ca+t    Ca  1.500
Ca5     16.005657023    3.636028863   74.101875490 XXXX 33     ca+t    Ca  1.500
Si4     13.033490082    5.042909748   72.913811507 XXXX 33     sc2     Si  1.000
Si5     13.672850928    7.290780278   70.928077482 XXXX 33     sc3     Si  1.000
Si6     13.119211068    9.475879275   72.869428815 XXXX 33     sc2     Si  1.000
O14     12.957089140    5.922897475   71.484211156 XXXX 33     oc12    O  -0.580
O15     13.076407094   11.004683290   72.298811566 XXXX 33     oc12    O  -0.580
O16     14.323873128    5.362404013   73.731231513 XXXX 33     oc13    O  -0.940
O17     11.775824490    5.322514150   73.971089741 XXXX 33     oc13    O  -0.940
O18     -0.211198598   11.425983022   19.354379218 XXXX 33     oc22    O  -1.080
O19     15.337534686    7.296722880   71.172270743 XXXX 33     oc14    O  -0.670
O20     26.137707459   -5.314750094   68.514093415 XXXX 33     o*      O  -0.820
O21     13.024687019    8.525640502   71.529480621 XXXX 33     oc12    O  -0.580
O22     11.850024698    9.206654261   73.925146491 XXXX 33     oc13    O  -0.940
O24     12.818863487    7.363554234   66.675978410 XXXX 33     o*      O  -0.820
Ca6     15.910202609    7.261617453   73.779058924 XXXX 33     ca+t    Ca  1.500
Ca7     13.237260677    9.169975450   76.210113135 XXXX 33     ca+t    Ca  1.500
Si7     15.973565672    6.984915839   77.173826957 XXXX 33     sc2     Si  1.000
Si8     16.569429215    9.020894658   79.209267382 XXXX 33     sc3     Si  1.000
Si9     16.005725125    3.935135560   77.268918474 XXXX 33     sc2     Si  1.000
O25     15.787907215    7.832939132   78.575456376 XXXX 33     oc12    O  -0.580
O26     15.933803753    5.472782072   77.816365604 XXXX 33     oc12    O  -0.580
O28     14.796171234    7.182899252   76.096210687 XXXX 33     oc13    O  -0.940
O29      2.064788987   12.955299594    8.170125385 XXXX 33     oc22    O  -1.080
O30     18.169330482    8.875646431   78.839013326 XXXX 33     oc14    O  -0.670
O31     13.248445333    9.511541955   78.996503626 XXXX 33     o*      O  -0.820
O32     15.812129173   10.422114567   78.689401453 XXXX 33     oc12    O  -0.580
O33     14.759101022    3.593756433   76.365641508 XXXX 33     oc13    O  -0.940
O34     17.326402268    3.733911924   76.399210435 XXXX 33     oc13    O  -0.940
O35      2.532535810   16.855019829    7.978152160 XXXX 33     o*      O  -0.820
O36     12.966001131    7.148523777   81.868037417 XXXX 33     o*      O  -0.820
Ca8     -0.943008623   16.933393697   12.466675644 XXXX 33     ca+t    Ca  1.500
Ca9      2.076985749   15.007058863   14.806135208 XXXX 33     ca+t    Ca  1.500
Si10    -0.800435299   16.614067386   15.813332172 XXXX 33     sc2     Si  1.000
Si11    -0.171856568   11.434325977   17.786333408 XXXX 33     sc3     Si  1.000
Si12    -0.877689275   13.587157060   15.897832742 XXXX 33     sc2     Si  1.000
O37     -0.807499852   17.506751563   17.202479719 XXXX 33     oc12    O  -0.580
O38     -0.814432691   15.098699075   16.434107267 XXXX 33     oc12    O  -0.580
O40     -2.094078319   16.945264606   14.821007990 XXXX 33     oc13    O  -0.940
O41     13.361227861    7.288481773   69.390190553 XXXX 33     oc22    O  -1.080
O42      1.427108076   11.429007024   17.278695223 XXXX 33     oc14    O  -0.670
O43    -22.028685004    1.391933066   68.793536029 XXXX 33     o*      O  -0.820
O44     -0.889921540   12.718626953   17.243873126 XXXX 33     oc12    O  -0.580
O45     -2.196215754   13.330921932   14.978693147 XXXX 33     oc13    O  -0.940
O46      0.393418322   13.267086837   14.981821590 XXXX 33     oc13    O  -0.940
O47     19.716249772   11.959245695   66.852091906 XXXX 33     o*      O  -0.820
O48      3.557778137   64.478503463   19.925836624 XXXX 33     o*      O  -0.820
O49      8.468139845    9.252643717   19.842537049 XXXX 33     o*      O  -0.820
Ca10   -18.172501629   24.989663098   19.576798833 XXXX 33     casl    Ca  1.700
O50     34.016305941  -27.407814980   69.567435868 XXXX 33     o*      O  -0.820
H1      18.266524554    7.922724902   79.044718112 XXXX 33     hoy     H   0.400
H2      15.710320003    7.374195706   70.229819028 XXXX 33     hoy     H   0.400
H3       1.886823110   11.426090973   18.133668853 XXXX 33     hoy     H   0.400
H4       4.458795524   12.659773532    8.882270970 XXXX 33     hoy     H   0.400
H5       3.106800871   17.653058677    7.938807483 XXXX 33     h*      H   0.410
H6       2.212157591   17.067965055    8.858454149 XXXX 33     h*      H   0.410
H7      -1.453682983   14.018025954    9.168215392 XXXX 33     h*      H   0.410
H8      -0.109041494   14.220111182    9.726050292 XXXX 33     h*      H   0.410
H9       0.170185843   10.608416904    8.750433758 XXXX 33     h*      H   0.410
H10      0.654980268   11.854383445    8.388554425 XXXX 33     h*      H   0.410
H11      2.643152677   11.334087697    5.416612040 XXXX 33     h*      H   0.410
H12      1.997453901   12.074621660    6.462872494 XXXX 33     h*      H   0.410
H13    -21.807353143    1.385924392   69.749246754 XXXX 33     h*      H   0.410
H14    -21.253090232    0.722262139   68.564270291 XXXX 33     h*      H   0.410
H15     13.568176899    7.068023458   66.095287068 XXXX 33     h*      H   0.410
H16     13.247208758    7.317258880   67.561205532 XXXX 33     h*      H   0.410
H17      9.316053286    9.653538823   19.580885865 XXXX 33     h*      H   0.410
H18      7.862206531    9.998971333   19.692010090 XXXX 33     h*      H   0.410
H19      2.894913974   65.188836097   20.332387838 XXXX 33     h*      H   0.410
H20      4.066091381   65.136664571   19.368881664 XXXX 33     h*      H   0.410
H21     19.317828904   11.261550390   66.219669320 XXXX 33     h*      H   0.410
H22     19.344330196   11.572926767   67.686733529 XXXX 33     h*      H   0.410
H23     33.437045689  -28.219406865   69.701450915 XXXX 33     h*      H   0.410
H24     33.749071083  -26.897169394   70.407611361 XXXX 33     h*      H   0.410
H25     25.745103724   -6.153618934   68.984206114 XXXX 33     h*      H   0.410
H26     25.642263490   -5.526268674   67.666077523 XXXX 33     h*      H   0.410
H27     14.173056210    9.423870442   79.132756404 XXXX 33     h*      H   0.410
H28     13.143292177   10.416216934   79.260252000 XXXX 33     h*      H   0.410
H29     12.423425429    6.317539325   81.637055809 XXXX 33     h*      H   0.410
H30     12.426716613    7.876856810   81.420232850 XXXX 33     h*      H   0.410
H31     17.129655715    5.601532329   79.972494972 XXXX 33     h*      H   0.410
H32     15.932541394    4.821924614   80.433519617 XXXX 33     h*      H   0.410
Ca1     12.913660367   11.205775198   14.857919220 XXXX 34     ca+t    Ca  1.500
Ca2     10.442657445   13.226794830   12.671351067 XXXX 34     ca+t    Ca  1.500
Si1     13.133740117   18.371224017   11.714102321 XXXX 34     sc2     Si  1.000
Si2     14.053402048   13.171237921    9.786688161 XXXX 34     sc3     Si  1.000
Si3     13.197936035   15.338915948   11.681307922 XXXX 34     sc2     Si  1.000
O1      13.283049208   11.839323905   10.286420119 XXXX 34     oc12    O  -0.580
O2      13.141670708   16.862762021   11.133896101 XXXX 34     oc12    O  -0.580
O3      14.416713990   18.738432249   12.635396709 XXXX 34     oc13    O  -0.940
O4      11.857938804   18.682171922   12.493855432 XXXX 34     oc13    O  -0.940
O5      27.636189916    9.096840653   80.837343622 XXXX 34     oc22    O  -1.080
O6      15.620707025   13.178476717   10.195820093 XXXX 34     oc14    O  -0.670
O7      10.362009567   13.693076230    9.856531685 XXXX 34     o*      O  -0.820
O8      13.248056110   14.451971309   10.318780274 XXXX 34     oc12    O  -0.580
O9      11.894836005   15.054734133   12.553133516 XXXX 34     oc13    O  -0.940
O11     27.738709333    5.202873748   80.765320448 XXXX 34     o*      O  -0.820
O12     11.276851116   11.318307902    7.847493115 XXXX 34     o*      O  -0.820
Ca3     14.589823838   15.044707159    7.018405393 XXXX 34     casl    Ca  1.700
O13     13.386607964   11.486687734    6.079612189 XXXX 34     o*      O  -0.820
Ca4     24.347694301    5.427322486   76.443076235 XXXX 34     ca+t    Ca  1.500
Ca5     27.387931515    3.675688637   74.098076286 XXXX 34     ca+t    Ca  1.500
Si4     24.358212400    5.146575621   73.214766175 XXXX 34     sc2     Si  1.000
Si5     25.175317660    7.265965115   71.220652250 XXXX 34     sc3     Si  1.000
Si6     24.453793343    9.515143710   73.085843048 XXXX 34     sc2     Si  1.000
O14     24.313061569    6.022712233   71.838904859 XXXX 34     oc12    O  -0.580
O15     24.435112148   11.078253766   72.520222307 XXXX 34     oc12    O  -0.580
O16     25.709806828    5.455997111   74.030558419 XXXX 34     oc13    O  -0.940
O17     23.059793736    5.373128325   74.210678737 XXXX 34     oc13    O  -0.940
O18     10.761403555   11.450315264   19.407957340 XXXX 34     oc22    O  -1.080
O19     26.767695345    7.215940645   71.684910664 XXXX 34     oc14    O  -0.670
O20     40.665549215   21.325613820   69.131360531 XXXX 34     o*      O  -0.820
O21     24.510063101    8.645687899   71.669962071 XXXX 34     oc12    O  -0.580
O22     23.073825688    9.222216502   73.917601105 XXXX 34     oc13    O  -0.940
O24     29.312133191  -35.097550839   67.513639369 XXXX 34     o*      O  -0.820
Ca6     27.125286767    7.326104680   74.249329699 XXXX 34     ca+t    Ca  1.500
Ca7     24.540681659    9.213401080   76.253243992 XXXX 34     ca+t    Ca  1.500
Si7     27.117886344    6.998423920   77.435268453 XXXX 34     sc2     Si  1.000
Si8     27.807554652    9.140929187   79.281505411 XXXX 34     sc3     Si  1.000
Si9     27.161285144    3.928944784   77.415082623 XXXX 34     sc2     Si  1.000
O25     26.984238040    7.941738267   78.698606573 XXXX 34     oc12    O  -0.580
O26     27.004022377    5.449718046   77.976509762 XXXX 34     oc12    O  -0.580
O28     25.842586274    7.216343689   76.513767542 XXXX 34     oc13    O  -0.940
O29     13.935495819   13.193381447    8.228860735 XXXX 34     oc22    O  -1.080
O30     29.395664502    8.919457544   79.002479170 XXXX 34     oc14    O  -0.670
O31     25.284266199   11.322816575   81.414612066 XXXX 34     o*      O  -0.820
O32     27.308917414   10.552430280   78.785672957 XXXX 34     oc12    O  -0.580
O33     25.924128325    3.490040880   76.583627988 XXXX 34     oc13    O  -0.940
O34     28.452185268    3.729812540   76.502673748 XXXX 34     oc13    O  -0.940
O35     13.801703907   16.901853916    8.492036601 XXXX 34     o*      O  -0.820
O36     24.261232335    6.902577867   81.833293650 XXXX 34     o*      O  -0.820
Ca8     10.350749371   16.926957771   12.680755991 XXXX 34     ca+t    Ca  1.500
Ca9     13.143586705   14.939191272   14.951753875 XXXX 34     ca+t    Ca  1.500
Si10    10.324823408   16.626333216   16.029716013 XXXX 34     sc2     Si  1.000
Si11    11.026066810   11.356119569   17.862489783 XXXX 34     sc3     Si  1.000
Si12    10.385083523   13.579793890   15.827864394 XXXX 34     sc2     Si  1.000
O37     10.389272444   17.508266960   17.454840930 XXXX 34     oc12    O  -0.580
O38     10.325046349   15.135959239   16.477393708 XXXX 34     oc12    O  -0.580
O40      8.971358232   16.905191846   15.190016046 XXXX 34     oc13    O  -0.940
O41     25.192984226    7.178734113   69.644339080 XXXX 34     oc22    O  -1.080
O42     12.564405019   11.355763969   17.519524563 XXXX 34     oc14    O  -0.670
O43      6.085676990  -23.631427281   21.468624570 XXXX 34     o*      O  -0.820
O44     10.235545718   12.597374334   17.116209240 XXXX 34     oc12    O  -0.580
O45      9.122594187   13.284088705   14.928812837 XXXX 34     oc13    O  -0.940
O46     11.631445630   13.198130116   14.963992494 XXXX 34     oc13    O  -0.940
O47      9.472233757    7.625947660   70.703459453 XXXX 34     o*      O  -0.820
O48     13.674493499   11.780295968   20.072845096 XXXX 34     o*      O  -0.820
O49     22.513530648   -7.799892775   19.364550869 XXXX 34     o*      O  -0.820
Ca10    20.692647662   35.414942628   68.784605844 XXXX 34     casl    Ca  1.700
O50     56.969950133    6.418315176   20.323744460 XXXX 34     o*      O  -0.820
H1      29.744318314    8.252417878   79.639410730 XXXX 34     hoy     H   0.400
H2      27.252494826    7.176191272   70.888133777 XXXX 34     hoy     H   0.400
H3      12.900209062   11.947748668   18.157368731 XXXX 34     hoy     H   0.400
H4      16.101097966   12.847189062    9.415855545 XXXX 34     hoy     H   0.400
H5      13.857255363   17.889095103    8.546715531 XXXX 34     h*      H   0.410
H6      13.378629378   16.757908902    9.393725073 XXXX 34     h*      H   0.410
H7       9.762844566   13.924620740    9.101950801 XXXX 34     h*      H   0.410
H8      11.247358812   13.836498930    9.485198048 XXXX 34     h*      H   0.410
H9      11.921867389   12.030893371    8.142641652 XXXX 34     h*      H   0.410
H10     12.006190952   10.914316833    7.271551752 XXXX 34     h*      H   0.410
H11     14.162788688   10.971565779    5.889380881 XXXX 34     h*      H   0.410
H12     13.789754558   12.149407613    6.711479505 XXXX 34     h*      H   0.410
H13      6.900354723  -23.875407130   20.994088402 XXXX 34     h*      H   0.410
H14      5.624449584  -23.027225379   20.773964035 XXXX 34     h*      H   0.410
H15     28.551177084  -34.562006350   67.604198808 XXXX 34     h*      H   0.410
H16     29.790139182  -34.669347256   68.326644401 XXXX 34     h*      H   0.410
H17     22.289130151   -8.713341897   19.571134376 XXXX 34     h*      H   0.410
H18     22.314251854   -7.864554244   18.370067865 XXXX 34     h*      H   0.410
H19     12.710440216   11.406336840   19.939951294 XXXX 34     h*      H   0.410
H20     13.472641325   12.625305604   20.507209119 XXXX 34     h*      H   0.410
H21      8.496731063    7.451158073   70.639533689 XXXX 34     h*      H   0.410
H22      9.338809016    8.548862990   70.596368035 XXXX 34     h*      H   0.410
H23     56.124408085    6.771256432   20.605138400 XXXX 34     h*      H   0.410
H24     56.831025627    5.538386564   19.957646093 XXXX 34     h*      H   0.410
H25     40.989615500   20.884498382   69.998677866 XXXX 34     h*      H   0.410
H26     40.729335369   20.517374365   68.645977359 XXXX 34     h*      H   0.410
H27     26.065174583   10.888967738   80.976353127 XXXX 34     h*      H   0.410
H28     25.642784852   11.888730239   82.139336082 XXXX 34     h*      H   0.410
H29     23.404456615    6.601140041   81.462304858 XXXX 34     h*      H   0.410
H30     24.022365726    6.910683632   82.803973221 XXXX 34     h*      H   0.410
H31     27.347554302    4.239670260   80.824915399 XXXX 34     h*      H   0.410
H32     27.931249348    5.187889261   79.811325568 XXXX 34     h*      H   0.410
Ca1      1.926259040   18.862211346   14.654159910 XXXX 35     ca+t    Ca  1.500
Ca2     -0.721519593   20.599302343   12.400686082 XXXX 35     ca+t    Ca  1.500
Si1      1.939428388   25.891130047   11.505181867 XXXX 35     sc2     Si  1.000
Si2      2.625053211   20.594855286    9.535960943 XXXX 35     sc3     Si  1.000
Si3      1.936563202   22.781006240   11.448203944 XXXX 35     sc2     Si  1.000
O1       1.922319082   19.294130726   10.068645613 XXXX 35     oc12    O  -0.580
O2       1.895670048   24.330631310   10.912844265 XXXX 35     oc12    O  -0.580
O4       0.624010077   26.169969560   12.430968274 XXXX 35     oc13    O  -0.940
O5      16.635545878   16.481130069   80.824172060 XXXX 35     oc22    O  -1.080
O6       4.267430434   20.598507000    9.813928281 XXXX 35     oc14    O  -0.670
O7      -0.410594246   21.880893859    7.819546434 XXXX 35     o*      O  -0.820
O8       1.874262690   21.855752801   10.164543203 XXXX 35     oc12    O  -0.580
O9       0.748438505   22.471261766   12.413078103 XXXX 35     oc13    O  -0.940
O11     16.880661401   12.734031834   81.154422530 XXXX 35     o*      O  -0.820
O12     -0.214932284   18.617404945    8.064622893 XXXX 35     o*      O  -0.820
Ca3      3.378923658   22.653471932    6.827372105 XXXX 35     casl    Ca  1.700
O13      1.766298860   19.430912622    5.829822141 XXXX 35     o*      O  -0.820
Ca4     13.234399441   12.896194086   76.155447200 XXXX 35     ca+t    Ca  1.500
Ca5     16.002772235   10.949222520   74.166407971 XXXX 35     ca+t    Ca  1.500
Si4     13.128700513   12.495309140   72.946956418 XXXX 35     sc2     Si  1.000
Si5     14.020041376   14.735188240   71.181008135 XXXX 35     sc3     Si  1.000
Si6     13.198385858   16.868452069   73.218471321 XXXX 35     sc2     Si  1.000
O14     13.315477942   13.400612701   71.593978727 XXXX 35     oc12    O  -0.580
O16     14.408089197   12.707298640   73.917246590 XXXX 35     oc13    O  -0.940
O17     11.810883756   12.835466500   73.791507432 XXXX 35     oc13    O  -0.940
O18     -0.403496530   18.964603861   19.187730293 XXXX 35     oc22    O  -1.080
O19     15.613603510   14.700602304   71.546068542 XXXX 35     oc14    O  -0.670
O20     17.877653501   27.057288839   67.723918813 XXXX 35     o*      O  -0.820
O21     13.205057450   16.002818721   71.848187627 XXXX 35     oc12    O  -0.580
O22     11.852703415   16.728254447   74.102478628 XXXX 35     oc13    O  -0.940
O24      7.427934814   -8.726130217   68.736254144 XXXX 35     o*      O  -0.820
Ca6     15.915666498   14.686510576   74.206384364 XXXX 35     ca+t    Ca  1.500
Ca7     13.329576116   16.641227993   76.450846306 XXXX 35     ca+t    Ca  1.500
Si7     15.914007999   14.377259853   77.343767937 XXXX 35     sc2     Si  1.000
Si8     16.765039387   16.537905140   79.266793236 XXXX 35     sc3     Si  1.000
Si9     15.841313637   11.324807004   77.355718807 XXXX 35     sc2     Si  1.000
O25     15.886818126   15.358001683   78.617613763 XXXX 35     oc12    O  -0.580
O26     15.821138553   12.828594084   77.933715327 XXXX 35     oc12    O  -0.580
O28     14.761313565   14.709298612   76.341238212 XXXX 35     oc13    O  -0.940
O29      2.380103405   20.767007879    7.975908319 XXXX 35     oc22    O  -1.080
O30     18.367812698   16.517917847   78.944454846 XXXX 35     oc14    O  -0.670
O31     13.441659025   17.104590961   79.047920944 XXXX 35     o*      O  -0.820
O32     16.090227989   17.958696879   78.829209605 XXXX 35     oc12    O  -0.580
O33     14.550208814   11.060175818   76.503465043 XXXX 35     oc13    O  -0.940
O34     17.106864033   11.076281226   76.364560648 XXXX 35     oc13    O  -0.940
O35      2.677908209   24.463154007    8.376092812 XXXX 35     o*      O  -0.820
O36     13.497517228   14.588989591   81.150498734 XXXX 35     o*      O  -0.820
Ca8     -0.934287402   24.328540780   12.543492260 XXXX 35     ca+t    Ca  1.500
Ca9      2.126471585   22.504698131   14.648268521 XXXX 35     ca+t    Ca  1.500
Si10    -0.811620685   24.069442083   15.856691285 XXXX 35     sc2     Si  1.000
Si11    -0.127727215   18.888543367   17.685179966 XXXX 35     sc3     Si  1.000
Si12    -0.904649362   20.993894608   15.716606148 XXXX 35     sc2     Si  1.000
O37     -0.859248638   24.847589592   17.285664762 XXXX 35     oc12    O  -0.580
O38     -0.988547886   22.497903901   16.293065071 XXXX 35     oc12    O  -0.580
O40     -2.009126519   24.447174700   14.889981410 XXXX 35     oc13    O  -0.940
O41     13.832702908   14.808668848   69.626639338 XXXX 35     oc22    O  -1.080
O42      1.460690841   19.038000499   17.419044091 XXXX 35     oc14    O  -0.670
O43      6.762998529   25.601573187   19.419142090 XXXX 35     o*      O  -0.820
O44     -0.929991027   20.082399224   17.060833383 XXXX 35     oc12    O  -0.580
O45     -2.165775950   20.680153599   14.729208413 XXXX 35     oc13    O  -0.940
O46      0.468077668   20.778646302   14.832510181 XXXX 35     oc13    O  -0.940
O47     27.993260470   29.155727448   68.977638309 XXXX 35     o*      O  -0.820
O48     15.993017775   53.318879924   21.658364757 XXXX 35     o*      O  -0.820
O49     11.598914004   36.240904928   20.641557121 XXXX 35     o*      O  -0.820
Ca10     3.585896868   31.472390894   20.179558826 XXXX 35     casl    Ca  1.700
O50     -1.644994764   19.040442688   22.238723885 XXXX 35     o*      O  -0.820
H1      18.831036763   16.300214498   79.762084166 XXXX 35     hoy     H   0.400
H2      16.099781519   14.079868980   71.038594881 XXXX 35     hoy     H   0.400
H3       1.580191306   19.146386603   18.380086219 XXXX 35     hoy     H   0.400
H4       4.523998354   20.182374902    8.971747098 XXXX 35     hoy     H   0.400
H5       2.987212071   25.354059637    8.586546002 XXXX 35     h*      H   0.410
H6       2.057325377   24.427181082    9.127012324 XXXX 35     h*      H   0.410
H7      -0.867921832   21.352877848    7.063441652 XXXX 35     h*      H   0.410
H8       0.495809968   21.422396256    7.785839542 XXXX 35     h*      H   0.410
H9       0.259322596   17.954092230    7.472834210 XXXX 35     h*      H   0.410
H10      0.479822430   19.137645687    8.500063971 XXXX 35     h*      H   0.410
H11      1.959465393   19.959172990    6.705983130 XXXX 35     h*      H   0.410
H12      2.595837881   18.949106226    5.644139961 XXXX 35     h*      H   0.410
H13      7.440804976   24.909394577   19.526040284 XXXX 35     h*      H   0.410
H14      7.348664930   26.400448637   19.518297542 XXXX 35     h*      H   0.410
H15      7.301259497   -8.772801805   69.725935456 XXXX 35     h*      H   0.410
H16      7.820793201   -9.650226588   68.638197443 XXXX 35     h*      H   0.410
H17     10.942559417   36.611029410   21.236972535 XXXX 35     h*      H   0.410
H18     11.268746062   35.357507539   20.590641038 XXXX 35     h*      H   0.410
H19     16.338222075   52.585140349   21.082827715 XXXX 35     h*      H   0.410
H20     15.837724192   52.744066512   22.478926358 XXXX 35     h*      H   0.410
H21     28.182697959   29.956769991   68.455675671 XXXX 35     h*      H   0.410
H22     27.041087758   29.375606381   68.906552729 XXXX 35     h*      H   0.410
H23     -1.504996723   18.856344191   23.166189088 XXXX 35     h*      H   0.410
H24     -0.798050428   19.487674082   22.166298915 XXXX 35     h*      H   0.410
H25     17.914582937   27.967877485   68.030736198 XXXX 35     h*      H   0.410
H26     18.531570943   26.722247763   68.411003254 XXXX 35     h*      H   0.410
H27     14.204584446   17.530027945   79.478023418 XXXX 35     h*      H   0.410
H28     12.729503693   17.368545004   79.693011123 XXXX 35     h*      H   0.410
H29     12.842017547   13.826636214   80.966635184 XXXX 35     h*      H   0.410
H30     13.378124078   15.266847921   80.411762867 XXXX 35     h*      H   0.410
H31     17.007243366   12.540042485   80.217167969 XXXX 35     h*      H   0.410
H32     17.253561218   11.906071341   81.499804886 XXXX 35     h*      H   0.410
Ca1     13.094029905   18.693187225   15.021062930 XXXX 36     ca+t    Ca  1.500
Ca2     10.487428751   20.556181216   12.626606137 XXXX 36     ca+t    Ca  1.500
Si1     13.177393067   25.853920709   11.706926466 XXXX 36     sc2     Si  1.000
Si2     13.935515733   20.522264513    9.837994014 XXXX 36     sc3     Si  1.000
Si3     13.135279528   22.745228980   11.755150933 XXXX 36     sc2     Si  1.000
O1      13.159729498   19.197562469   10.360834551 XXXX 36     oc12    O  -0.580
O2      13.211917557   24.305030060   11.178386393 XXXX 36     oc12    O  -0.580
O4      11.847930555   26.147968733   12.615936619 XXXX 36     oc13    O  -0.940
O5      27.688769365   16.406357822   80.936843760 XXXX 36     oc22    O  -1.080
O6      15.569194106   20.563359539   10.200795782 XXXX 36     oc14    O  -0.670
O7      10.590274908   21.874489171    7.775947062 XXXX 36     o*      O  -0.820
O8      13.203065595   21.844549172   10.389517716 XXXX 36     oc12    O  -0.580
O9      11.773666181   22.547272116   12.523026119 XXXX 36     oc13    O  -0.940
O11     28.090516313   12.963463964   80.725869384 XXXX 36     o*      O  -0.820
O12     10.996009171   18.559937796    8.309692209 XXXX 36     o*      O  -0.820
Ca3     14.819704011   22.298285391    6.997698197 XXXX 36     casl    Ca  1.700
O13     13.054152848   19.035509371    6.185322180 XXXX 36     o*      O  -0.820
Ca4     24.186200156   12.941385645   76.237113423 XXXX 36     ca+t    Ca  1.500
Ca5     27.352958905   11.209667865   74.131050119 XXXX 36     ca+t    Ca  1.500
Si4     24.413705626   12.609282518   73.061241182 XXXX 36     sc2     Si  1.000
Si5     25.216180279   14.670237759   71.056049078 XXXX 36     sc3     Si  1.000
Si6     24.542302429   16.880385976   72.997700469 XXXX 36     sc2     Si  1.000
O14     24.284477951   13.597237244   71.731615640 XXXX 36     oc12    O  -0.580
O16     25.698089921   12.923043568   73.888818714 XXXX 36     oc13    O  -0.940
O17     23.110894237   12.758888123   74.026039812 XXXX 36     oc13    O  -0.940
O18     10.981469925   18.854589342   19.552295578 XXXX 36     oc22    O  -1.080
O19     26.785598773   14.309095444   71.222684016 XXXX 36     oc14    O  -0.670
O20     18.652455435   18.810178447   18.014021259 XXXX 36     o*      O  -0.820
O21     24.822929800   16.092880312   71.596732772 XXXX 36     oc12    O  -0.580
O22     23.243416396   16.460483615   73.826340317 XXXX 36     oc13    O  -0.940
O24     11.888027070   24.649268317   69.467835154 XXXX 36     o*      O  -0.820
Ca6     27.237674493   14.843204495   74.171203893 XXXX 36     ca+t    Ca  1.500
Ca7     24.544125654   16.673010405   76.311043467 XXXX 36     ca+t    Ca  1.500
Si7     27.249467939   14.386613295   77.280889656 XXXX 36     sc2     Si  1.000
Si8     28.015685026   16.490959482   79.398781315 XXXX 36     sc3     Si  1.000
Si9     27.165219527   11.367802067   77.347932162 XXXX 36     sc2     Si  1.000
O25     27.180395254   15.300438807   78.688027146 XXXX 36     oc12    O  -0.580
O26     27.144918337   12.904132143   77.863416588 XXXX 36     oc12    O  -0.580
O28     26.078690183   14.713909994   76.321808728 XXXX 36     oc13    O  -0.940
O29     13.798036592   20.589871535    8.249276798 XXXX 36     oc22    O  -1.080
O30     29.637651912   16.305997745   79.112164043 XXXX 36     oc14    O  -0.670
O31     24.618279204   16.850016411   78.985040483 XXXX 36     o*      O  -0.820
O32     27.468904837   17.946362596   78.850026594 XXXX 36     oc12    O  -0.580
O33     25.873349797   11.118781619   76.517855140 XXXX 36     oc13    O  -0.940
O34     28.447414594   11.078776677   76.426286680 XXXX 36     oc13    O  -0.940
O35     13.734178736   24.242075831    8.200041301 XXXX 36     o*      O  -0.820
O36     24.730665345   14.572636651   81.008395791 XXXX 36     o*      O  -0.820
Ca8     10.177330780   24.271293029   12.918363731 XXXX 36     ca+t    Ca  1.500
Ca9     13.299796547   22.474993366   14.983403378 XXXX 36     ca+t    Ca  1.500
Si10    10.343792811   24.052427553   16.062661497 XXXX 36     sc2     Si  1.000
Si11    11.114973246   18.813522823   17.989427574 XXXX 36     sc3     Si  1.000
Si12    10.353411928   20.988593255   16.076975141 XXXX 36     sc2     Si  1.000
O37     10.294949370   24.904731848   17.417470546 XXXX 36     oc12    O  -0.580
O38     10.341229124   22.531440723   16.610562701 XXXX 36     oc12    O  -0.580
O40      9.032709044   24.210704223   15.149544850 XXXX 36     oc13    O  -0.940
O41     24.788800100   14.633096160   69.520021030 XXXX 36     oc22    O  -1.080
O42     12.753635455   18.895397703   17.586572548 XXXX 36     oc14    O  -0.670
O43     21.746330570  -30.009855236   70.962111130 XXXX 36     o*      O  -0.820
O44     10.350686129   20.101419084   17.403356379 XXXX 36     oc12    O  -0.580
O45      9.018850150   20.701800122   15.186299997 XXXX 36     oc13    O  -0.940
O46     11.591864886   20.751093851   15.127839422 XXXX 36     oc13    O  -0.940
O47     -7.394102420    3.439055083   19.755345670 XXXX 36     o*      O  -0.820
O48     20.175011626   16.025736604   20.410619485 XXXX 36     o*      O  -0.820
O49     27.250012722   25.953095151   21.994418661 XXXX 36     o*      O  -0.820
Ca10    56.107741758   29.549502410   68.762654873 XXXX 36     casl    Ca  1.700
O50     -6.239376485   24.234270122   22.372843276 XXXX 36     o*      O  -0.820
H1      29.845606153   15.788828333   79.855780618 XXXX 36     hoy     H   0.400
H2      26.992132838   13.690382133   70.530129295 XXXX 36     hoy     H   0.400
H3      13.125491328   18.516570910   18.386678925 XXXX 36     hoy     H   0.400
H4      15.875118874   20.043778212    9.467644157 XXXX 36     hoy     H   0.400
H5      13.131117566   24.958771464    7.970275797 XXXX 36     h*      H   0.410
H6      13.283134367   24.056793834    9.058184533 XXXX 36     h*      H   0.410
H7      11.530925387   21.634562200    7.965067266 XXXX 36     h*      H   0.410
H8      10.507043895   21.512381552    6.851921929 XXXX 36     h*      H   0.410
H9      11.530879340   18.961990075    9.020622014 XXXX 36     h*      H   0.410
H10     11.744129072   18.502238759    7.683231849 XXXX 36     h*      H   0.410
H11     13.980710535   18.736036012    6.033755109 XXXX 36     h*      H   0.410
H12     13.131849702   19.539903007    7.072344166 XXXX 36     h*      H   0.410
H13     21.595037131  -29.062258022   71.021373475 XXXX 36     h*      H   0.410
H14     22.711108285  -30.085419384   70.777756237 XXXX 36     h*      H   0.410
H15     12.218155602   24.426247904   70.360447710 XXXX 36     h*      H   0.410
H16     11.983649548   23.739323282   69.104704259 XXXX 36     h*      H   0.410
H17     28.116640636   26.399113967   22.231840851 XXXX 36     h*      H   0.410
H18     26.618696978   26.650130316   22.304700777 XXXX 36     h*      H   0.410
H19     19.692242851   15.227312958   20.768871551 XXXX 36     h*      H   0.410
H20     20.870531586   15.578774561   19.848007088 XXXX 36     h*      H   0.410
H21     -7.413986399    4.365638808   20.113632451 XXXX 36     h*      H   0.410
H22     -6.932045437    3.568491251   18.874529101 XXXX 36     h*      H   0.410
H23     -6.098723949   25.164367955   22.465182067 XXXX 36     h*      H   0.410
H24     -5.445264603   23.916003795   22.886246544 XXXX 36     h*      H   0.410
H25     18.276364046   19.723088439   18.027203188 XXXX 36     h*      H   0.410
H26     17.873586772   18.356488535   17.688813123 XXXX 36     h*      H   0.410
H27     25.485890599   17.173715134   79.205587374 XXXX 36     h*      H   0.410
H28     24.601634488   16.001534547   79.504019932 XXXX 36     h*      H   0.410
H29     24.737571456   13.854790004   80.363260836 XXXX 36     h*      H   0.410
H30     23.970459332   14.225670257   81.576885803 XXXX 36     h*      H   0.410
H31     27.714315552   12.532025888   79.892386618 XXXX 36     h*      H   0.410
H32     29.029015129   13.057771576   80.328704178 XXXX 36     h*      H   0.410
Ca1     14.315500317   -3.890427680   90.147350512 XXXX 37     ca+t    Ca  1.500
Ca2     11.643258185   -1.926677032   88.082614589 XXXX 37     ca+t    Ca  1.500
Si1     14.360054229    3.266013031   86.995394050 XXXX 37     sc2     Si  1.000
Si2     15.295125355   -1.940390905   84.985105164 XXXX 37     sc3     Si  1.000
Si3     14.358100178    0.197369192   86.921330723 XXXX 37     sc2     Si  1.000
O1      14.587531906   -3.291072152   85.478523160 XXXX 37     oc12    O  -0.580
O2      14.313505813    1.731462223   86.394266861 XXXX 37     oc12    O  -0.580
O3      15.686309203    3.546077892   87.855341324 XXXX 37     oc13    O  -0.940
O4      13.109120597    3.533422961   87.912965636 XXXX 37     oc13    O  -0.940
O6      16.857214191   -1.921575110   85.549718206 XXXX 37     oc14    O  -0.670
O7      12.057389747   -3.251849157   84.067889758 XXXX 37     o*      O  -0.820
O8      14.408128947   -0.639253687   85.553806257 XXXX 37     oc12    O  -0.580
O9      13.076506162   -0.192372918   87.788023427 XXXX 37     oc13    O  -0.940
O12     12.134791440   -5.312193286   81.759542907 XXXX 37     o*      O  -0.820
Ca3     15.953526734   -0.014633177   82.101711826 XXXX 37     casl    Ca  1.700
O13     14.325785429   -3.451867319   81.464714205 XXXX 37     o*      O  -0.820
Ca5     16.010084828   -3.983620121  101.714220667 XXXX 37     ca+t    Ca  1.500
Si4     13.133696575   -2.389613652  100.726590594 XXXX 37     sc2     Si  1.000
Si5     13.683113205   -0.190923895   98.774846010 XXXX 37     sc3     Si  1.000
Si6     13.100306888    2.075100835  100.883372727 XXXX 37     sc2     Si  1.000
O14     13.011823315   -1.517065970   99.333857749 XXXX 37     oc12    O  -0.580
O15     13.071497665    3.584038388  100.318362986 XXXX 37     oc12    O  -0.580
O16     14.390953484   -1.957716108  101.549207191 XXXX 37     oc13    O  -0.940
O17     11.744844947   -2.134569746  101.579493329 XXXX 37     oc13    O  -0.940
O18     12.166982794   -3.855712277   94.728258073 XXXX 37     oc22    O  -1.080
O19     15.285266128   -0.199182592   98.973281061 XXXX 37     oc14    O  -0.670
O20     16.069925839   -3.273223276   99.005224096 XXXX 37     o*      O  -0.820
O21     13.000295052    1.121398627   99.451554910 XXXX 37     oc12    O  -0.580
O22     11.798370309    1.852854644  101.760857022 XXXX 37     oc13    O  -0.940
O24     12.030899190   -0.250670385   94.542603893 XXXX 37     o*      O  -0.820
Ca6     15.725031769   -0.248491490  101.764431054 XXXX 37     ca+t    Ca  1.500
O29     15.308711908   -1.858987548   83.412914674 XXXX 37     oc22    O  -1.080
O35     13.641589101   -0.271661606   81.120957876 XXXX 37     o*      O  -0.820
Ca8     11.485869242    1.757827331   88.068760667 XXXX 37     ca+t    Ca  1.500
Ca9     14.368405385   -0.170070380   90.261228759 XXXX 37     ca+t    Ca  1.500
Si10    11.552833640    1.406023576   91.310970142 XXXX 37     sc2     Si  1.000
Si11    12.297042076   -3.814143185   93.171889530 XXXX 37     sc3     Si  1.000
Si12    11.528329809   -1.761452477   91.209200372 XXXX 37     sc2     Si  1.000
O37     11.705709628    2.236543255   92.706701281 XXXX 37     oc12    O  -0.580
O38     11.545602088   -0.214383812   91.822136275 XXXX 37     oc12    O  -0.580
O40     10.220397116    1.773246047   90.563213281 XXXX 37     oc13    O  -0.940
O41     13.281373664   -0.087683953   97.292472839 XXXX 37     oc22    O  -1.080
O42     13.917144189   -3.781971334   92.832344208 XXXX 37     oc14    O  -0.670
O43     14.484655234    0.148524465   92.865002431 XXXX 37     o*      O  -0.820
O44     11.463227431   -2.663671390   92.573028801 XXXX 37     oc12    O  -0.580
O45     10.269591206   -1.990069133   90.250947895 XXXX 37     oc13    O  -0.940
O46     12.876682928   -2.068195729   90.392630853 XXXX 37     oc13    O  -0.940
O48     14.270691635    1.621314213   95.195398719 XXXX 37     o*      O  -0.820
O49     15.072658487   -2.006346760   95.174917238 XXXX 37     o*      O  -0.820
Ca10    12.712826343   -2.072819772   96.075704177 XXXX 37     casl    Ca  1.700
O50     11.226627204    2.144455784   97.079297161 XXXX 37     o*      O  -0.820
H2      15.628393534   -0.718285326   98.256231770 XXXX 37     hoy     H   0.400
H4      17.349745374   -1.608810961   84.762231707 XXXX 37     hoy     H   0.400
H5      12.913220680   -0.613372703   81.672127435 XXXX 37     h*      H   0.410
H6      13.188431063   -0.511706350   80.205788498 XXXX 37     h*      H   0.410
H7      12.711179979   -2.601285530   84.337652185 XXXX 37     h*      H   0.410
H8      12.466020128   -4.089974368   84.423337922 XXXX 37     h*      H   0.410
H9      12.465145448   -6.222808699   81.858106446 XXXX 37     h*      H   0.410
H10     13.060080858   -4.904178708   81.863461920 XXXX 37     h*      H   0.410
H11     14.469707781   -2.799288608   82.220189035 XXXX 37     h*      H   0.410
H12     15.267818378   -3.647324579   81.282890240 XXXX 37     h*      H   0.410
H13     13.929426962    0.603475587   93.539993042 XXXX 37     h*      H   0.410
H14     15.374850909    0.408307315   93.198369838 XXXX 37     h*      H   0.410
H15     11.446141394    0.539342564   94.830450007 XXXX 37     h*      H   0.410
H16     11.813540225   -0.217274183   93.596650910 XXXX 37     h*      H   0.410
H17     15.400214364   -1.303921011   94.574833070 XXXX 37     h*      H   0.410
H18     15.853043449   -2.098995857   95.760824049 XXXX 37     h*      H   0.410
H19     13.890156688    0.978310627   95.822096019 XXXX 37     h*      H   0.410
H20     13.586355135    2.289052231   95.211681759 XXXX 37     h*      H   0.410
H23     12.032737000    1.501961709   97.151020809 XXXX 37     h*      H   0.410
H24     11.518625032    2.735568163   96.351664605 XXXX 37     h*      H   0.410
H25     16.751602124   -2.594287457   98.738501280 XXXX 37     h*      H   0.410
H26     16.223853863   -3.920714352   98.287427188 XXXX 37     h*      H   0.410
Ca1     25.552862956   -3.927075859   90.248536852 XXXX 38     ca+t    Ca  1.500
Ca2     22.942978293   -2.218846146   87.916972985 XXXX 38     ca+t    Ca  1.500
Si1     25.601950926    3.226177086   86.979290328 XXXX 38     sc2     Si  1.000
Si2     26.332415026   -2.032417914   85.013705256 XXXX 38     sc3     Si  1.000
Si3     25.620890558    0.129741793   87.043416719 XXXX 38     sc2     Si  1.000
O1      25.640246546   -3.413041218   85.466351235 XXXX 38     oc12    O  -0.580
O2      25.552865860    1.652455514   86.483107450 XXXX 38     oc12    O  -0.580
O3      26.941772624    3.485454714   87.841613637 XXXX 38     oc13    O  -0.940
O4      24.308948919    3.485708197   87.865240763 XXXX 38     oc13    O  -0.940
O6      27.939946904   -2.068433601   85.211010530 XXXX 38     oc14    O  -0.670
O7      22.855593514   -1.393122610   85.031317222 XXXX 38     o*      O  -0.820
O8      25.635042962   -0.735779568   85.656549814 XXXX 38     oc12    O  -0.580
O9      24.379975373   -0.215568819   87.951205764 XXXX 38     oc13    O  -0.940
O12     23.240874717   -3.673423504   83.058124263 XXXX 38     o*      O  -0.820
Ca3     26.742021831   -0.121251261   82.060711801 XXXX 38     casl    Ca  1.700
O13     25.673198207   -3.596141467   81.378555983 XXXX 38     o*      O  -0.820
Ca5     27.382761149   -3.845924242  101.991682097 XXXX 38     ca+t    Ca  1.500
Si4     24.327507265   -2.255776250  101.316414951 XXXX 38     sc2     Si  1.000
Si5     24.948474006   -0.293523304   99.193048364 XXXX 38     sc3     Si  1.000
Si6     24.399575476    1.922505937  101.024948178 XXXX 38     sc2     Si  1.000
O14     24.121572391   -1.439013369   99.930653071 XXXX 38     oc12    O  -0.580
O15     24.307920855    3.462741792  100.421198453 XXXX 38     oc12    O  -0.580
O16     25.689922366   -1.922737536  102.115110321 XXXX 38     oc13    O  -0.940
O17     22.996528377   -2.062907317  102.249903896 XXXX 38     oc13    O  -0.940
O18     23.501509775   -3.896945768   94.717421401 XXXX 38     oc22    O  -1.080
O19     26.578497541   -0.498598017   99.353257424 XXXX 38     oc14    O  -0.670
O20     27.965797289   -1.818218555   97.268897414 XXXX 38     o*      O  -0.820
O21     24.383463065    1.064027087   99.675895196 XXXX 38     oc12    O  -0.580
O22     23.037133120    1.690817080  101.902423670 XXXX 38     oc13    O  -0.940
O24     23.236987752   -0.433603962   94.652103153 XXXX 38     o*      O  -0.820
Ca6     27.172987936   -0.100807516  101.981879802 XXXX 38     ca+t    Ca  1.500
O29     26.108093595   -1.913371218   83.467170727 XXXX 38     oc22    O  -1.080
O35     26.123269053    1.588570114   83.754137666 XXXX 38     o*      O  -0.820
Ca8     22.667093752    1.688326842   88.224512971 XXXX 38     ca+t    Ca  1.500
Ca9     25.709769836   -0.132407760   90.296605212 XXXX 38     ca+t    Ca  1.500
Si10    22.830765981    1.291216516   91.290128151 XXXX 38     sc2     Si  1.000
Si11    23.628881708   -3.890171471   93.115158169 XXXX 38     sc3     Si  1.000
Si12    22.760741289   -1.735176340   91.230173281 XXXX 38     sc2     Si  1.000
O37     22.961253629    2.212735763   92.648054961 XXXX 38     oc12    O  -0.580
O38     22.833282211   -0.188858756   91.844157614 XXXX 38     oc12    O  -0.580
O40     21.526290047    1.639532690   90.464269619 XXXX 38     oc13    O  -0.940
O41     24.530230927   -0.323684967   97.670135254 XXXX 38     oc22    O  -1.080
O42     25.234019100   -3.810038378   92.682204470 XXXX 38     oc14    O  -0.670
O43     25.025150027    1.499555542   95.452651980 XXXX 38     o*      O  -0.820
O44     22.827059110   -2.620431879   92.565068710 XXXX 38     oc12    O  -0.580
O45     21.390580596   -1.956236711   90.379667164 XXXX 38     oc13    O  -0.940
O46     24.029415295   -2.109871662   90.317919890 XXXX 38     oc13    O  -0.940
O48     27.346874660    1.613447412   97.145096916 XXXX 38     o*      O  -0.820
O49     25.690930912    0.099836641   93.093742079 XXXX 38     o*      O  -0.820
Ca10    23.818783206   -2.131611635   96.297776630 XXXX 38     casl    Ca  1.700
O50     21.103105573    1.856306589   95.347615548 XXXX 38     o*      O  -0.820
H2      26.881453528   -1.094636551   98.732124606 XXXX 38     hoy     H   0.400
H4      28.222283007   -2.522811210   84.474140219 XXXX 38     hoy     H   0.400
H5      25.721901695    1.499206745   84.669643556 XXXX 38     h*      H   0.410
H6      26.957141455    1.948867068   84.071344260 XXXX 38     h*      H   0.410
H7      22.384338121   -0.654242408   84.502152585 XXXX 38     h*      H   0.410
H8      23.809762767   -1.073630511   84.952075274 XXXX 38     h*      H   0.410
H9      24.062385726   -3.571320246   82.485157999 XXXX 38     h*      H   0.410
H10     23.411066650   -3.055150234   83.793277139 XXXX 38     h*      H   0.410
H11     26.143235397   -2.952846199   82.081662701 XXXX 38     h*      H   0.410
H12     26.508984606   -4.061019284   81.069056365 XXXX 38     h*      H   0.410
H13     24.515709667    2.267149140   95.217096260 XXXX 38     h*      H   0.410
H14     24.478393741    1.103471375   96.107458628 XXXX 38     h*      H   0.410
H15     23.158388625   -1.059438598   93.861213314 XXXX 38     h*      H   0.410
H16     23.119683946    0.414852540   94.096505608 XXXX 38     h*      H   0.410
H17     25.179973023    0.390997857   93.836403743 XXXX 38     h*      H   0.410
H18     26.395779757    0.706033054   93.142599273 XXXX 38     h*      H   0.410
H19     26.820948161    1.154319660   96.465408507 XXXX 38     h*      H   0.410
H20     27.032686913    1.211747887   97.996916943 XXXX 38     h*      H   0.410
H23     21.760054134    2.523297476   95.126030540 XXXX 38     h*      H   0.410
H24     21.726759788    1.381320549   95.912310189 XXXX 38     h*      H   0.410
H25     28.623930146   -1.219951136   96.799907677 XXXX 38     h*      H   0.410
H26     28.473816325   -2.589991080   97.558069277 XXXX 38     h*      H   0.410
Ca1     14.327545939    3.473931911   90.077330098 XXXX 39     ca+t    Ca  1.500
Ca2     11.653052686    5.498664783   88.036820370 XXXX 39     ca+t    Ca  1.500
Si1     14.421529863   10.710493063   86.952039605 XXXX 39     sc2     Si  1.000
Si2     15.140915735    5.397068334   85.105135941 XXXX 39     sc3     Si  1.000
Si3     14.354603504    7.656876834   86.987588503 XXXX 39     sc2     Si  1.000
O1      14.323089160    4.136082177   85.651013318 XXXX 39     oc12    O  -0.580
O2      14.426669932    9.189080750   86.412124211 XXXX 39     oc12    O  -0.580
O3      15.780452096   10.984750661   87.827322328 XXXX 39     oc13    O  -0.940
O4      13.201405669   11.043816148   87.985285369 XXXX 39     oc13    O  -0.940
O6      16.716190030    5.314565921   85.452855776 XXXX 39     oc14    O  -0.670
O7      11.681266065    5.752760221   85.083037874 XXXX 39     o*      O  -0.820
O8      14.508954683    6.808987861   85.603537085 XXXX 39     oc12    O  -0.580
O9      12.961211378    7.413622967   87.709962228 XXXX 39     oc13    O  -0.940
O12     12.084755724    3.822123286   83.315740955 XXXX 39     o*      O  -0.820
Ca3     15.319505661    7.063682527   81.965701407 XXXX 39     casl    Ca  1.700
O13     14.172683314    3.956519465   81.334275032 XXXX 39     o*      O  -0.820
Ca5     16.091889719    3.564305688  101.845050188 XXXX 39     ca+t    Ca  1.500
Si4     13.154743514    5.178496485  100.887786942 XXXX 39     sc2     Si  1.000
Si5     13.800159009    7.362889105   98.887147966 XXXX 39     sc3     Si  1.000
Si6     12.934450626    9.388659996  100.994673829 XXXX 39     sc2     Si  1.000
O14     13.251561083    5.891346115   99.419460682 XXXX 39     oc12    O  -0.580
O15     12.993242744   11.000505035  100.403744350 XXXX 39     oc12    O  -0.580
O16     14.525768704    5.423184715  101.765997946 XXXX 39     oc13    O  -0.940
O17     11.714227199    5.441745853  101.621569641 XXXX 39     oc13    O  -0.940
O18     12.361274817    3.538795174   94.770536136 XXXX 39     oc22    O  -1.080
O19     15.394217316    7.498818315   99.114057138 XXXX 39     oc14    O  -0.670
O20     16.453561460    1.773206255   97.068185351 XXXX 39     o*      O  -0.820
O21     12.967338348    8.554816455   99.557831182 XXXX 39     oc12    O  -0.580
O22     11.613709211    9.116892791  101.761748167 XXXX 39     oc13    O  -0.940
O24     10.859104791    5.404951639   97.237165189 XXXX 39     o*      O  -0.820
Ca6     15.769563623    7.363563583  102.004627409 XXXX 39     ca+t    Ca  1.500
O29     15.067379079    5.358454018   83.539368947 XXXX 39     oc22    O  -1.080
O35     15.060346725    8.926376865   83.642675187 XXXX 39     o*      O  -0.820
Ca8     11.624142936    9.187433918   88.099434530 XXXX 39     ca+t    Ca  1.500
Ca9     14.541890872    7.258327178   90.161439431 XXXX 39     ca+t    Ca  1.500
Si10    11.520200306    8.753703637   91.242942700 XXXX 39     sc2     Si  1.000
Si11    12.449475172    3.576941184   93.183875838 XXXX 39     sc3     Si  1.000
Si12    11.579306956    5.650709750   91.232047179 XXXX 39     sc2     Si  1.000
O37     11.459447308    9.651476378   92.612774253 XXXX 39     oc12    O  -0.580
O38     11.421704380    7.206886597   91.784767685 XXXX 39     oc12    O  -0.580
O40     10.328049176    9.052756039   90.321020986 XXXX 39     oc13    O  -0.940
O41     13.494493789    7.357904153   97.336930287 XXXX 39     oc22    O  -1.080
O42     14.040339012    3.549298948   92.723535773 XXXX 39     oc14    O  -0.670
O43     12.521702632    7.224029104   94.315762144 XXXX 39     o*      O  -0.820
O44     11.686020367    4.831730620   92.601154087 XXXX 39     oc12    O  -0.580
O45     10.267533008    5.360109407   90.355535138 XXXX 39     oc13    O  -0.940
O46     12.876622757    5.443516318   90.217633931 XXXX 39     oc13    O  -0.940
O47     13.820642329    3.719352706   97.554717341 XXXX 39     o*      O  -0.820
O48     15.268021038    8.896751559   95.962034606 XXXX 39     o*      O  -0.820
O49     15.132885925    5.716880090   94.847562895 XXXX 39     o*      O  -0.820
Ca10    12.943794545    5.533389185   96.053399669 XXXX 39     casl    Ca  1.700
O50     13.305473259   10.969991965   97.468893572 XXXX 39     o*      O  -0.820
H2      15.743290279    6.863321746   98.442332179 XXXX 39     hoy     H   0.400
H3      14.423882185    2.832765448   93.238082292 XXXX 39     hoy     H   0.400
H4      17.021224633    5.690798586   84.606174606 XXXX 39     hoy     H   0.400
H5      15.018048976    9.951770188   83.639631723 XXXX 39     h*      H   0.410
H6      14.891165972    8.783106592   84.597058724 XXXX 39     h*      H   0.410
H7      10.953283453    5.989247558   84.415452993 XXXX 39     h*      H   0.410
H8      12.372935023    6.471677225   84.782777483 XXXX 39     h*      H   0.410
H9      12.176953247    4.039411892   84.267202055 XXXX 39     h*      H   0.410
H10     12.928218828    4.121039573   82.925957695 XXXX 39     h*      H   0.410
H11     14.845184094    3.162262271   81.350264518 XXXX 39     h*      H   0.410
H12     14.627364089    4.397538201   82.092787550 XXXX 39     h*      H   0.410
H13     12.195151222    6.955801476   93.433327358 XXXX 39     h*      H   0.410
H14     12.170625216    8.170990821   94.307388696 XXXX 39     h*      H   0.410
H15     10.353352700    4.819888425   97.867443195 XXXX 39     h*      H   0.410
H16     10.089641383    5.752147111   96.770618954 XXXX 39     h*      H   0.410
H17     15.496215278    5.899913669   93.970942954 XXXX 39     h*      H   0.410
H18     15.986105519    6.171439228   95.152003875 XXXX 39     h*      H   0.410
H19     14.804236408    8.851805704   95.122500273 XXXX 39     h*      H   0.410
H20     14.679287650    8.371711436   96.556766401 XXXX 39     h*      H   0.410
H21     14.011980525    4.210726644   98.382067553 XXXX 39     h*      H   0.410
H22     13.409619943    2.918410220   97.970322516 XXXX 39     h*      H   0.410
H23     14.274498262   10.660488810   97.397296871 XXXX 39     h*      H   0.410
H24     13.114823963   10.904768525   98.413974500 XXXX 39     h*      H   0.410
H25     15.866368464    2.272816296   97.671086929 XXXX 39     h*      H   0.410
H26     15.663974922    1.492589547   96.511765534 XXXX 39     h*      H   0.410
Ca1     25.570735561    3.607984400   90.166723847 XXXX 40     ca+t    Ca  1.500
Ca2     23.034611705    5.440829467   87.938372090 XXXX 40     ca+t    Ca  1.500
Si1     25.629158161   10.639294802   86.903844877 XXXX 40     sc2     Si  1.000
Si2     26.301808028    5.384147068   84.963010173 XXXX 40     sc3     Si  1.000
Si3     25.649144479    7.599926820   86.946528362 XXXX 40     sc2     Si  1.000
O1      25.537358667    4.078569572   85.555905106 XXXX 40     oc12    O  -0.580
O2      25.638026741    9.132104324   86.413881767 XXXX 40     oc12    O  -0.580
O3      26.928709179   11.011903105   87.830500392 XXXX 40     oc13    O  -0.940
O4      24.357339771   10.909199834   87.785362759 XXXX 40     oc13    O  -0.940
O6      27.928442719    5.372057890   85.123629513 XXXX 40     oc14    O  -0.670
O7      22.915191094    5.748853635   85.448413310 XXXX 40     o*      O  -0.820
O8      25.592830119    6.753399982   85.512621468 XXXX 40     oc12    O  -0.580
O9      24.343101303    7.353811560   87.946823391 XXXX 40     oc13    O  -0.940
O12     23.226355766    3.833253256   83.444776561 XXXX 40     o*      O  -0.820
Ca3     26.868314294    7.240770589   81.925063152 XXXX 40     casl    Ca  1.700
O13     25.297785727    3.682929892   81.391168222 XXXX 40     o*      O  -0.820
Ca5     27.339820423    3.606879936  101.536958419 XXXX 40     ca+t    Ca  1.500
Si4     24.401757290    5.062262619  100.919701430 XXXX 40     sc2     Si  1.000
Si5     25.093762624    7.166094530   98.804931249 XXXX 40     sc3     Si  1.000
Si6     24.355492541    9.437955067  100.570831470 XXXX 40     sc2     Si  1.000
O14     24.353948783    5.865104847   99.528912855 XXXX 40     oc12    O  -0.580
O15     24.367736878   10.969612688  100.006196332 XXXX 40     oc12    O  -0.580
O16     25.752391940    5.335755401  101.717377433 XXXX 40     oc13    O  -0.940
O17     23.033196300    5.460238062  101.686371241 XXXX 40     oc13    O  -0.940
O18     23.387194835    3.609586745   94.634185574 XXXX 40     oc22    O  -1.080
O19     26.697143317    7.235500662   99.159156102 XXXX 40     oc14    O  -0.670
O20     27.132268834    3.916706380   98.942718058 XXXX 40     o*      O  -0.820
O21     24.389705838    8.509874687   99.256899053 XXXX 40     oc12    O  -0.580
O22     22.982284126    9.191241059  101.393698993 XXXX 40     oc13    O  -0.940
O24     23.487452525    7.380325580   94.425603294 XXXX 40     o*      O  -0.820
Ca6     26.878311804    7.300126609  101.953204105 XXXX 40     ca+t    Ca  1.500
O29     26.029409954    5.477868823   83.335882479 XXXX 40     oc22    O  -1.080
O35     26.017165827    8.986717394   83.559702489 XXXX 40     o*      O  -0.820
Ca8     22.747905276    9.227265664   88.090751420 XXXX 40     ca+t    Ca  1.500
Ca9     25.851802068    7.214373077   90.254508807 XXXX 40     ca+t    Ca  1.500
Si10    22.937423941    8.797335169   91.213185457 XXXX 40     sc2     Si  1.000
Si11    23.682317990    3.546788638   93.111440314 XXXX 40     sc3     Si  1.000
Si12    22.871801692    5.737324279   91.167108078 XXXX 40     sc2     Si  1.000
O37     23.056511345    9.648699108   92.581104463 XXXX 40     oc12    O  -0.580
O38     22.868403897    7.294044949   91.770684120 XXXX 40     oc12    O  -0.580
O40     21.546109374    9.068341295   90.372565164 XXXX 40     oc13    O  -0.940
O41     24.884039173    7.065145966   97.293252211 XXXX 40     oc22    O  -1.080
O42     25.259803914    3.518461364   92.794720899 XXXX 40     oc14    O  -0.670
O43     25.824661069    7.345328306   92.718622333 XXXX 40     o*      O  -0.820
O44     22.903445855    4.817539023   92.559042410 XXXX 40     oc12    O  -0.580
O45     21.555475266    5.393544237   90.337299023 XXXX 40     oc13    O  -0.940
O46     24.137727346    5.462419590   90.161330613 XXXX 40     oc13    O  -0.940
O47     24.747068027    3.606837538   97.438498775 XXXX 40     o*      O  -0.820
O48     26.212524336    8.937467919   95.314672361 XXXX 40     o*      O  -0.820
O49     26.436113830    5.387524908   95.251612001 XXXX 40     o*      O  -0.820
Ca10    23.978082804    5.394592405   95.931538940 XXXX 40     casl    Ca  1.700
O50     22.682024000    9.409984484   96.812995530 XXXX 40     o*      O  -0.820
H2      27.073632683    6.684726028   98.525872787 XXXX 40     hoy     H   0.400
H3      25.655846021    3.747307941   93.587769648 XXXX 40     hoy     H   0.400
H4      28.241512549    6.005979396   84.433492950 XXXX 40     hoy     H   0.400
H5      26.032246663    9.941095291   83.862149009 XXXX 40     h*      H   0.410
H6      25.822424328    8.506383719   84.392974238 XXXX 40     h*      H   0.410
H7      22.166222545    5.639708946   84.773940996 XXXX 40     h*      H   0.410
H8      23.471227202    6.492065198   85.049148281 XXXX 40     h*      H   0.410
H9      23.857544855    3.744978371   82.620578612 XXXX 40     h*      H   0.410
H10     23.891162711    4.337127100   83.995975524 XXXX 40     h*      H   0.410
H11     25.985252286    3.007396060   81.673865518 XXXX 40     h*      H   0.410
H12     25.623669621    4.471821882   81.974301587 XXXX 40     h*      H   0.410
H13     26.627115548    6.896868690   93.040810516 XXXX 40     h*      H   0.410
H14     25.632743681    8.030703979   93.345248657 XXXX 40     h*      H   0.410
H15     23.776618834    8.307430263   94.135642236 XXXX 40     h*      H   0.410
H16     23.119953274    6.951976761   93.573436566 XXXX 40     h*      H   0.410
H17     26.838085198    5.327648105   96.146165549 XXXX 40     h*      H   0.410
H18     26.742721026    6.310605917   95.064224195 XXXX 40     h*      H   0.410
H19     25.567593574    8.449780521   95.941932102 XXXX 40     h*      H   0.410
H20     25.634671803    9.669248352   95.071141617 XXXX 40     h*      H   0.410
H21     24.807609778    2.591545130   97.430581277 XXXX 40     h*      H   0.410
H22     24.451936390    3.630241385   98.376447351 XXXX 40     h*      H   0.410
H23     23.523037870    8.939071345   97.062530422 XXXX 40     h*      H   0.410
H24     22.983571153    9.893871931   96.000181852 XXXX 40     h*      H   0.410
H25     26.989657119    3.341542802   98.162297897 XXXX 40     h*      H   0.410
H26     27.969144163    4.406339815   98.606771143 XXXX 40     h*      H   0.410
Ca1     14.204578030   10.947683042   90.280011698 XXXX 41     ca+t    Ca  1.500
Ca2     11.721524188   12.842793983   88.003450601 XXXX 41     ca+t    Ca  1.500
Si1     14.462692830   18.120332516   86.918493159 XXXX 41     sc2     Si  1.000
Si2     15.175365286   12.823396695   84.951373590 XXXX 41     sc3     Si  1.000
Si3     14.436962829   15.002379122   86.903177601 XXXX 41     sc2     Si  1.000
O1      14.404861847   11.583151579   85.520839726 XXXX 41     oc12    O  -0.580
O2      14.435746888   16.523780315   86.372940516 XXXX 41     oc12    O  -0.580
O4      13.077925066   18.404257328   87.711264038 XXXX 41     oc13    O  -0.940
O6      16.832330978   12.744510315   85.254652611 XXXX 41     oc14    O  -0.670
O7      11.885472952   13.670574726   83.818431870 XXXX 41     o*      O  -0.820
O8      14.477993150   14.148660041   85.479770557 XXXX 41     oc12    O  -0.580
O9      13.120724414   14.738221678   87.701239479 XXXX 41     oc13    O  -0.940
O12     12.631194009   10.955956964   83.240750964 XXXX 41     o*      O  -0.820
Ca3     15.827644542   14.808346204   82.135178549 XXXX 41     casl    Ca  1.700
O13     14.191128708   11.376786687   80.890660500 XXXX 41     o*      O  -0.820
Ca5     15.843713651   10.994616566  101.494335266 XXXX 41     ca+t    Ca  1.500
Si4     12.973375876   12.547246389  100.952213512 XXXX 41     sc2     Si  1.000
Si5     13.841704850   14.500657974   98.898743406 XXXX 41     sc3     Si  1.000
Si6     13.236662655   16.795952467  100.733065419 XXXX 41     sc2     Si  1.000
O14     12.914070800   13.369739819   99.555180123 XXXX 41     oc12    O  -0.580
O16     14.332609661   12.882101929  101.771669193 XXXX 41     oc13    O  -0.940
O17     11.670440137   12.803587953  101.952149039 XXXX 41     oc13    O  -0.940
O18     11.967547007   10.960592550   94.691229354 XXXX 41     oc22    O  -1.080
O19     15.449708435   14.357646773   99.213166179 XXXX 41     oc14    O  -0.670
O20     16.761207509   13.346221048   96.736369869 XXXX 41     o*      O  -0.820
O21     13.304878835   15.926536924   99.302072316 XXXX 41     oc12    O  -0.580
O22     11.888383129   16.380245277  101.590898074 XXXX 41     oc13    O  -0.940
O24     11.716260256   14.452934657   94.596008782 XXXX 41     o*      O  -0.820
Ca6     15.804287020   14.517319962  102.021674430 XXXX 41     ca+t    Ca  1.500
O29     14.935258015   12.834787758   83.436619439 XXXX 41     oc22    O  -1.080
O35     14.782757020   16.523343742   83.616047935 XXXX 41     o*      O  -0.820
Ca8     11.519583731   16.570245472   87.935793747 XXXX 41     ca+t    Ca  1.500
Ca9     14.383716638   14.692957607   90.199005882 XXXX 41     ca+t    Ca  1.500
Si10    11.617018789   16.221470771   91.255506726 XXXX 41     sc2     Si  1.000
Si11    12.176456970   10.959772072   93.150202515 XXXX 41     sc3     Si  1.000
Si12    11.511851693   13.160877081   91.236308143 XXXX 41     sc2     Si  1.000
O37     11.656184950   17.048483970   92.639356317 XXXX 41     oc12    O  -0.580
O38     11.506075700   14.679670172   91.788206293 XXXX 41     oc12    O  -0.580
O40     10.436233831   16.529832281   90.302848339 XXXX 41     oc13    O  -0.940
O41     13.598810051   14.433388962   97.393870164 XXXX 41     oc22    O  -1.080
O42     13.798450089   10.987104339   92.875942229 XXXX 41     oc14    O  -0.670
O43     14.143534961   15.892000015   95.337603478 XXXX 41     o*      O  -0.820
O44     11.430184276   12.239759608   92.605872530 XXXX 41     oc12    O  -0.580
O45     10.274414516   12.837886259   90.260568112 XXXX 41     oc13    O  -0.940
O46     12.840821819   12.903122360   90.355608686 XXXX 41     oc13    O  -0.940
O47     15.962132584   10.817051312   98.744548637 XXXX 41     o*      O  -0.820
O48     16.532522241   16.326514953   97.299439138 XXXX 41     o*      O  -0.820
O49     14.537240256   15.040803459   92.673759453 XXXX 41     o*      O  -0.820
Ca10    12.342195889   12.711783602   96.233266088 XXXX 41     casl    Ca  1.700
O50     11.297039763   16.599227879   97.039001154 XXXX 41     o*      O  -0.820
H2      15.805954204   13.861490985   98.516055766 XXXX 41     hoy     H   0.400
H3      14.158535564   11.157588000   93.752010038 XXXX 41     hoy     H   0.400
H4      17.162410445   12.294847251   84.518400605 XXXX 41     hoy     H   0.400
H5      14.897470919   17.534216441   83.763238757 XXXX 41     h*      H   0.410
H6      14.570720172   16.227899769   84.536114578 XXXX 41     h*      H   0.410
H7      12.871627355   13.662876340   83.833237733 XXXX 41     h*      H   0.410
H8      11.827600239   13.327355168   82.867646270 XXXX 41     h*      H   0.410
H9      13.015501422   11.523626407   83.953705884 XXXX 41     h*      H   0.410
H10     13.276429910   11.168811670   82.521244821 XXXX 41     h*      H   0.410
H11     14.813336866   10.608166420   80.788210560 XXXX 41     h*      H   0.410
H12     14.555179542   11.925391327   81.621015023 XXXX 41     h*      H   0.410
H13     14.056435256   16.801348486   95.748539927 XXXX 41     h*      H   0.410
H14     13.934833078   15.316938476   96.047737973 XXXX 41     h*      H   0.410
H15     11.121768157   14.192762208   93.883256314 XXXX 41     h*      H   0.410
H16     12.112086893   15.162974011   94.096315621 XXXX 41     h*      H   0.410
H17     15.429881764   14.830948220   92.935488662 XXXX 41     h*      H   0.410
H18     14.405679559   15.795217605   93.354291510 XXXX 41     h*      H   0.410
H19     15.604898561   16.136750463   97.235917637 XXXX 41     h*      H   0.410
H20     16.766215258   16.000599547   98.233344122 XXXX 41     h*      H   0.410
H21     16.715593279   11.451150070   98.467895095 XXXX 41     h*      H   0.410
H22     16.425529196    9.964159008   98.816220890 XXXX 41     h*      H   0.410
H23     11.693251288   17.389533948   96.508463251 XXXX 41     h*      H   0.410
H24     12.160561726   16.123263497   97.249462993 XXXX 41     h*      H   0.410
H25     17.280351575   13.891885887   96.119043568 XXXX 41     h*      H   0.410
H26     17.446467603   12.685545325   96.902017728 XXXX 41     h*      H   0.410
Ca1     25.566566403   11.058817730   89.998083174 XXXX 42     ca+t    Ca  1.500
Ca2     22.913942672   12.833698583   87.989106805 XXXX 42     ca+t    Ca  1.500
Si1     25.637778156   18.023925132   86.852616650 XXXX 42     sc2     Si  1.000
Si2     26.454043471   12.787729253   84.987520589 XXXX 42     sc3     Si  1.000
Si3     25.693024418   14.972532523   86.829875524 XXXX 42     sc2     Si  1.000
O1      25.692246774   11.451798780   85.491851652 XXXX 42     oc12    O  -0.580
O2      25.629398059   16.489252174   86.268454228 XXXX 42     oc12    O  -0.580
O4      24.308766792   18.308737629   87.767828164 XXXX 42     oc13    O  -0.940
O6      28.045316670   12.895451852   85.495052245 XXXX 42     oc14    O  -0.670
O7      22.710043627   14.563872805   83.009784051 XXXX 42     o*      O  -0.820
O8      25.608712264   14.033446439   85.507888886 XXXX 42     oc12    O  -0.580
O9      24.453708766   14.723778012   87.781571508 XXXX 42     oc13    O  -0.940
O12     22.996990465   13.393355388   85.631213055 XXXX 42     o*      O  -0.820
Ca3     26.979331016   14.610323586   82.121069035 XXXX 42     casl    Ca  1.700
O13     23.328099961   11.380634058   83.607940892 XXXX 42     o*      O  -0.820
Ca5     27.203097843   10.857306202  101.808998919 XXXX 42     ca+t    Ca  1.500
Si4     24.347471539   12.430642110  100.701025861 XXXX 42     sc2     Si  1.000
Si5     25.192867294   14.760080691   98.965287640 XXXX 42     sc3     Si  1.000
Si6     24.460331480   16.865896509  101.043851235 XXXX 42     sc2     Si  1.000
O14     24.365871555   13.443638028   99.416986025 XXXX 42     oc12    O  -0.580
O16     25.759425229   12.669469169  101.602572095 XXXX 42     oc13    O  -0.940
O17     22.961915587   12.748463050  101.542657651 XXXX 42     oc13    O  -0.940
O18     23.894077890   10.911165470   94.718304725 XXXX 42     oc22    O  -1.080
O19     26.838853623   14.609111491   99.173032006 XXXX 42     oc14    O  -0.670
O20     27.729541647    9.353583020   97.780112643 XXXX 42     o*      O  -0.820
O21     24.531736419   16.107772434   99.575671570 XXXX 42     oc12    O  -0.580
O22     23.068393872   16.524775370  101.916497308 XXXX 42     oc13    O  -0.940
O24     22.853945982   14.412767837   94.920896242 XXXX 42     o*      O  -0.820
Ca6     27.071393666   14.590092777  101.752291629 XXXX 42     ca+t    Ca  1.500
O29     26.291842014   12.832791306   83.409211215 XXXX 42     oc22    O  -1.080
O35     25.656738121   16.176426725   83.410567586 XXXX 42     o*      O  -0.820
Ca8     22.691482086   16.526458736   87.920484725 XXXX 42     ca+t    Ca  1.500
Ca9     25.679528889   14.630849051   89.878703588 XXXX 42     ca+t    Ca  1.500
Si10    22.913959687   16.214404013   91.214726083 XXXX 42     sc2     Si  1.000
Si11    23.880896881   10.938676417   93.131540191 XXXX 42     sc3     Si  1.000
Si12    23.033706999   13.154826988   91.270437276 XXXX 42     sc2     Si  1.000
O37     22.894292854   17.082592996   92.574034917 XXXX 42     oc12    O  -0.580
O38     23.021192251   14.699179534   91.791158558 XXXX 42     oc12    O  -0.580
O40     21.508285957   16.471338183   90.420511498 XXXX 42     oc13    O  -0.940
O41     24.902029052   14.918883575   97.427501967 XXXX 42     oc22    O  -1.080
O42     25.457198337   10.890868615   92.637607132 XXXX 42     oc14    O  -0.670
O43     26.064080690   13.989082306   94.472699861 XXXX 42     o*      O  -0.820
O44     23.205991509   12.260178586   92.666644544 XXXX 42     oc12    O  -0.580
O45     21.679904973   12.810393738   90.467319057 XXXX 42     oc13    O  -0.940
O46     24.262954532   12.880175545   90.285157951 XXXX 42     oc13    O  -0.940
O47     25.492805508   11.200377448   97.363936447 XXXX 42     o*      O  -0.820
O48     26.796639360   16.447134681   95.872683591 XXXX 42     o*      O  -0.820
O49     30.409032715   14.693048036   97.698790158 XXXX 42     o*      O  -0.820
Ca10    24.439601759   12.917191924   96.133396121 XXXX 42     casl    Ca  1.700
O50     21.745221129   14.891459422   98.965730455 XXXX 42     o*      O  -0.820
H2      27.199452082   14.367492916   98.316015952 XXXX 42     hoy     H   0.400
H3      26.065083153   10.993548758   93.314274727 XXXX 42     hoy     H   0.400
H4      28.506678685   13.303554448   84.746029463 XXXX 42     hoy     H   0.400
H5      24.938173195   16.756130643   83.180415439 XXXX 42     h*      H   0.410
H6      25.742360757   16.349765007   84.396803729 XXXX 42     h*      H   0.410
H7      22.132156492   15.361189260   82.834667608 XXXX 42     h*      H   0.410
H8      22.242997273   13.818428944   82.543577013 XXXX 42     h*      H   0.410
H9      23.901416384   13.817495878   85.527536514 XXXX 42     h*      H   0.410
H10     22.557215851   13.687255844   84.847617469 XXXX 42     h*      H   0.410
H11     23.573437951   11.694669998   84.502113728 XXXX 42     h*      H   0.410
H12     24.156794792   11.461838509   83.068672611 XXXX 42     h*      H   0.410
H13     26.632900570   14.817907311   94.673672012 XXXX 42     h*      H   0.410
H14     26.590445241   13.676339338   93.686582296 XXXX 42     h*      H   0.410
H15     23.176276585   15.353660446   94.726702189 XXXX 42     h*      H   0.410
H16     22.852460520   14.193802466   93.925769457 XXXX 42     h*      H   0.410
H17     30.113869350   13.881560960   98.135228822 XXXX 42     h*      H   0.410
H18     30.719930642   15.178799590   98.482543050 XXXX 42     h*      H   0.410
H19     26.257891884   15.806597941   96.372726018 XXXX 42     h*      H   0.410
H20     26.148651711   17.189514370   95.980514341 XXXX 42     h*      H   0.410
H21     26.233196032   10.581743647   97.294844962 XXXX 42     h*      H   0.410
H22     25.028017544   10.923376120   98.204628890 XXXX 42     h*      H   0.410
H23     22.676026432   14.647079451   98.599097784 XXXX 42     h*      H   0.410
H24     21.810357767   15.887017367   98.833790254 XXXX 42     h*      H   0.410
H25     28.528946111    9.283469826   98.376340996 XXXX 42     h*      H   0.410
H26     27.249439557    8.615830254   98.030527523 XXXX 42     h*      H   0.410
O3       3.227966671    3.839246608   12.436072326 XXXX 43     oc13    O  -0.940
O15     13.249694892   -3.900984899   72.634546956 XXXX 43     oc12    O  -0.580
O3      14.472167224    3.817359277   12.635122431 XXXX 44     oc13    O  -0.940
O15     24.510448444   -3.785955625   72.463139279 XXXX 44     oc12    O  -0.580
O3      15.727900119   -3.872644856   87.830969539 XXXX 45     oc13    O  -0.940
O15     13.175931807   -3.916673246  100.197476119 XXXX 45     oc12    O  -0.580
O3      26.994859127   -4.019118221   87.676819391 XXXX 46     oc13    O  -0.940
O15     24.465673637   -3.805941461  100.675165823 XXXX 46     oc12    O  -0.580
O34      4.935051152   26.090449818    1.170172254 XXXX 49     oc13    O  -0.940
O34     16.307990206   26.023192440    1.172676354 XXXX 50     oc13    O  -0.940
O34     17.267197390   18.547520178   76.502201647 XXXX 51     oc13    O  -0.940
O47    -18.941620254   27.190374158   19.354919008 XXXX 51     o*      O  -0.820
H3       1.879519469   26.301645366   18.462546348 XXXX 51     hoy     H   0.400
H21    -19.276821700   27.711973912   20.128948647 XXXX 51     h*      H   0.410
H22    -18.415939595   27.937453308   18.970855096 XXXX 51     h*      H   0.410
O34     28.586601954   18.363746180   76.502445721 XXXX 52     oc13    O  -0.940
O47     22.403780769   37.619106814   68.336427906 XXXX 52     o*      O  -0.820
H3      12.960954873   25.604887956   18.478913841 XXXX 52     hoy     H   0.400
H21     22.690735326   38.563269143   68.045725337 XXXX 52     h*      H   0.410
H22     23.136792530   37.384525177   68.969083841 XXXX 52     h*      H   0.410
O47     13.612885556   18.477099623   97.431794996 XXXX 53     o*      O  -0.820
H3      14.279853017   18.878491707   93.633208555 XXXX 53     hoy     H   0.400
H21     13.300314015   17.835944364   98.128581753 XXXX 53     h*      H   0.410
H22     14.232124505   18.840086892   98.070218537 XXXX 53     h*      H   0.410
O47     25.129914060   18.395007096   97.681951462 XXXX 54     o*      O  -0.820
H3      25.452566112   18.840588147   93.585449298 XXXX 54     hoy     H   0.400
H21     25.550324976   18.883858978   98.410625351 XXXX 54     h*      H   0.410
H22     25.109720105   17.518151129   98.000977463 XXXX 54     h*      H   0.410
O10     -2.301757153   11.481120087   12.663924567 XXXX 55     oc13    O  -0.940
O23      8.803192417    5.601658973   73.893136858 XXXX 55     oc13    O  -0.940
O27     11.588717872   10.899042525   76.201749251 XXXX 55     oc13    O  -0.940
O39     -5.316036811   13.135142684   15.003633293 XXXX 55     oc13    O  -0.940
O10      8.841709885   11.333621536   12.686704599 XXXX 56     oc13    O  -0.940
O23     20.001892050    5.505498103   73.940306668 XXXX 56     oc13    O  -0.940
O27     22.940791037   10.994248428   76.574458688 XXXX 56     oc13    O  -0.940
O39      5.966882375   13.258384192   15.168043904 XXXX 56     oc13    O  -0.940
O10     -2.399095460   18.730611429   12.487789586 XXXX 57     oc13    O  -0.940
O23      8.800991378   12.822156495   73.924776665 XXXX 57     oc13    O  -0.940
O39     -5.152148370   20.553834545   14.968372260 XXXX 57     oc13    O  -0.940
O10      8.788011995   18.782802296   12.688752888 XXXX 58     oc13    O  -0.940
O23     20.024779817   12.965886828   73.960308150 XXXX 58     oc13    O  -0.940
O39      6.126205305   20.687254938   15.094104820 XXXX 58     oc13    O  -0.940
O10     -2.415097800   26.175397777   12.403880399 XXXX 59     oc13    O  -0.940
O10      8.851852222   26.253184394   12.685420483 XXXX 60     oc13    O  -0.940
O10     10.121805006    3.619417710   88.033220472 XXXX 61     oc13    O  -0.940
O23      8.745419718    5.363465992  101.788474337 XXXX 61     oc13    O  -0.940
O39      7.279260030    5.355148943   90.379323375 XXXX 61     oc13    O  -0.940
O10     21.373807228    3.589103209   87.869363878 XXXX 62     oc13    O  -0.940
O23     19.916096279    5.406597184  101.901968492 XXXX 62     oc13    O  -0.940
O39     18.393507582    5.444038358   90.346504764 XXXX 62     oc13    O  -0.940
O10     10.000025125   10.955011479   87.788826847 XXXX 63     oc13    O  -0.940
O23      8.803696345   12.916147049  101.954752142 XXXX 63     oc13    O  -0.940
O39      7.224045403   12.904513376   90.216221279 XXXX 63     oc13    O  -0.940
O10     21.357829008   11.144695312   87.948402530 XXXX 64     oc13    O  -0.940
O23     20.022875438   12.839036619  101.647245522 XXXX 64     oc13    O  -0.940
O39     18.561619145   12.777366918   90.340921350 XXXX 64     oc13    O  -0.940
O10     10.192606251   18.426622198   87.816210085 XXXX 65     oc13    O  -0.940
O10     21.232605365   18.453697660   87.835139917 XXXX 66     oc13    O  -0.940
O27     -0.636321385   11.175644153    1.073190730 XXXX 67     oc13    O  -0.940
O27     10.440605174   11.326509809    0.976046563 XXXX 68     oc13    O  -0.940
O27     -0.841147253   18.739408589    1.020976850 XXXX 69     oc13    O  -0.940
O27     10.541549404   18.712563722    1.232556863 XXXX 70     oc13    O  -0.940
O23      8.924082531   -1.929816552   73.884525753 XXXX 73     oc13    O  -0.940
O27     11.511281206    3.603604252   76.492112039 XXXX 73     oc13    O  -0.940
O39     -5.086879759    5.606452699   15.065046804 XXXX 73     oc13    O  -0.940
O23     20.274291496   -2.052163538   73.897039425 XXXX 74     oc13    O  -0.940
O27     22.913143286    3.523939161   76.659829903 XXXX 74     oc13    O  -0.940
O39      6.157814700    5.646116914   15.128441319 XXXX 74     oc13    O  -0.940
O23      8.908277279   -1.851355586  101.683206604 XXXX 75     oc13    O  -0.940
O39      7.088716054   -2.152102182   90.356099495 XXXX 75     oc13    O  -0.940
O23     20.063161222   -1.997280472  101.893792689 XXXX 76     oc13    O  -0.940
O39     18.472884018   -2.006032600   90.220719181 XXXX 76     oc13    O  -0.940
O27     -0.741107312    3.864569653    1.076413596 XXXX 77     oc13    O  -0.940
O27     10.485217302    3.834496304    1.355208913 XXXX 78     oc13    O  -0.940
O27     11.645947988   -3.845140632   76.457247353 XXXX 79     oc13    O  -0.940
O27     22.866648116   -4.008251561   76.375633147 XXXX 80     oc13    O  -0.940
O10      3.372173103    7.789859406   12.504073660 XXXX 81     oc13    O  -0.940
O23     14.351745816    1.737924042   74.069681084 XXXX 81     oc13    O  -0.940
O27     17.286897559   -0.235150183   76.457195043 XXXX 81     oc13    O  -0.940
O39      0.480130879    9.517451639   15.054349558 XXXX 81     oc13    O  -0.940
O10     14.561427182    7.575071155   12.537777248 XXXX 82     oc13    O  -0.940
O23     25.707201862    1.762931624   74.094683815 XXXX 82     oc13    O  -0.940
O27     28.570752861   -0.163625415   76.572952307 XXXX 82     oc13    O  -0.940
O39     11.641710017    9.338855612   15.085918797 XXXX 82     oc13    O  -0.940
O10      3.306539263   15.060419434   12.503339057 XXXX 83     oc13    O  -0.940
O23     14.547148632    9.224708605   73.683391895 XXXX 83     oc13    O  -0.940
O27     17.404810029    7.290086611   76.527391590 XXXX 83     oc13    O  -0.940
O39      0.546558867   16.820621943   14.970131039 XXXX 83     oc13    O  -0.940
O10     14.530363043   15.091193191   12.575081808 XXXX 84     oc13    O  -0.940
O23     25.667400995    9.176664601   74.103448018 XXXX 84     oc13    O  -0.940
O27     28.472915583    7.273806689   76.615708132 XXXX 84     oc13    O  -0.940
O39     11.561501100   16.924981972   15.084116343 XXXX 84     oc13    O  -0.940
O10      3.294605685   22.565876242   12.275897107 XXXX 85     oc13    O  -0.940
O23     14.485366937   16.644317852   74.157174984 XXXX 85     oc13    O  -0.940
O27     17.210012695   14.525545937   76.415000947 XXXX 85     oc13    O  -0.940
O39      0.542033655   24.235748641   15.022111865 XXXX 85     oc13    O  -0.940
O10     14.322067592   22.420345951   12.739017033 XXXX 86     oc13    O  -0.940
O23     25.785503591   16.748844945   74.034675200 XXXX 86     oc13    O  -0.940
O27     28.499882987   14.631832340   76.347809935 XXXX 86     oc13    O  -0.940
O39     11.628188896   24.344657130   15.209694723 XXXX 86     oc13    O  -0.940
O10     15.673630431   -0.121631665   87.701986495 XXXX 87     oc13    O  -0.940
O23     14.473828085    1.868434116  101.679843527 XXXX 87     oc13    O  -0.940
O39     12.811208682    1.659797822   90.303533178 XXXX 87     oc13    O  -0.940
O10     26.950471879   -0.162136894   87.892772235 XXXX 88     oc13    O  -0.940
O23     25.700909493    1.732995683  101.913729669 XXXX 88     oc13    O  -0.940
O39     24.102238331    1.510806851   90.366209690 XXXX 88     oc13    O  -0.940
O10     15.571583412    7.315257564   87.942910773 XXXX 89     oc13    O  -0.940
O23     14.200961229    9.059586173  101.911807551 XXXX 89     oc13    O  -0.940
O39     12.939185948    8.853791720   90.490495011 XXXX 89     oc13    O  -0.940
O10     26.922963530    7.300729035   87.813337410 XXXX 90     oc13    O  -0.940
O23     25.627270535    9.221235283  101.462097079 XXXX 90     oc13    O  -0.940
O39     24.264300504    8.998886998   90.265416690 XXXX 90     oc13    O  -0.940
O10     15.677776366   14.700356784   87.849310655 XXXX 91     oc13    O  -0.940
O23     14.588027854   16.491270405  101.609443549 XXXX 91     oc13    O  -0.940
O39     12.892865041   16.465621804   90.366080865 XXXX 91     oc13    O  -0.940
O10     27.075471459   14.821059333   87.673391466 XXXX 92     oc13    O  -0.940
O23     25.773169532   16.560097603  101.926589571 XXXX 92     oc13    O  -0.940
O39     24.158390786   16.547844011   90.184434418 XXXX 92     oc13    O  -0.940
O27      4.970276976    7.469795618    1.070179322 XXXX 93     oc13    O  -0.940
O27     16.191606650    7.590706945    1.198455068 XXXX 94     oc13    O  -0.940
O27      4.937904154   14.946605512    1.250402878 XXXX 95     oc13    O  -0.940
O27     16.213376940   14.904145021    1.283423000 XXXX 96     oc13    O  -0.940
O27      4.936166510   22.207696546    1.132337227 XXXX 97     oc13    O  -0.940
O27     16.157412203   22.311863177    1.276754745 XXXX 98     oc13    O  -0.940
end
end
